p cnf 5453 19600
-1 217 0
-109 217 0
-217 1 109 0
-2 218 0
-110 218 0
-218 2 110 0
-3 219 0
-111 219 0
-219 3 111 0
-4 220 0
-112 220 0
-220 4 112 0
-5 221 0
-113 221 0
-221 5 113 0
-6 222 0
-114 222 0
-222 6 114 0
-7 223 0
-115 223 0
-223 7 115 0
-8 224 0
-116 224 0
-224 8 116 0
-9 225 0
-117 225 0
-225 9 117 0
-10 226 0
-118 226 0
-226 10 118 0
-11 227 0
-119 227 0
-227 11 119 0
-12 228 0
-120 228 0
-228 12 120 0
-13 229 0
-121 229 0
-229 13 121 0
-14 230 0
-122 230 0
-230 14 122 0
-15 231 0
-123 231 0
-231 15 123 0
-16 232 0
-124 232 0
-232 16 124 0
-17 233 0
-125 233 0
-233 17 125 0
-18 234 0
-126 234 0
-234 18 126 0
-19 235 0
-127 235 0
-235 19 127 0
-20 236 0
-128 236 0
-236 20 128 0
-21 237 0
-129 237 0
-237 21 129 0
-22 238 0
-130 238 0
-238 22 130 0
-23 239 0
-131 239 0
-239 23 131 0
-24 240 0
-132 240 0
-240 24 132 0
-25 241 0
-133 241 0
-241 25 133 0
-26 242 0
-134 242 0
-242 26 134 0
-27 243 0
-135 243 0
-243 27 135 0
-28 244 0
-136 244 0
-244 28 136 0
-29 245 0
-137 245 0
-245 29 137 0
-30 246 0
-138 246 0
-246 30 138 0
-31 247 0
-139 247 0
-247 31 139 0
-32 248 0
-140 248 0
-248 32 140 0
-33 249 0
-141 249 0
-249 33 141 0
-34 250 0
-142 250 0
-250 34 142 0
-35 251 0
-143 251 0
-251 35 143 0
-36 252 0
-144 252 0
-252 36 144 0
-37 253 0
-145 253 0
-253 37 145 0
-38 254 0
-146 254 0
-254 38 146 0
-39 255 0
-147 255 0
-255 39 147 0
-40 256 0
-148 256 0
-256 40 148 0
-41 257 0
-149 257 0
-257 41 149 0
-42 258 0
-150 258 0
-258 42 150 0
-43 259 0
-151 259 0
-259 43 151 0
-44 260 0
-152 260 0
-260 44 152 0
-45 261 0
-153 261 0
-261 45 153 0
-46 262 0
-154 262 0
-262 46 154 0
-47 263 0
-155 263 0
-263 47 155 0
-48 264 0
-156 264 0
-264 48 156 0
-49 265 0
-157 265 0
-265 49 157 0
-50 266 0
-158 266 0
-266 50 158 0
-51 267 0
-159 267 0
-267 51 159 0
-52 268 0
-160 268 0
-268 52 160 0
-53 269 0
-161 269 0
-269 53 161 0
-54 270 0
-162 270 0
-270 54 162 0
-55 271 0
-163 271 0
-271 55 163 0
-56 272 0
-164 272 0
-272 56 164 0
-57 273 0
-165 273 0
-273 57 165 0
-58 274 0
-166 274 0
-274 58 166 0
-59 275 0
-167 275 0
-275 59 167 0
-60 276 0
-168 276 0
-276 60 168 0
-61 277 0
-169 277 0
-277 61 169 0
-62 278 0
-170 278 0
-278 62 170 0
-63 279 0
-171 279 0
-279 63 171 0
-64 280 0
-172 280 0
-280 64 172 0
-65 281 0
-173 281 0
-281 65 173 0
-66 282 0
-174 282 0
-282 66 174 0
-67 283 0
-175 283 0
-283 67 175 0
-68 284 0
-176 284 0
-284 68 176 0
-69 285 0
-177 285 0
-285 69 177 0
-70 286 0
-178 286 0
-286 70 178 0
-71 287 0
-179 287 0
-287 71 179 0
-72 288 0
-180 288 0
-288 72 180 0
-73 289 0
-181 289 0
-289 73 181 0
-74 290 0
-182 290 0
-290 74 182 0
-75 291 0
-183 291 0
-291 75 183 0
-76 292 0
-184 292 0
-292 76 184 0
-77 293 0
-185 293 0
-293 77 185 0
-78 294 0
-186 294 0
-294 78 186 0
-79 295 0
-187 295 0
-295 79 187 0
-80 296 0
-188 296 0
-296 80 188 0
-81 297 0
-189 297 0
-297 81 189 0
-82 298 0
-190 298 0
-298 82 190 0
-83 299 0
-191 299 0
-299 83 191 0
-84 300 0
-192 300 0
-300 84 192 0
-85 301 0
-193 301 0
-301 85 193 0
-86 302 0
-194 302 0
-302 86 194 0
-87 303 0
-195 303 0
-303 87 195 0
-88 304 0
-196 304 0
-304 88 196 0
-89 305 0
-197 305 0
-305 89 197 0
-90 306 0
-198 306 0
-306 90 198 0
-91 307 0
-199 307 0
-307 91 199 0
-92 308 0
-200 308 0
-308 92 200 0
-93 309 0
-201 309 0
-309 93 201 0
-94 310 0
-202 310 0
-310 94 202 0
-95 311 0
-203 311 0
-311 95 203 0
-96 312 0
-204 312 0
-312 96 204 0
-97 313 0
-205 313 0
-313 97 205 0
-98 314 0
-206 314 0
-314 98 206 0
-99 315 0
-207 315 0
-315 99 207 0
-100 316 0
-208 316 0
-316 100 208 0
-101 317 0
-209 317 0
-317 101 209 0
-102 318 0
-210 318 0
-318 102 210 0
-103 319 0
-211 319 0
-319 103 211 0
-104 320 0
-212 320 0
-320 104 212 0
-105 321 0
-213 321 0
-321 105 213 0
-106 322 0
-214 322 0
-322 106 214 0
-107 323 0
-215 323 0
-323 107 215 0
-108 324 0
-216 324 0
-324 108 216 0
-325 47 52 0
-325 -47 -52 0
325 -47 52 0
325 47 -52 0
-326 325 54 0
-326 -325 -54 0
326 -325 54 0
326 325 -54 0
-327 326 59 0
-327 -326 -59 0
327 -326 59 0
327 326 -59 0
-328 327 62 0
-328 -327 -62 0
328 -327 62 0
328 327 -62 0
-329 328 63 0
-329 -328 -63 0
329 -328 63 0
329 328 -63 0
-330 329 64 0
-330 -329 -64 0
330 -329 64 0
330 329 -64 0
-331 330 66 0
-331 -330 -66 0
331 -330 66 0
331 330 -66 0
-332 331 68 0
-332 -331 -68 0
332 -331 68 0
332 331 -68 0
-333 332 69 0
-333 -332 -69 0
333 -332 69 0
333 332 -69 0
-334 333 70 0
-334 -333 -70 0
334 -333 70 0
334 333 -70 0
-335 334 72 0
-335 -334 -72 0
335 -334 72 0
335 334 -72 0
-336 335 74 0
-336 -335 -74 0
336 -335 74 0
336 335 -74 0
-337 336 77 0
-337 -336 -77 0
337 -336 77 0
337 336 -77 0
-338 337 79 0
-338 -337 -79 0
338 -337 79 0
338 337 -79 0
-339 338 80 0
-339 -338 -80 0
339 -338 80 0
339 338 -80 0
-340 339 81 0
-340 -339 -81 0
340 -339 81 0
340 339 -81 0
-341 340 83 0
-341 -340 -83 0
341 -340 83 0
341 340 -83 0
-342 341 84 0
-342 -341 -84 0
342 -341 84 0
342 341 -84 0
-343 342 86 0
-343 -342 -86 0
343 -342 86 0
343 342 -86 0
-344 343 87 0
-344 -343 -87 0
344 -343 87 0
344 343 -87 0
-345 344 90 0
-345 -344 -90 0
345 -344 90 0
345 344 -90 0
-346 345 92 0
-346 -345 -92 0
346 -345 92 0
346 345 -92 0
-347 346 94 0
-347 -346 -94 0
347 -346 94 0
347 346 -94 0
-348 347 95 0
-348 -347 -95 0
348 -347 95 0
348 347 -95 0
-349 348 97 0
-349 -348 -97 0
349 -348 97 0
349 348 -97 0
-350 349 99 0
-350 -349 -99 0
350 -349 99 0
350 349 -99 0
-351 350 101 0
-351 -350 -101 0
351 -350 101 0
351 350 -101 0
-352 351 102 0
-352 -351 -102 0
352 -351 102 0
352 351 -102 0
-353 352 103 0
-353 -352 -103 0
353 -352 103 0
353 352 -103 0
-354 353 105 0
-354 -353 -105 0
354 -353 105 0
354 353 -105 0
-355 354 106 0
-355 -354 -106 0
355 -354 106 0
355 354 -106 0
-356 355 107 0
-356 -355 -107 0
356 -355 107 0
356 355 -107 0
-357 356 108 0
-357 -356 -108 0
357 -356 108 0
357 356 -108 0
-358 357 109 0
-358 -357 -109 0
358 -357 109 0
358 357 -109 0
-359 358 154 0
-359 -358 -154 0
359 -358 154 0
359 358 -154 0
-360 359 160 0
-360 -359 -160 0
360 -359 160 0
360 359 -160 0
-361 360 165 0
-361 -360 -165 0
361 -360 165 0
361 360 -165 0
-362 361 166 0
-362 -361 -166 0
362 -361 166 0
362 361 -166 0
-363 362 167 0
-363 -362 -167 0
363 -362 167 0
363 362 -167 0
-364 363 172 0
-364 -363 -172 0
364 -363 172 0
364 363 -172 0
-365 364 173 0
-365 -364 -173 0
365 -364 173 0
365 364 -173 0
-366 365 174 0
-366 -365 -174 0
366 -365 174 0
366 365 -174 0
-367 366 175 0
-367 -366 -175 0
367 -366 175 0
367 366 -175 0
-368 367 179 0
-368 -367 -179 0
368 -367 179 0
368 367 -179 0
-369 368 180 0
-369 -368 -180 0
369 -368 180 0
369 368 -180 0
-370 369 181 0
-370 -369 -181 0
370 -369 181 0
370 369 -181 0
-371 370 185 0
-371 -370 -185 0
371 -370 185 0
371 370 -185 0
-372 371 186 0
-372 -371 -186 0
372 -371 186 0
372 371 -186 0
-373 372 187 0
-373 -372 -187 0
373 -372 187 0
373 372 -187 0
-374 373 191 0
-374 -373 -191 0
374 -373 191 0
374 373 -191 0
-375 374 192 0
-375 -374 -192 0
375 -374 192 0
375 374 -192 0
-376 375 193 0
-376 -375 -193 0
376 -375 193 0
376 375 -193 0
-377 376 198 0
-377 -376 -198 0
377 -376 198 0
377 376 -198 0
-378 377 199 0
-378 -377 -199 0
378 -377 199 0
378 377 -199 0
-379 378 206 0
-379 -378 -206 0
379 -378 206 0
379 378 -206 0
-380 379 212 0
-380 -379 -212 0
380 -379 212 0
380 379 -212 0
-381 380 213 0
-381 -380 -213 0
381 -380 213 0
381 380 -213 0
-381 0
-382 48 52 0
-382 -48 -52 0
382 -48 52 0
382 48 -52 0
-383 382 53 0
-383 -382 -53 0
383 -382 53 0
383 382 -53 0
-384 383 58 0
-384 -383 -58 0
384 -383 58 0
384 383 -58 0
-385 384 59 0
-385 -384 -59 0
385 -384 59 0
385 384 -59 0
-386 385 60 0
-386 -385 -60 0
386 -385 60 0
386 385 -60 0
-387 386 62 0
-387 -386 -62 0
387 -386 62 0
387 386 -62 0
-388 387 64 0
-388 -387 -64 0
388 -387 64 0
388 387 -64 0
-389 388 65 0
-389 -388 -65 0
389 -388 65 0
389 388 -65 0
-390 389 66 0
-390 -389 -66 0
390 -389 66 0
390 389 -66 0
-391 390 67 0
-391 -390 -67 0
391 -390 67 0
391 390 -67 0
-392 391 68 0
-392 -391 -68 0
392 -391 68 0
392 391 -68 0
-393 392 71 0
-393 -392 -71 0
393 -392 71 0
393 392 -71 0
-394 393 72 0
-394 -393 -72 0
394 -393 72 0
394 393 -72 0
-395 394 74 0
-395 -394 -74 0
395 -394 74 0
395 394 -74 0
-396 395 75 0
-396 -395 -75 0
396 -395 75 0
396 395 -75 0
-397 396 76 0
-397 -396 -76 0
397 -396 76 0
397 396 -76 0
-398 397 78 0
-398 -397 -78 0
398 -397 78 0
398 397 -78 0
-399 398 79 0
-399 -398 -79 0
399 -398 79 0
399 398 -79 0
-400 399 85 0
-400 -399 -85 0
400 -399 85 0
400 399 -85 0
-401 400 89 0
-401 -400 -89 0
401 -400 89 0
401 400 -89 0
-402 401 90 0
-402 -401 -90 0
402 -401 90 0
402 401 -90 0
-403 402 91 0
-403 -402 -91 0
403 -402 91 0
403 402 -91 0
-404 403 92 0
-404 -403 -92 0
404 -403 92 0
404 403 -92 0
-405 404 93 0
-405 -404 -93 0
405 -404 93 0
405 404 -93 0
-406 405 95 0
-406 -405 -95 0
406 -405 95 0
406 405 -95 0
-407 406 96 0
-407 -406 -96 0
407 -406 96 0
407 406 -96 0
-408 407 98 0
-408 -407 -98 0
408 -407 98 0
408 407 -98 0
-409 408 99 0
-409 -408 -99 0
409 -408 99 0
409 408 -99 0
-410 409 100 0
-410 -409 -100 0
410 -409 100 0
410 409 -100 0
-411 410 101 0
-411 -410 -101 0
411 -410 101 0
411 410 -101 0
-412 411 105 0
-412 -411 -105 0
412 -411 105 0
412 411 -105 0
-413 412 106 0
-413 -412 -106 0
413 -412 106 0
413 412 -106 0
-414 413 107 0
-414 -413 -107 0
414 -413 107 0
414 413 -107 0
-415 414 110 0
-415 -414 -110 0
415 -414 110 0
415 414 -110 0
-416 415 155 0
-416 -415 -155 0
416 -415 155 0
416 415 -155 0
-417 416 161 0
-417 -416 -161 0
417 -416 161 0
417 416 -161 0
-418 417 166 0
-418 -417 -166 0
418 -417 166 0
418 417 -166 0
-419 418 167 0
-419 -418 -167 0
419 -418 167 0
419 418 -167 0
-420 419 168 0
-420 -419 -168 0
420 -419 168 0
420 419 -168 0
-421 420 169 0
-421 -420 -169 0
421 -420 169 0
421 420 -169 0
-422 421 173 0
-422 -421 -173 0
422 -421 173 0
422 421 -173 0
-423 422 174 0
-423 -422 -174 0
423 -422 174 0
423 422 -174 0
-424 423 175 0
-424 -423 -175 0
424 -423 175 0
424 423 -175 0
-425 424 176 0
-425 -424 -176 0
425 -424 176 0
425 424 -176 0
-426 425 180 0
-426 -425 -180 0
426 -425 180 0
426 425 -180 0
-427 426 181 0
-427 -426 -181 0
427 -426 181 0
427 426 -181 0
-428 427 182 0
-428 -427 -182 0
428 -427 182 0
428 427 -182 0
-429 428 186 0
-429 -428 -186 0
429 -428 186 0
429 428 -186 0
-430 429 187 0
-430 -429 -187 0
430 -429 187 0
430 429 -187 0
-431 430 188 0
-431 -430 -188 0
431 -430 188 0
431 430 -188 0
-432 431 192 0
-432 -431 -192 0
432 -431 192 0
432 431 -192 0
-433 432 193 0
-433 -432 -193 0
433 -432 193 0
433 432 -193 0
-434 433 194 0
-434 -433 -194 0
434 -433 194 0
434 433 -194 0
-435 434 200 0
-435 -434 -200 0
435 -434 200 0
435 434 -200 0
-436 435 207 0
-436 -435 -207 0
436 -435 207 0
436 435 -207 0
-437 436 213 0
-437 -436 -213 0
437 -436 213 0
437 436 -213 0
-438 437 214 0
-438 -437 -214 0
438 -437 214 0
438 437 -214 0
-438 0
-439 46 53 0
-439 -46 -53 0
439 -46 53 0
439 46 -53 0
-440 439 54 0
-440 -439 -54 0
440 -439 54 0
440 439 -54 0
-441 440 60 0
-441 -440 -60 0
441 -440 60 0
441 440 -60 0
-442 441 63 0
-442 -441 -63 0
442 -441 63 0
442 441 -63 0
-443 442 66 0
-443 -442 -66 0
443 -442 66 0
443 442 -66 0
-444 443 67 0
-444 -443 -67 0
444 -443 67 0
444 443 -67 0
-445 444 68 0
-445 -444 -68 0
445 -444 68 0
445 444 -68 0
-446 445 69 0
-446 -445 -69 0
446 -445 69 0
446 445 -69 0
-447 446 70 0
-447 -446 -70 0
447 -446 70 0
447 446 -70 0
-448 447 71 0
-448 -447 -71 0
448 -447 71 0
448 447 -71 0
-449 448 72 0
-449 -448 -72 0
449 -448 72 0
449 448 -72 0
-450 449 73 0
-450 -449 -73 0
450 -449 73 0
450 449 -73 0
-451 450 75 0
-451 -450 -75 0
451 -450 75 0
451 450 -75 0
-452 451 79 0
-452 -451 -79 0
452 -451 79 0
452 451 -79 0
-453 452 86 0
-453 -452 -86 0
453 -452 86 0
453 452 -86 0
-454 453 89 0
-454 -453 -89 0
454 -453 89 0
454 453 -89 0
-455 454 90 0
-455 -454 -90 0
455 -454 90 0
455 454 -90 0
-456 455 93 0
-456 -455 -93 0
456 -455 93 0
456 455 -93 0
-457 456 94 0
-457 -456 -94 0
457 -456 94 0
457 456 -94 0
-458 457 96 0
-458 -457 -96 0
458 -457 96 0
458 457 -96 0
-459 458 99 0
-459 -458 -99 0
459 -458 99 0
459 458 -99 0
-460 459 102 0
-460 -459 -102 0
460 -459 102 0
460 459 -102 0
-461 460 104 0
-461 -460 -104 0
461 -460 104 0
461 460 -104 0
-462 461 107 0
-462 -461 -107 0
462 -461 107 0
462 461 -107 0
-463 462 108 0
-463 -462 -108 0
463 -462 108 0
463 462 -108 0
-464 463 111 0
-464 -463 -111 0
464 -463 111 0
464 463 -111 0
-465 464 156 0
-465 -464 -156 0
465 -464 156 0
465 464 -156 0
-466 465 162 0
-466 -465 -162 0
466 -465 162 0
466 465 -162 0
-467 466 165 0
-467 -466 -165 0
467 -466 165 0
467 466 -165 0
-468 467 166 0
-468 -467 -166 0
468 -467 166 0
468 467 -166 0
-469 468 167 0
-469 -468 -167 0
469 -468 167 0
469 468 -167 0
-470 469 172 0
-470 -469 -172 0
470 -469 172 0
470 469 -172 0
-471 470 173 0
-471 -470 -173 0
471 -470 173 0
471 470 -173 0
-472 471 174 0
-472 -471 -174 0
472 -471 174 0
472 471 -174 0
-473 472 175 0
-473 -472 -175 0
473 -472 175 0
473 472 -175 0
-474 473 179 0
-474 -473 -179 0
474 -473 179 0
474 473 -179 0
-475 474 180 0
-475 -474 -180 0
475 -474 180 0
475 474 -180 0
-476 475 182 0
-476 -475 -182 0
476 -475 182 0
476 475 -182 0
-477 476 184 0
-477 -476 -184 0
477 -476 184 0
477 476 -184 0
-478 477 186 0
-478 -477 -186 0
478 -477 186 0
478 477 -186 0
-479 478 189 0
-479 -478 -189 0
479 -478 189 0
479 478 -189 0
-480 479 190 0
-480 -479 -190 0
480 -479 190 0
480 479 -190 0
-481 480 191 0
-481 -480 -191 0
481 -480 191 0
481 480 -191 0
-482 481 197 0
-482 -481 -197 0
482 -481 197 0
482 481 -197 0
-483 482 198 0
-483 -482 -198 0
483 -482 198 0
483 482 -198 0
-484 483 199 0
-484 -483 -199 0
484 -483 199 0
484 483 -199 0
-485 484 202 0
-485 -484 -202 0
485 -484 202 0
485 484 -202 0
-486 485 204 0
-486 -485 -204 0
486 -485 204 0
486 485 -204 0
-487 486 205 0
-487 -486 -205 0
487 -486 205 0
487 486 -205 0
-488 487 206 0
-488 -487 -206 0
488 -487 206 0
488 487 -206 0
-489 488 209 0
-489 -488 -209 0
489 -488 209 0
489 488 -209 0
-490 489 212 0
-490 -489 -212 0
490 -489 212 0
490 489 -212 0
-491 490 213 0
-491 -490 -213 0
491 -490 213 0
491 490 -213 0
-492 491 214 0
-492 -491 -214 0
492 -491 214 0
492 491 -214 0
-493 492 216 0
-493 -492 -216 0
493 -492 216 0
493 492 -216 0
-493 0
-494 59 62 0
-494 -59 -62 0
494 -59 62 0
494 59 -62 0
-495 494 63 0
-495 -494 -63 0
495 -494 63 0
495 494 -63 0
-496 495 66 0
-496 -495 -66 0
496 -495 66 0
496 495 -66 0
-497 496 67 0
-497 -496 -67 0
497 -496 67 0
497 496 -67 0
-498 497 68 0
-498 -497 -68 0
498 -497 68 0
498 497 -68 0
-499 498 70 0
-499 -498 -70 0
499 -498 70 0
499 498 -70 0
-500 499 71 0
-500 -499 -71 0
500 -499 71 0
500 499 -71 0
-501 500 74 0
-501 -500 -74 0
501 -500 74 0
501 500 -74 0
-502 501 76 0
-502 -501 -76 0
502 -501 76 0
502 501 -76 0
-503 502 77 0
-503 -502 -77 0
503 -502 77 0
503 502 -77 0
-504 503 81 0
-504 -503 -81 0
504 -503 81 0
504 503 -81 0
-505 504 82 0
-505 -504 -82 0
505 -504 82 0
505 504 -82 0
-506 505 84 0
-506 -505 -84 0
506 -505 84 0
506 505 -84 0
-507 506 86 0
-507 -506 -86 0
507 -506 86 0
507 506 -86 0
-508 507 89 0
-508 -507 -89 0
508 -507 89 0
508 507 -89 0
-509 508 91 0
-509 -508 -91 0
509 -508 91 0
509 508 -91 0
-510 509 92 0
-510 -509 -92 0
510 -509 92 0
510 509 -92 0
-511 510 97 0
-511 -510 -97 0
511 -510 97 0
511 510 -97 0
-512 511 99 0
-512 -511 -99 0
512 -511 99 0
512 511 -99 0
-513 512 101 0
-513 -512 -101 0
513 -512 101 0
513 512 -101 0
-514 513 102 0
-514 -513 -102 0
514 -513 102 0
514 513 -102 0
-515 514 103 0
-515 -514 -103 0
515 -514 103 0
515 514 -103 0
-516 515 104 0
-516 -515 -104 0
516 -515 104 0
516 515 -104 0
-517 516 106 0
-517 -516 -106 0
517 -516 106 0
517 516 -106 0
-518 517 107 0
-518 -517 -107 0
518 -517 107 0
518 517 -107 0
-519 518 112 0
-519 -518 -112 0
519 -518 112 0
519 518 -112 0
-520 519 154 0
-520 -519 -154 0
520 -519 154 0
520 519 -154 0
-521 520 160 0
-521 -520 -160 0
521 -520 160 0
521 520 -160 0
-522 521 166 0
-522 -521 -166 0
522 -521 166 0
522 521 -166 0
-523 522 170 0
-523 -522 -170 0
523 -522 170 0
523 522 -170 0
-524 523 176 0
-524 -523 -176 0
524 -523 176 0
524 523 -176 0
-525 524 177 0
-525 -524 -177 0
525 -524 177 0
525 524 -177 0
-526 525 179 0
-526 -525 -179 0
526 -525 179 0
526 525 -179 0
-527 526 182 0
-527 -526 -182 0
527 -526 182 0
527 526 -182 0
-528 527 183 0
-528 -527 -183 0
528 -527 183 0
528 527 -183 0
-529 528 184 0
-529 -528 -184 0
529 -528 184 0
529 528 -184 0
-530 529 185 0
-530 -529 -185 0
530 -529 185 0
530 529 -185 0
-531 530 186 0
-531 -530 -186 0
531 -530 186 0
531 530 -186 0
-532 531 187 0
-532 -531 -187 0
532 -531 187 0
532 531 -187 0
-533 532 189 0
-533 -532 -189 0
533 -532 189 0
533 532 -189 0
-534 533 190 0
-534 -533 -190 0
534 -533 190 0
534 533 -190 0
-535 534 191 0
-535 -534 -191 0
535 -534 191 0
535 534 -191 0
-536 535 192 0
-536 -535 -192 0
536 -535 192 0
536 535 -192 0
-537 536 193 0
-537 -536 -193 0
537 -536 193 0
537 536 -193 0
-538 537 194 0
-538 -537 -194 0
538 -537 194 0
538 537 -194 0
-539 538 196 0
-539 -538 -196 0
539 -538 196 0
539 538 -196 0
-540 539 198 0
-540 -539 -198 0
540 -539 198 0
540 539 -198 0
-541 540 199 0
-541 -540 -199 0
541 -540 199 0
541 540 -199 0
-542 541 201 0
-542 -541 -201 0
542 -541 201 0
542 541 -201 0
-543 542 203 0
-543 -542 -203 0
543 -542 203 0
543 542 -203 0
-544 543 206 0
-544 -543 -206 0
544 -543 206 0
544 543 -206 0
-545 544 208 0
-545 -544 -208 0
545 -544 208 0
545 544 -208 0
-546 545 210 0
-546 -545 -210 0
546 -545 210 0
546 545 -210 0
-547 546 211 0
-547 -546 -211 0
547 -546 211 0
547 546 -211 0
-548 547 213 0
-548 -547 -213 0
548 -547 213 0
548 547 -213 0
-548 0
-549 60 62 0
-549 -60 -62 0
549 -60 62 0
549 60 -62 0
-550 549 65 0
-550 -549 -65 0
550 -549 65 0
550 549 -65 0
-551 550 66 0
-551 -550 -66 0
551 -550 66 0
551 550 -66 0
-552 551 67 0
-552 -551 -67 0
552 -551 67 0
552 551 -67 0
-553 552 70 0
-553 -552 -70 0
553 -552 70 0
553 552 -70 0
-554 553 75 0
-554 -553 -75 0
554 -553 75 0
554 553 -75 0
-555 554 77 0
-555 -554 -77 0
555 -554 77 0
555 554 -77 0
-556 555 78 0
-556 -555 -78 0
556 -555 78 0
556 555 -78 0
-557 556 80 0
-557 -556 -80 0
557 -556 80 0
557 556 -80 0
-558 557 81 0
-558 -557 -81 0
558 -557 81 0
558 557 -81 0
-559 558 84 0
-559 -558 -84 0
559 -558 84 0
559 558 -84 0
-560 559 85 0
-560 -559 -85 0
560 -559 85 0
560 559 -85 0
-561 560 86 0
-561 -560 -86 0
561 -560 86 0
561 560 -86 0
-562 561 88 0
-562 -561 -88 0
562 -561 88 0
562 561 -88 0
-563 562 89 0
-563 -562 -89 0
563 -562 89 0
563 562 -89 0
-564 563 92 0
-564 -563 -92 0
564 -563 92 0
564 563 -92 0
-565 564 93 0
-565 -564 -93 0
565 -564 93 0
565 564 -93 0
-566 565 99 0
-566 -565 -99 0
566 -565 99 0
566 565 -99 0
-567 566 101 0
-567 -566 -101 0
567 -566 101 0
567 566 -101 0
-568 567 103 0
-568 -567 -103 0
568 -567 103 0
568 567 -103 0
-569 568 106 0
-569 -568 -106 0
569 -568 106 0
569 568 -106 0
-570 569 113 0
-570 -569 -113 0
570 -569 113 0
570 569 -113 0
-571 570 155 0
-571 -570 -155 0
571 -570 155 0
571 570 -155 0
-572 571 161 0
-572 -571 -161 0
572 -571 161 0
572 571 -161 0
-573 572 167 0
-573 -572 -167 0
573 -572 167 0
573 572 -167 0
-574 573 171 0
-574 -573 -171 0
574 -573 171 0
574 573 -171 0
-575 574 177 0
-575 -574 -177 0
575 -574 177 0
575 574 -177 0
-576 575 178 0
-576 -575 -178 0
576 -575 178 0
576 575 -178 0
-577 576 180 0
-577 -576 -180 0
577 -576 180 0
577 576 -180 0
-578 577 181 0
-578 -577 -181 0
578 -577 181 0
578 577 -181 0
-579 578 183 0
-579 -578 -183 0
579 -578 183 0
579 578 -183 0
-580 579 184 0
-580 -579 -184 0
580 -579 184 0
580 579 -184 0
-581 580 185 0
-581 -580 -185 0
581 -580 185 0
581 580 -185 0
-582 581 186 0
-582 -581 -186 0
582 -581 186 0
582 581 -186 0
-583 582 187 0
-583 -582 -187 0
583 -582 187 0
583 582 -187 0
-584 583 188 0
-584 -583 -188 0
584 -583 188 0
584 583 -188 0
-585 584 190 0
-585 -584 -190 0
585 -584 190 0
585 584 -190 0
-586 585 191 0
-586 -585 -191 0
586 -585 191 0
586 585 -191 0
-587 586 192 0
-587 -586 -192 0
587 -586 192 0
587 586 -192 0
-588 587 193 0
-588 -587 -193 0
588 -587 193 0
588 587 -193 0
-589 588 194 0
-589 -588 -194 0
589 -588 194 0
589 588 -194 0
-590 589 195 0
-590 -589 -195 0
590 -589 195 0
590 589 -195 0
-591 590 197 0
-591 -590 -197 0
591 -590 197 0
591 590 -197 0
-592 591 200 0
-592 -591 -200 0
592 -591 200 0
592 591 -200 0
-593 592 202 0
-593 -592 -202 0
593 -592 202 0
593 592 -202 0
-594 593 204 0
-594 -593 -204 0
594 -593 204 0
594 593 -204 0
-595 594 205 0
-595 -594 -205 0
595 -594 205 0
595 594 -205 0
-596 595 207 0
-596 -595 -207 0
596 -595 207 0
596 595 -207 0
-597 596 209 0
-597 -596 -209 0
597 -596 209 0
597 596 -209 0
-598 597 212 0
-598 -597 -212 0
598 -597 212 0
598 597 -212 0
-599 598 214 0
-599 -598 -214 0
599 -598 214 0
599 598 -214 0
-599 0
-600 58 63 0
-600 -58 -63 0
600 -58 63 0
600 58 -63 0
-601 600 64 0
-601 -600 -64 0
601 -600 64 0
601 600 -64 0
-602 601 66 0
-602 -601 -66 0
602 -601 66 0
602 601 -66 0
-603 602 69 0
-603 -602 -69 0
603 -602 69 0
603 602 -69 0
-604 603 72 0
-604 -603 -72 0
604 -603 72 0
604 603 -72 0
-605 604 78 0
-605 -604 -78 0
605 -604 78 0
605 604 -78 0
-606 605 81 0
-606 -605 -81 0
606 -605 81 0
606 605 -81 0
-607 606 91 0
-607 -606 -91 0
607 -606 91 0
607 606 -91 0
-608 607 93 0
-608 -607 -93 0
608 -607 93 0
608 607 -93 0
-609 608 97 0
-609 -608 -97 0
609 -608 97 0
609 608 -97 0
-610 609 102 0
-610 -609 -102 0
610 -609 102 0
610 609 -102 0
-611 610 105 0
-611 -610 -105 0
611 -610 105 0
611 610 -105 0
-612 611 108 0
-612 -611 -108 0
612 -611 108 0
612 611 -108 0
-613 612 114 0
-613 -612 -114 0
613 -612 114 0
613 612 -114 0
-614 613 156 0
-614 -613 -156 0
614 -613 156 0
614 613 -156 0
-615 614 162 0
-615 -614 -162 0
615 -614 162 0
615 614 -162 0
-616 615 168 0
-616 -615 -168 0
616 -615 168 0
616 615 -168 0
-617 616 172 0
-617 -616 -172 0
617 -616 172 0
617 616 -172 0
-618 617 175 0
-618 -617 -175 0
618 -617 175 0
618 617 -175 0
-619 618 178 0
-619 -618 -178 0
619 -618 178 0
619 618 -178 0
-620 619 179 0
-620 -619 -179 0
620 -619 179 0
620 619 -179 0
-621 620 181 0
-621 -620 -181 0
621 -620 181 0
621 620 -181 0
-622 621 182 0
-622 -621 -182 0
622 -621 182 0
622 621 -182 0
-623 622 184 0
-623 -622 -184 0
623 -622 184 0
623 622 -184 0
-624 623 185 0
-624 -623 -185 0
624 -623 185 0
624 623 -185 0
-625 624 186 0
-625 -624 -186 0
625 -624 186 0
625 624 -186 0
-626 625 187 0
-626 -625 -187 0
626 -625 187 0
626 625 -187 0
-627 626 188 0
-627 -626 -188 0
627 -626 188 0
627 626 -188 0
-628 627 189 0
-628 -627 -189 0
628 -627 189 0
628 627 -189 0
-629 628 191 0
-629 -628 -191 0
629 -628 191 0
629 628 -191 0
-630 629 192 0
-630 -629 -192 0
630 -629 192 0
630 629 -192 0
-631 630 194 0
-631 -630 -194 0
631 -630 194 0
631 630 -194 0
-632 631 195 0
-632 -631 -195 0
632 -631 195 0
632 631 -195 0
-633 632 196 0
-633 -632 -196 0
633 -632 196 0
633 632 -196 0
-634 633 198 0
-634 -633 -198 0
634 -633 198 0
634 633 -198 0
-635 634 199 0
-635 -634 -199 0
635 -634 199 0
635 634 -199 0
-636 635 201 0
-636 -635 -201 0
636 -635 201 0
636 635 -201 0
-637 636 203 0
-637 -636 -203 0
637 -636 203 0
637 636 -203 0
-638 637 206 0
-638 -637 -206 0
638 -637 206 0
638 637 -206 0
-639 638 208 0
-639 -638 -208 0
639 -638 208 0
639 638 -208 0
-640 639 210 0
-640 -639 -210 0
640 -639 210 0
640 639 -210 0
-641 640 213 0
-641 -640 -213 0
641 -640 213 0
641 640 -213 0
-642 641 215 0
-642 -641 -215 0
642 -641 215 0
642 641 -215 0
-642 0
-643 46 47 0
-643 -46 -47 0
643 -46 47 0
643 46 -47 0
-644 643 54 0
-644 -643 -54 0
644 -643 54 0
644 643 -54 0
-645 644 63 0
-645 -644 -63 0
645 -644 63 0
645 644 -63 0
-646 645 64 0
-646 -645 -64 0
646 -645 64 0
646 645 -64 0
-647 646 65 0
-647 -646 -65 0
647 -646 65 0
647 646 -65 0
-648 647 66 0
-648 -647 -66 0
648 -647 66 0
648 647 -66 0
-649 648 68 0
-649 -648 -68 0
649 -648 68 0
649 648 -68 0
-650 649 70 0
-650 -649 -70 0
650 -649 70 0
650 649 -70 0
-651 650 73 0
-651 -650 -73 0
651 -650 73 0
651 650 -73 0
-652 651 74 0
-652 -651 -74 0
652 -651 74 0
652 651 -74 0
-653 652 77 0
-653 -652 -77 0
653 -652 77 0
653 652 -77 0
-654 653 80 0
-654 -653 -80 0
654 -653 80 0
654 653 -80 0
-655 654 81 0
-655 -654 -81 0
655 -654 81 0
655 654 -81 0
-656 655 82 0
-656 -655 -82 0
656 -655 82 0
656 655 -82 0
-657 656 83 0
-657 -656 -83 0
657 -656 83 0
657 656 -83 0
-658 657 84 0
-658 -657 -84 0
658 -657 84 0
658 657 -84 0
-659 658 89 0
-659 -658 -89 0
659 -658 89 0
659 658 -89 0
-660 659 95 0
-660 -659 -95 0
660 -659 95 0
660 659 -95 0
-661 660 98 0
-661 -660 -98 0
661 -660 98 0
661 660 -98 0
-662 661 99 0
-662 -661 -99 0
662 -661 99 0
662 661 -99 0
-663 662 100 0
-663 -662 -100 0
663 -662 100 0
663 662 -100 0
-664 663 101 0
-664 -663 -101 0
664 -663 101 0
664 663 -101 0
-665 664 102 0
-665 -664 -102 0
665 -664 102 0
665 664 -102 0
-666 665 115 0
-666 -665 -115 0
666 -665 115 0
666 665 -115 0
-667 666 154 0
-667 -666 -154 0
667 -666 154 0
667 666 -154 0
-668 667 166 0
-668 -667 -166 0
668 -667 166 0
668 667 -166 0
-669 668 167 0
-669 -668 -167 0
669 -668 167 0
669 668 -167 0
-670 669 168 0
-670 -669 -168 0
670 -669 168 0
670 669 -168 0
-671 670 169 0
-671 -670 -169 0
671 -670 169 0
671 670 -169 0
-672 671 170 0
-672 -671 -170 0
672 -671 170 0
672 671 -170 0
-673 672 173 0
-673 -672 -173 0
673 -672 173 0
673 672 -173 0
-674 673 174 0
-674 -673 -174 0
674 -673 174 0
674 673 -174 0
-675 674 175 0
-675 -674 -175 0
675 -674 175 0
675 674 -175 0
-676 675 177 0
-676 -675 -177 0
676 -675 177 0
676 675 -177 0
-677 676 179 0
-677 -676 -179 0
677 -676 179 0
677 676 -179 0
-678 677 180 0
-678 -677 -180 0
678 -677 180 0
678 677 -180 0
-679 678 181 0
-679 -678 -181 0
679 -678 181 0
679 678 -181 0
-680 679 184 0
-680 -679 -184 0
680 -679 184 0
680 679 -184 0
-681 680 185 0
-681 -680 -185 0
681 -680 185 0
681 680 -185 0
-682 681 186 0
-682 -681 -186 0
682 -681 186 0
682 681 -186 0
-683 682 187 0
-683 -682 -187 0
683 -682 187 0
683 682 -187 0
-684 683 192 0
-684 -683 -192 0
684 -683 192 0
684 683 -192 0
-685 684 193 0
-685 -684 -193 0
685 -684 193 0
685 684 -193 0
-686 685 200 0
-686 -685 -200 0
686 -685 200 0
686 685 -200 0
-687 686 206 0
-687 -686 -206 0
687 -686 206 0
687 686 -206 0
-688 687 207 0
-688 -687 -207 0
688 -687 207 0
688 687 -207 0
-689 688 213 0
-689 -688 -213 0
689 -688 213 0
689 688 -213 0
-690 689 214 0
-690 -689 -214 0
690 -689 214 0
690 689 -214 0
-691 690 215 0
-691 -690 -215 0
691 -690 215 0
691 690 -215 0
-691 0
-692 47 48 0
-692 -47 -48 0
692 -47 48 0
692 47 -48 0
-693 692 52 0
-693 -692 -52 0
693 -692 52 0
693 692 -52 0
-694 693 58 0
-694 -693 -58 0
694 -693 58 0
694 693 -58 0
-695 694 59 0
-695 -694 -59 0
695 -694 59 0
695 694 -59 0
-696 695 64 0
-696 -695 -64 0
696 -695 64 0
696 695 -64 0
-697 696 66 0
-697 -696 -66 0
697 -696 66 0
697 696 -66 0
-698 697 67 0
-698 -697 -67 0
698 -697 67 0
698 697 -67 0
-699 698 72 0
-699 -698 -72 0
699 -698 72 0
699 698 -72 0
-700 699 75 0
-700 -699 -75 0
700 -699 75 0
700 699 -75 0
-701 700 76 0
-701 -700 -76 0
701 -700 76 0
701 700 -76 0
-702 701 78 0
-702 -701 -78 0
702 -701 78 0
702 701 -78 0
-703 702 79 0
-703 -702 -79 0
703 -702 79 0
703 702 -79 0
-704 703 81 0
-704 -703 -81 0
704 -703 81 0
704 703 -81 0
-705 704 84 0
-705 -704 -84 0
705 -704 84 0
705 704 -84 0
-706 705 85 0
-706 -705 -85 0
706 -705 85 0
706 705 -85 0
-707 706 86 0
-707 -706 -86 0
707 -706 86 0
707 706 -86 0
-708 707 87 0
-708 -707 -87 0
708 -707 87 0
708 707 -87 0
-709 708 91 0
-709 -708 -91 0
709 -708 91 0
709 708 -91 0
-710 709 92 0
-710 -709 -92 0
710 -709 92 0
710 709 -92 0
-711 710 96 0
-711 -710 -96 0
711 -710 96 0
711 710 -96 0
-712 711 98 0
-712 -711 -98 0
712 -711 98 0
712 711 -98 0
-713 712 99 0
-713 -712 -99 0
713 -712 99 0
713 712 -99 0
-714 713 100 0
-714 -713 -100 0
714 -713 100 0
714 713 -100 0
-715 714 101 0
-715 -714 -101 0
715 -714 101 0
715 714 -101 0
-716 715 102 0
-716 -715 -102 0
716 -715 102 0
716 715 -102 0
-717 716 105 0
-717 -716 -105 0
717 -716 105 0
717 716 -105 0
-718 717 106 0
-718 -717 -106 0
718 -717 106 0
718 717 -106 0
-719 718 107 0
-719 -718 -107 0
719 -718 107 0
719 718 -107 0
-720 719 108 0
-720 -719 -108 0
720 -719 108 0
720 719 -108 0
-721 720 116 0
-721 -720 -116 0
721 -720 116 0
721 720 -116 0
-722 721 155 0
-722 -721 -155 0
722 -721 155 0
722 721 -155 0
-723 722 165 0
-723 -722 -165 0
723 -722 165 0
723 722 -165 0
-724 723 166 0
-724 -723 -166 0
724 -723 166 0
724 723 -166 0
-725 724 167 0
-725 -724 -167 0
725 -724 167 0
725 724 -167 0
-726 725 171 0
-726 -725 -171 0
726 -725 171 0
726 725 -171 0
-727 726 172 0
-727 -726 -172 0
727 -726 172 0
727 726 -172 0
-728 727 173 0
-728 -727 -173 0
728 -727 173 0
728 727 -173 0
-729 728 174 0
-729 -728 -174 0
729 -728 174 0
729 728 -174 0
-730 729 175 0
-730 -729 -175 0
730 -729 175 0
730 729 -175 0
-731 730 177 0
-731 -730 -177 0
731 -730 177 0
731 730 -177 0
-732 731 178 0
-732 -731 -178 0
732 -731 178 0
732 731 -178 0
-733 732 179 0
-733 -732 -179 0
733 -732 179 0
733 732 -179 0
-734 733 182 0
-734 -733 -182 0
734 -733 182 0
734 733 -182 0
-735 734 183 0
-735 -734 -183 0
735 -734 183 0
735 734 -183 0
-736 735 184 0
-736 -735 -184 0
736 -735 184 0
736 735 -184 0
-737 736 185 0
-737 -736 -185 0
737 -736 185 0
737 736 -185 0
-738 737 190 0
-738 -737 -190 0
738 -737 190 0
738 737 -190 0
-739 738 191 0
-739 -738 -191 0
739 -738 191 0
739 738 -191 0
-740 739 195 0
-740 -739 -195 0
740 -739 195 0
740 739 -195 0
-741 740 197 0
-741 -740 -197 0
741 -740 197 0
741 740 -197 0
-742 741 198 0
-742 -741 -198 0
742 -741 198 0
742 741 -198 0
-743 742 199 0
-743 -742 -199 0
743 -742 199 0
743 742 -199 0
-744 743 202 0
-744 -743 -202 0
744 -743 202 0
744 743 -202 0
-745 744 204 0
-745 -744 -204 0
745 -744 204 0
745 744 -204 0
-746 745 205 0
-746 -745 -205 0
746 -745 205 0
746 745 -205 0
-747 746 206 0
-747 -746 -206 0
747 -746 206 0
747 746 -206 0
-748 747 207 0
-748 -747 -207 0
748 -747 207 0
748 747 -207 0
-749 748 209 0
-749 -748 -209 0
749 -748 209 0
749 748 -209 0
-750 749 212 0
-750 -749 -212 0
750 -749 212 0
750 749 -212 0
-751 750 213 0
-751 -750 -213 0
751 -750 213 0
751 750 -213 0
-752 751 214 0
-752 -751 -214 0
752 -751 214 0
752 751 -214 0
-752 0
-753 46 48 0
-753 -46 -48 0
753 -46 48 0
753 46 -48 0
-754 753 53 0
-754 -753 -53 0
754 -753 53 0
754 753 -53 0
-755 754 58 0
-755 -754 -58 0
755 -754 58 0
755 754 -58 0
-756 755 60 0
-756 -755 -60 0
756 -755 60 0
756 755 -60 0
-757 756 67 0
-757 -756 -67 0
757 -756 67 0
757 756 -67 0
-758 757 70 0
-758 -757 -70 0
758 -757 70 0
758 757 -70 0
-759 758 76 0
-759 -758 -76 0
759 -758 76 0
759 758 -76 0
-760 759 82 0
-760 -759 -82 0
760 -759 82 0
760 759 -82 0
-761 760 85 0
-761 -760 -85 0
761 -760 85 0
761 760 -85 0
-762 761 87 0
-762 -761 -87 0
762 -761 87 0
762 761 -87 0
-763 762 88 0
-763 -762 -88 0
763 -762 88 0
763 762 -88 0
-764 763 91 0
-764 -763 -91 0
764 -763 91 0
764 763 -91 0
-765 764 93 0
-765 -764 -93 0
765 -764 93 0
765 764 -93 0
-766 765 94 0
-766 -765 -94 0
766 -765 94 0
766 765 -94 0
-767 766 97 0
-767 -766 -97 0
767 -766 97 0
767 766 -97 0
-768 767 99 0
-768 -767 -99 0
768 -767 99 0
768 767 -99 0
-769 768 102 0
-769 -768 -102 0
769 -768 102 0
769 768 -102 0
-770 769 103 0
-770 -769 -103 0
770 -769 103 0
770 769 -103 0
-771 770 108 0
-771 -770 -108 0
771 -770 108 0
771 770 -108 0
-772 771 117 0
-772 -771 -117 0
772 -771 117 0
772 771 -117 0
-773 772 156 0
-773 -772 -156 0
773 -772 156 0
773 772 -156 0
-774 773 166 0
-774 -773 -166 0
774 -773 166 0
774 773 -166 0
-775 774 167 0
-775 -774 -167 0
775 -774 167 0
775 774 -167 0
-776 775 168 0
-776 -775 -168 0
776 -775 168 0
776 775 -168 0
-777 776 169 0
-777 -776 -169 0
777 -776 169 0
777 776 -169 0
-778 777 172 0
-778 -777 -172 0
778 -777 172 0
778 777 -172 0
-779 778 173 0
-779 -778 -173 0
779 -778 173 0
779 778 -173 0
-780 779 174 0
-780 -779 -174 0
780 -779 174 0
780 779 -174 0
-781 780 176 0
-781 -780 -176 0
781 -780 176 0
781 780 -176 0
-782 781 178 0
-782 -781 -178 0
782 -781 178 0
782 781 -178 0
-783 782 179 0
-783 -782 -179 0
783 -782 179 0
783 782 -179 0
-784 783 180 0
-784 -783 -180 0
784 -783 180 0
784 783 -180 0
-785 784 183 0
-785 -784 -183 0
785 -784 183 0
785 784 -183 0
-786 785 184 0
-786 -785 -184 0
786 -785 184 0
786 785 -184 0
-787 786 185 0
-787 -786 -185 0
787 -786 185 0
787 786 -185 0
-788 787 186 0
-788 -787 -186 0
788 -787 186 0
788 787 -186 0
-789 788 191 0
-789 -788 -191 0
789 -788 191 0
789 788 -191 0
-790 789 192 0
-790 -789 -192 0
790 -789 192 0
790 789 -192 0
-791 790 193 0
-791 -790 -193 0
791 -790 193 0
791 790 -193 0
-792 791 196 0
-792 -791 -196 0
792 -791 196 0
792 791 -196 0
-793 792 198 0
-793 -792 -198 0
793 -792 198 0
793 792 -198 0
-794 793 199 0
-794 -793 -199 0
794 -793 199 0
794 793 -199 0
-795 794 200 0
-795 -794 -200 0
795 -794 200 0
795 794 -200 0
-796 795 203 0
-796 -795 -203 0
796 -795 203 0
796 795 -203 0
-797 796 206 0
-797 -796 -206 0
797 -796 206 0
797 796 -206 0
-798 797 207 0
-798 -797 -207 0
798 -797 207 0
798 797 -207 0
-799 798 208 0
-799 -798 -208 0
799 -798 208 0
799 798 -208 0
-800 799 210 0
-800 -799 -210 0
800 -799 210 0
800 799 -210 0
-801 800 213 0
-801 -800 -213 0
801 -800 213 0
801 800 -213 0
-802 801 214 0
-802 -801 -214 0
802 -801 214 0
802 801 -214 0
-803 802 215 0
-803 -802 -215 0
803 -802 215 0
803 802 -215 0
-803 0
-804 59 63 0
-804 -59 -63 0
804 -59 63 0
804 59 -63 0
-805 804 66 0
-805 -804 -66 0
805 -804 66 0
805 804 -66 0
-806 805 68 0
-806 -805 -68 0
806 -805 68 0
806 805 -68 0
-807 806 74 0
-807 -806 -74 0
807 -806 74 0
807 806 -74 0
-808 807 76 0
-808 -807 -76 0
808 -807 76 0
808 807 -76 0
-809 808 77 0
-809 -808 -77 0
809 -808 77 0
809 808 -77 0
-810 809 81 0
-810 -809 -81 0
810 -809 81 0
810 809 -81 0
-811 810 84 0
-811 -810 -84 0
811 -810 84 0
811 810 -84 0
-812 811 85 0
-812 -811 -85 0
812 -811 85 0
812 811 -85 0
-813 812 92 0
-813 -812 -92 0
813 -812 92 0
813 812 -92 0
-814 813 94 0
-814 -813 -94 0
814 -813 94 0
814 813 -94 0
-815 814 99 0
-815 -814 -99 0
815 -814 99 0
815 814 -99 0
-816 815 102 0
-816 -815 -102 0
816 -815 102 0
816 815 -102 0
-817 816 103 0
-817 -816 -103 0
817 -816 103 0
817 816 -103 0
-818 817 107 0
-818 -817 -107 0
818 -817 107 0
818 817 -107 0
-819 818 118 0
-819 -818 -118 0
819 -818 118 0
819 818 -118 0
-820 819 154 0
-820 -819 -154 0
820 -819 154 0
820 819 -154 0
-821 820 168 0
-821 -820 -168 0
821 -820 168 0
821 820 -168 0
-822 821 169 0
-822 -821 -169 0
822 -821 169 0
822 821 -169 0
-823 822 173 0
-823 -822 -173 0
823 -822 173 0
823 822 -173 0
-824 823 176 0
-824 -823 -176 0
824 -823 176 0
824 823 -176 0
-825 824 180 0
-825 -824 -180 0
825 -824 180 0
825 824 -180 0
-826 825 181 0
-826 -825 -181 0
826 -825 181 0
826 825 -181 0
-827 826 183 0
-827 -826 -183 0
827 -826 183 0
827 826 -183 0
-828 827 190 0
-828 -827 -190 0
828 -827 190 0
828 827 -190 0
-829 828 191 0
-829 -828 -191 0
829 -828 191 0
829 828 -191 0
-830 829 198 0
-830 -829 -198 0
830 -829 198 0
830 829 -198 0
-831 830 199 0
-831 -830 -199 0
831 -830 199 0
831 830 -199 0
-832 831 200 0
-832 -831 -200 0
832 -831 200 0
832 831 -200 0
-833 832 203 0
-833 -832 -203 0
833 -832 203 0
833 832 -203 0
-834 833 207 0
-834 -833 -207 0
834 -833 207 0
834 833 -207 0
-835 834 210 0
-835 -834 -210 0
835 -834 210 0
835 834 -210 0
-836 835 211 0
-836 -835 -211 0
836 -835 211 0
836 835 -211 0
-837 836 214 0
-837 -836 -214 0
837 -836 214 0
837 836 -214 0
-838 837 215 0
-838 -837 -215 0
838 -837 215 0
838 837 -215 0
-838 0
-839 60 72 0
-839 -60 -72 0
839 -60 72 0
839 60 -72 0
-840 839 75 0
-840 -839 -75 0
840 -839 75 0
840 839 -75 0
-841 840 77 0
-841 -840 -77 0
841 -840 77 0
841 840 -77 0
-842 841 78 0
-842 -841 -78 0
842 -841 78 0
842 841 -78 0
-843 842 86 0
-843 -842 -86 0
843 -842 86 0
843 842 -86 0
-844 843 87 0
-844 -843 -87 0
844 -843 87 0
844 843 -87 0
-845 844 90 0
-845 -844 -90 0
845 -844 90 0
845 844 -90 0
-846 845 93 0
-846 -845 -93 0
846 -845 93 0
846 845 -93 0
-847 846 95 0
-847 -846 -95 0
847 -846 95 0
847 846 -95 0
-848 847 104 0
-848 -847 -104 0
848 -847 104 0
848 847 -104 0
-849 848 105 0
-849 -848 -105 0
849 -848 105 0
849 848 -105 0
-850 849 119 0
-850 -849 -119 0
850 -849 119 0
850 849 -119 0
-851 850 155 0
-851 -850 -155 0
851 -850 155 0
851 850 -155 0
-852 851 165 0
-852 -851 -165 0
852 -851 165 0
852 851 -165 0
-853 852 166 0
-853 -852 -166 0
853 -852 166 0
853 852 -166 0
-854 853 168 0
-854 -853 -168 0
854 -853 168 0
854 853 -168 0
-855 854 169 0
-855 -854 -169 0
855 -854 169 0
855 854 -169 0
-856 855 172 0
-856 -855 -172 0
856 -855 172 0
856 855 -172 0
-857 856 173 0
-857 -856 -173 0
857 -856 173 0
857 856 -173 0
-858 857 174 0
-858 -857 -174 0
858 -857 174 0
858 857 -174 0
-859 858 175 0
-859 -858 -175 0
859 -858 175 0
859 858 -175 0
-860 859 176 0
-860 -859 -176 0
860 -859 176 0
860 859 -176 0
-861 860 179 0
-861 -860 -179 0
861 -860 179 0
861 860 -179 0
-862 861 180 0
-862 -861 -180 0
862 -861 180 0
862 861 -180 0
-863 862 181 0
-863 -862 -181 0
863 -862 181 0
863 862 -181 0
-864 863 182 0
-864 -863 -182 0
864 -863 182 0
864 863 -182 0
-865 864 183 0
-865 -864 -183 0
865 -864 183 0
865 864 -183 0
-866 865 186 0
-866 -865 -186 0
866 -865 186 0
866 865 -186 0
-867 866 187 0
-867 -866 -187 0
867 -866 187 0
867 866 -187 0
-868 867 188 0
-868 -867 -188 0
868 -867 188 0
868 867 -188 0
-869 868 190 0
-869 -868 -190 0
869 -868 190 0
869 868 -190 0
-870 869 192 0
-870 -869 -192 0
870 -869 192 0
870 869 -192 0
-871 870 193 0
-871 -870 -193 0
871 -870 193 0
871 870 -193 0
-872 871 194 0
-872 -871 -194 0
872 -871 194 0
872 871 -194 0
-873 872 195 0
-873 -872 -195 0
873 -872 195 0
873 872 -195 0
-874 873 197 0
-874 -873 -197 0
874 -873 197 0
874 873 -197 0
-875 874 198 0
-875 -874 -198 0
875 -874 198 0
875 874 -198 0
-876 875 199 0
-876 -875 -199 0
876 -875 199 0
876 875 -199 0
-877 876 200 0
-877 -876 -200 0
877 -876 200 0
877 876 -200 0
-878 877 202 0
-878 -877 -202 0
878 -877 202 0
878 877 -202 0
-879 878 206 0
-879 -878 -206 0
879 -878 206 0
879 878 -206 0
-880 879 209 0
-880 -879 -209 0
880 -879 209 0
880 879 -209 0
-881 880 213 0
-881 -880 -213 0
881 -880 213 0
881 880 -213 0
-881 0
-882 58 67 0
-882 -58 -67 0
882 -58 67 0
882 58 -67 0
-883 882 68 0
-883 -882 -68 0
883 -882 68 0
883 882 -68 0
-884 883 71 0
-884 -883 -71 0
884 -883 71 0
884 883 -71 0
-885 884 78 0
-885 -884 -78 0
885 -884 78 0
885 884 -78 0
-886 885 85 0
-886 -885 -85 0
886 -885 85 0
886 885 -85 0
-887 886 86 0
-887 -886 -86 0
887 -886 86 0
887 886 -86 0
-888 887 87 0
-888 -887 -87 0
888 -887 87 0
888 887 -87 0
-889 888 88 0
-889 -888 -88 0
889 -888 88 0
889 888 -88 0
-890 889 89 0
-890 -889 -89 0
890 -889 89 0
890 889 -89 0
-891 890 91 0
-891 -890 -91 0
891 -890 91 0
891 890 -91 0
-892 891 96 0
-892 -891 -96 0
892 -891 96 0
892 891 -96 0
-893 892 104 0
-893 -892 -104 0
893 -892 104 0
893 892 -104 0
-894 893 105 0
-894 -893 -105 0
894 -893 105 0
894 893 -105 0
-895 894 106 0
-895 -894 -106 0
895 -894 106 0
895 894 -106 0
-896 895 107 0
-896 -895 -107 0
896 -895 107 0
896 895 -107 0
-897 896 120 0
-897 -896 -120 0
897 -896 120 0
897 896 -120 0
-898 897 156 0
-898 -897 -156 0
898 -897 156 0
898 897 -156 0
-899 898 165 0
-899 -898 -165 0
899 -898 165 0
899 898 -165 0
-900 899 167 0
-900 -899 -167 0
900 -899 167 0
900 899 -167 0
-901 900 168 0
-901 -900 -168 0
901 -900 168 0
901 900 -168 0
-902 901 172 0
-902 -901 -172 0
902 -901 172 0
902 901 -172 0
-903 902 174 0
-903 -902 -174 0
903 -902 174 0
903 902 -174 0
-904 903 175 0
-904 -903 -175 0
904 -903 175 0
904 903 -175 0
-905 904 179 0
-905 -904 -179 0
905 -904 179 0
905 904 -179 0
-906 905 182 0
-906 -905 -182 0
906 -905 182 0
906 905 -182 0
-907 906 186 0
-907 -906 -186 0
907 -906 186 0
907 906 -186 0
-908 907 189 0
-908 -907 -189 0
908 -907 189 0
908 907 -189 0
-909 908 190 0
-909 -908 -190 0
909 -908 190 0
909 908 -190 0
-910 909 193 0
-910 -909 -193 0
910 -909 193 0
910 909 -193 0
-911 910 196 0
-911 -910 -196 0
911 -910 196 0
911 910 -196 0
-912 911 197 0
-912 -911 -197 0
912 -911 197 0
912 911 -197 0
-913 912 199 0
-913 -912 -199 0
913 -912 199 0
913 912 -199 0
-914 913 200 0
-914 -913 -200 0
914 -913 200 0
914 913 -200 0
-915 914 202 0
-915 -914 -202 0
915 -914 202 0
915 914 -202 0
-916 915 203 0
-916 -915 -203 0
916 -915 203 0
916 915 -203 0
-917 916 204 0
-917 -916 -204 0
917 -916 204 0
917 916 -204 0
-918 917 205 0
-918 -917 -205 0
918 -917 205 0
918 917 -205 0
-919 918 206 0
-919 -918 -206 0
919 -918 206 0
919 918 -206 0
-920 919 207 0
-920 -919 -207 0
920 -919 207 0
920 919 -207 0
-921 920 208 0
-921 -920 -208 0
921 -920 208 0
921 920 -208 0
-922 921 209 0
-922 -921 -209 0
922 -921 209 0
922 921 -209 0
-923 922 210 0
-923 -922 -210 0
923 -922 210 0
923 922 -210 0
-924 923 212 0
-924 -923 -212 0
924 -923 212 0
924 923 -212 0
-925 924 213 0
-925 -924 -213 0
925 -924 213 0
925 924 -213 0
-926 925 214 0
-926 -925 -214 0
926 -925 214 0
926 925 -214 0
-927 926 215 0
-927 -926 -215 0
927 -926 215 0
927 926 -215 0
-928 927 216 0
-928 -927 -216 0
928 -927 216 0
928 927 -216 0
-928 0
-929 46 52 0
-929 -46 -52 0
929 -46 52 0
929 46 -52 0
-930 929 58 0
-930 -929 -58 0
930 -929 58 0
930 929 -58 0
-931 930 62 0
-931 -930 -62 0
931 -930 62 0
931 930 -62 0
-932 931 63 0
-932 -931 -63 0
932 -931 63 0
932 931 -63 0
-933 932 65 0
-933 -932 -65 0
933 -932 65 0
933 932 -65 0
-934 933 66 0
-934 -933 -66 0
934 -933 66 0
934 933 -66 0
-935 934 69 0
-935 -934 -69 0
935 -934 69 0
935 934 -69 0
-936 935 71 0
-936 -935 -71 0
936 -935 71 0
936 935 -71 0
-937 936 72 0
-937 -936 -72 0
937 -936 72 0
937 936 -72 0
-938 937 73 0
-938 -937 -73 0
938 -937 73 0
938 937 -73 0
-939 938 74 0
-939 -938 -74 0
939 -938 74 0
939 938 -74 0
-940 939 79 0
-940 -939 -79 0
940 -939 79 0
940 939 -79 0
-941 940 81 0
-941 -940 -81 0
941 -940 81 0
941 940 -81 0
-942 941 82 0
-942 -941 -82 0
942 -941 82 0
942 941 -82 0
-943 942 84 0
-943 -942 -84 0
943 -942 84 0
943 942 -84 0
-944 943 85 0
-944 -943 -85 0
944 -943 85 0
944 943 -85 0
-945 944 86 0
-945 -944 -86 0
945 -944 86 0
945 944 -86 0
-946 945 87 0
-946 -945 -87 0
946 -945 87 0
946 945 -87 0
-947 946 89 0
-947 -946 -89 0
947 -946 89 0
947 946 -89 0
-948 947 90 0
-948 -947 -90 0
948 -947 90 0
948 947 -90 0
-949 948 91 0
-949 -948 -91 0
949 -948 91 0
949 948 -91 0
-950 949 94 0
-950 -949 -94 0
950 -949 94 0
950 949 -94 0
-951 950 95 0
-951 -950 -95 0
951 -950 95 0
951 950 -95 0
-952 951 98 0
-952 -951 -98 0
952 -951 98 0
952 951 -98 0
-953 952 99 0
-953 -952 -99 0
953 -952 99 0
953 952 -99 0
-954 953 102 0
-954 -953 -102 0
954 -953 102 0
954 953 -102 0
-955 954 103 0
-955 -954 -103 0
955 -954 103 0
955 954 -103 0
-956 955 104 0
-956 -955 -104 0
956 -955 104 0
956 955 -104 0
-957 956 105 0
-957 -956 -105 0
957 -956 105 0
957 956 -105 0
-958 957 107 0
-958 -957 -107 0
958 -957 107 0
958 957 -107 0
-959 958 108 0
-959 -958 -108 0
959 -958 108 0
959 958 -108 0
-960 959 121 0
-960 -959 -121 0
960 -959 121 0
960 959 -121 0
-961 960 160 0
-961 -960 -160 0
961 -960 160 0
961 960 -160 0
-962 961 165 0
-962 -961 -165 0
962 -961 165 0
962 961 -165 0
-963 962 166 0
-963 -962 -166 0
963 -962 166 0
963 962 -166 0
-964 963 167 0
-964 -963 -167 0
964 -963 167 0
964 963 -167 0
-965 964 172 0
-965 -964 -172 0
965 -964 172 0
965 964 -172 0
-966 965 173 0
-966 -965 -173 0
966 -965 173 0
966 965 -173 0
-967 966 174 0
-967 -966 -174 0
967 -966 174 0
967 966 -174 0
-968 967 175 0
-968 -967 -175 0
968 -967 175 0
968 967 -175 0
-969 968 176 0
-969 -968 -176 0
969 -968 176 0
969 968 -176 0
-970 969 179 0
-970 -969 -179 0
970 -969 179 0
970 969 -179 0
-971 970 180 0
-971 -970 -180 0
971 -970 180 0
971 970 -180 0
-972 971 181 0
-972 -971 -181 0
972 -971 181 0
972 971 -181 0
-973 972 183 0
-973 -972 -183 0
973 -972 183 0
973 972 -183 0
-974 973 185 0
-974 -973 -185 0
974 -973 185 0
974 973 -185 0
-975 974 186 0
-975 -974 -186 0
975 -974 186 0
975 974 -186 0
-976 975 187 0
-976 -975 -187 0
976 -975 187 0
976 975 -187 0
-977 976 190 0
-977 -976 -190 0
977 -976 190 0
977 976 -190 0
-978 977 191 0
-978 -977 -191 0
978 -977 191 0
978 977 -191 0
-979 978 192 0
-979 -978 -192 0
979 -978 192 0
979 978 -192 0
-980 979 193 0
-980 -979 -193 0
980 -979 193 0
980 979 -193 0
-981 980 198 0
-981 -980 -198 0
981 -980 198 0
981 980 -198 0
-982 981 199 0
-982 -981 -199 0
982 -981 199 0
982 981 -199 0
-983 982 206 0
-983 -982 -206 0
983 -982 206 0
983 982 -206 0
-984 983 212 0
-984 -983 -212 0
984 -983 212 0
984 983 -212 0
-985 984 213 0
-985 -984 -213 0
985 -984 213 0
985 984 -213 0
-985 0
-986 47 53 0
-986 -47 -53 0
986 -47 53 0
986 47 -53 0
-987 986 59 0
-987 -986 -59 0
987 -986 59 0
987 986 -59 0
-988 987 62 0
-988 -987 -62 0
988 -987 62 0
988 987 -62 0
-989 988 65 0
-989 -988 -65 0
989 -988 65 0
989 988 -65 0
-990 989 68 0
-990 -989 -68 0
990 -989 68 0
990 989 -68 0
-991 990 69 0
-991 -990 -69 0
991 -990 69 0
991 990 -69 0
-992 991 71 0
-992 -991 -71 0
992 -991 71 0
992 991 -71 0
-993 992 74 0
-993 -992 -74 0
993 -992 74 0
993 992 -74 0
-994 993 75 0
-994 -993 -75 0
994 -993 75 0
994 993 -75 0
-995 994 81 0
-995 -994 -81 0
995 -994 81 0
995 994 -81 0
-996 995 84 0
-996 -995 -84 0
996 -995 84 0
996 995 -84 0
-997 996 89 0
-997 -996 -89 0
997 -996 89 0
997 996 -89 0
-998 997 92 0
-998 -997 -92 0
998 -997 92 0
998 997 -92 0
-999 998 95 0
-999 -998 -95 0
999 -998 95 0
999 998 -95 0
-1000 999 96 0
-1000 -999 -96 0
1000 -999 96 0
1000 999 -96 0
-1001 1000 98 0
-1001 -1000 -98 0
1001 -1000 98 0
1001 1000 -98 0
-1002 1001 101 0
-1002 -1001 -101 0
1002 -1001 101 0
1002 1001 -101 0
-1003 1002 102 0
-1003 -1002 -102 0
1003 -1002 102 0
1003 1002 -102 0
-1004 1003 107 0
-1004 -1003 -107 0
1004 -1003 107 0
1004 1003 -107 0
-1005 1004 122 0
-1005 -1004 -122 0
1005 -1004 122 0
1005 1004 -122 0
-1006 1005 161 0
-1006 -1005 -161 0
1006 -1005 161 0
1006 1005 -161 0
-1007 1006 166 0
-1007 -1006 -166 0
1007 -1006 166 0
1007 1006 -166 0
-1008 1007 167 0
-1008 -1007 -167 0
1008 -1007 167 0
1008 1007 -167 0
-1009 1008 168 0
-1009 -1008 -168 0
1009 -1008 168 0
1009 1008 -168 0
-1010 1009 169 0
-1010 -1009 -169 0
1010 -1009 169 0
1010 1009 -169 0
-1011 1010 173 0
-1011 -1010 -173 0
1011 -1010 173 0
1011 1010 -173 0
-1012 1011 174 0
-1012 -1011 -174 0
1012 -1011 174 0
1012 1011 -174 0
-1013 1012 175 0
-1013 -1012 -175 0
1013 -1012 175 0
1013 1012 -175 0
-1014 1013 176 0
-1014 -1013 -176 0
1014 -1013 176 0
1014 1013 -176 0
-1015 1014 177 0
-1015 -1014 -177 0
1015 -1014 177 0
1015 1014 -177 0
-1016 1015 180 0
-1016 -1015 -180 0
1016 -1015 180 0
1016 1015 -180 0
-1017 1016 181 0
-1017 -1016 -181 0
1017 -1016 181 0
1017 1016 -181 0
-1018 1017 182 0
-1018 -1017 -182 0
1018 -1017 182 0
1018 1017 -182 0
-1019 1018 184 0
-1019 -1018 -184 0
1019 -1018 184 0
1019 1018 -184 0
-1020 1019 186 0
-1020 -1019 -186 0
1020 -1019 186 0
1020 1019 -186 0
-1021 1020 187 0
-1021 -1020 -187 0
1021 -1020 187 0
1021 1020 -187 0
-1022 1021 188 0
-1022 -1021 -188 0
1022 -1021 188 0
1022 1021 -188 0
-1023 1022 191 0
-1023 -1022 -191 0
1023 -1022 191 0
1023 1022 -191 0
-1024 1023 192 0
-1024 -1023 -192 0
1024 -1023 192 0
1024 1023 -192 0
-1025 1024 193 0
-1025 -1024 -193 0
1025 -1024 193 0
1025 1024 -193 0
-1026 1025 194 0
-1026 -1025 -194 0
1026 -1025 194 0
1026 1025 -194 0
-1027 1026 200 0
-1027 -1026 -200 0
1027 -1026 200 0
1027 1026 -200 0
-1028 1027 207 0
-1028 -1027 -207 0
1028 -1027 207 0
1028 1027 -207 0
-1029 1028 213 0
-1029 -1028 -213 0
1029 -1028 213 0
1029 1028 -213 0
-1030 1029 214 0
-1030 -1029 -214 0
1030 -1029 214 0
1030 1029 -214 0
-1030 0
-1031 48 54 0
-1031 -48 -54 0
1031 -48 54 0
1031 48 -54 0
-1032 1031 60 0
-1032 -1031 -60 0
1032 -1031 60 0
1032 1031 -60 0
-1033 1032 62 0
-1033 -1032 -62 0
1033 -1032 62 0
1033 1032 -62 0
-1034 1033 65 0
-1034 -1033 -65 0
1034 -1033 65 0
1034 1033 -65 0
-1035 1034 67 0
-1035 -1034 -67 0
1035 -1034 67 0
1035 1034 -67 0
-1036 1035 68 0
-1036 -1035 -68 0
1036 -1035 68 0
1036 1035 -68 0
-1037 1036 69 0
-1037 -1036 -69 0
1037 -1036 69 0
1037 1036 -69 0
-1038 1037 71 0
-1038 -1037 -71 0
1038 -1037 71 0
1038 1037 -71 0
-1039 1038 72 0
-1039 -1038 -72 0
1039 -1038 72 0
1039 1038 -72 0
-1040 1039 75 0
-1040 -1039 -75 0
1040 -1039 75 0
1040 1039 -75 0
-1041 1040 76 0
-1041 -1040 -76 0
1041 -1040 76 0
1041 1040 -76 0
-1042 1041 79 0
-1042 -1041 -79 0
1042 -1041 79 0
1042 1041 -79 0
-1043 1042 80 0
-1043 -1042 -80 0
1043 -1042 80 0
1043 1042 -80 0
-1044 1043 81 0
-1044 -1043 -81 0
1044 -1043 81 0
1044 1043 -81 0
-1045 1044 82 0
-1045 -1044 -82 0
1045 -1044 82 0
1045 1044 -82 0
-1046 1045 83 0
-1046 -1045 -83 0
1046 -1045 83 0
1046 1045 -83 0
-1047 1046 84 0
-1047 -1046 -84 0
1047 -1046 84 0
1047 1046 -84 0
-1048 1047 85 0
-1048 -1047 -85 0
1048 -1047 85 0
1048 1047 -85 0
-1049 1048 86 0
-1049 -1048 -86 0
1049 -1048 86 0
1049 1048 -86 0
-1050 1049 88 0
-1050 -1049 -88 0
1050 -1049 88 0
1050 1049 -88 0
-1051 1050 89 0
-1051 -1050 -89 0
1051 -1050 89 0
1051 1050 -89 0
-1052 1051 90 0
-1052 -1051 -90 0
1052 -1051 90 0
1052 1051 -90 0
-1053 1052 91 0
-1053 -1052 -91 0
1053 -1052 91 0
1053 1052 -91 0
-1054 1053 93 0
-1054 -1053 -93 0
1054 -1053 93 0
1054 1053 -93 0
-1055 1054 96 0
-1055 -1054 -96 0
1055 -1054 96 0
1055 1054 -96 0
-1056 1055 97 0
-1056 -1055 -97 0
1056 -1055 97 0
1056 1055 -97 0
-1057 1056 98 0
-1057 -1056 -98 0
1057 -1056 98 0
1057 1056 -98 0
-1058 1057 101 0
-1058 -1057 -101 0
1058 -1057 101 0
1058 1057 -101 0
-1059 1058 103 0
-1059 -1058 -103 0
1059 -1058 103 0
1059 1058 -103 0
-1060 1059 104 0
-1060 -1059 -104 0
1060 -1059 104 0
1060 1059 -104 0
-1061 1060 106 0
-1061 -1060 -106 0
1061 -1060 106 0
1061 1060 -106 0
-1062 1061 107 0
-1062 -1061 -107 0
1062 -1061 107 0
1062 1061 -107 0
-1063 1062 108 0
-1063 -1062 -108 0
1063 -1062 108 0
1063 1062 -108 0
-1064 1063 123 0
-1064 -1063 -123 0
1064 -1063 123 0
1064 1063 -123 0
-1065 1064 162 0
-1065 -1064 -162 0
1065 -1064 162 0
1065 1064 -162 0
-1066 1065 165 0
-1066 -1065 -165 0
1066 -1065 165 0
1066 1065 -165 0
-1067 1066 166 0
-1067 -1066 -166 0
1067 -1066 166 0
1067 1066 -166 0
-1068 1067 167 0
-1068 -1067 -167 0
1068 -1067 167 0
1068 1067 -167 0
-1069 1068 172 0
-1069 -1068 -172 0
1069 -1068 172 0
1069 1068 -172 0
-1070 1069 173 0
-1070 -1069 -173 0
1070 -1069 173 0
1070 1069 -173 0
-1071 1070 174 0
-1071 -1070 -174 0
1071 -1070 174 0
1071 1070 -174 0
-1072 1071 175 0
-1072 -1071 -175 0
1072 -1071 175 0
1072 1071 -175 0
-1073 1072 178 0
-1073 -1072 -178 0
1073 -1072 178 0
1073 1072 -178 0
-1074 1073 179 0
-1074 -1073 -179 0
1074 -1073 179 0
1074 1073 -179 0
-1075 1074 180 0
-1075 -1074 -180 0
1075 -1074 180 0
1075 1074 -180 0
-1076 1075 182 0
-1076 -1075 -182 0
1076 -1075 182 0
1076 1075 -182 0
-1077 1076 184 0
-1077 -1076 -184 0
1077 -1076 184 0
1077 1076 -184 0
-1078 1077 185 0
-1078 -1077 -185 0
1078 -1077 185 0
1078 1077 -185 0
-1079 1078 186 0
-1079 -1078 -186 0
1079 -1078 186 0
1079 1078 -186 0
-1080 1079 189 0
-1080 -1079 -189 0
1080 -1079 189 0
1080 1079 -189 0
-1081 1080 190 0
-1081 -1080 -190 0
1081 -1080 190 0
1081 1080 -190 0
-1082 1081 191 0
-1082 -1081 -191 0
1082 -1081 191 0
1082 1081 -191 0
-1083 1082 192 0
-1083 -1082 -192 0
1083 -1082 192 0
1083 1082 -192 0
-1084 1083 197 0
-1084 -1083 -197 0
1084 -1083 197 0
1084 1083 -197 0
-1085 1084 198 0
-1085 -1084 -198 0
1085 -1084 198 0
1085 1084 -198 0
-1086 1085 199 0
-1086 -1085 -199 0
1086 -1085 199 0
1086 1085 -199 0
-1087 1086 202 0
-1087 -1086 -202 0
1087 -1086 202 0
1087 1086 -202 0
-1088 1087 204 0
-1088 -1087 -204 0
1088 -1087 204 0
1088 1087 -204 0
-1089 1088 205 0
-1089 -1088 -205 0
1089 -1088 205 0
1089 1088 -205 0
-1090 1089 206 0
-1090 -1089 -206 0
1090 -1089 206 0
1090 1089 -206 0
-1091 1090 209 0
-1091 -1090 -209 0
1091 -1090 209 0
1091 1090 -209 0
-1092 1091 212 0
-1092 -1091 -212 0
1092 -1091 212 0
1092 1091 -212 0
-1093 1092 213 0
-1093 -1092 -213 0
1093 -1092 213 0
1093 1092 -213 0
-1094 1093 214 0
-1094 -1093 -214 0
1094 -1093 214 0
1094 1093 -214 0
-1095 1094 216 0
-1095 -1094 -216 0
1095 -1094 216 0
1095 1094 -216 0
-1095 0
-1096 58 59 0
-1096 -58 -59 0
1096 -58 59 0
1096 58 -59 0
-1097 1096 65 0
-1097 -1096 -65 0
1097 -1096 65 0
1097 1096 -65 0
-1098 1097 68 0
-1098 -1097 -68 0
1098 -1097 68 0
1098 1097 -68 0
-1099 1098 69 0
-1099 -1098 -69 0
1099 -1098 69 0
1099 1098 -69 0
-1100 1099 71 0
-1100 -1099 -71 0
1100 -1099 71 0
1100 1099 -71 0
-1101 1100 72 0
-1101 -1100 -72 0
1101 -1100 72 0
1101 1100 -72 0
-1102 1101 73 0
-1102 -1101 -73 0
1102 -1101 73 0
1102 1101 -73 0
-1103 1102 74 0
-1103 -1102 -74 0
1103 -1102 74 0
1103 1102 -74 0
-1104 1103 76 0
-1104 -1103 -76 0
1104 -1103 76 0
1104 1103 -76 0
-1105 1104 80 0
-1105 -1104 -80 0
1105 -1104 80 0
1105 1104 -80 0
-1106 1105 82 0
-1106 -1105 -82 0
1106 -1105 82 0
1106 1105 -82 0
-1107 1106 83 0
-1107 -1106 -83 0
1107 -1106 83 0
1107 1106 -83 0
-1108 1107 86 0
-1108 -1107 -86 0
1108 -1107 86 0
1108 1107 -86 0
-1109 1108 87 0
-1109 -1108 -87 0
1109 -1108 87 0
1109 1108 -87 0
-1110 1109 89 0
-1110 -1109 -89 0
1110 -1109 89 0
1110 1109 -89 0
-1111 1110 90 0
-1111 -1110 -90 0
1111 -1110 90 0
1111 1110 -90 0
-1112 1111 94 0
-1112 -1111 -94 0
1112 -1111 94 0
1112 1111 -94 0
-1113 1112 98 0
-1113 -1112 -98 0
1113 -1112 98 0
1113 1112 -98 0
-1114 1113 100 0
-1114 -1113 -100 0
1114 -1113 100 0
1114 1113 -100 0
-1115 1114 104 0
-1115 -1114 -104 0
1115 -1114 104 0
1115 1114 -104 0
-1116 1115 105 0
-1116 -1115 -105 0
1116 -1115 105 0
1116 1115 -105 0
-1117 1116 107 0
-1117 -1116 -107 0
1117 -1116 107 0
1117 1116 -107 0
-1118 1117 108 0
-1118 -1117 -108 0
1118 -1117 108 0
1118 1117 -108 0
-1119 1118 124 0
-1119 -1118 -124 0
1119 -1118 124 0
1119 1118 -124 0
-1120 1119 160 0
-1120 -1119 -160 0
1120 -1119 160 0
1120 1119 -160 0
-1121 1120 165 0
-1121 -1120 -165 0
1121 -1120 165 0
1121 1120 -165 0
-1122 1121 167 0
-1122 -1121 -167 0
1122 -1121 167 0
1122 1121 -167 0
-1123 1122 168 0
-1123 -1122 -168 0
1123 -1122 168 0
1123 1122 -168 0
-1124 1123 169 0
-1124 -1123 -169 0
1124 -1123 169 0
1124 1123 -169 0
-1125 1124 170 0
-1125 -1124 -170 0
1125 -1124 170 0
1125 1124 -170 0
-1126 1125 172 0
-1126 -1125 -172 0
1126 -1125 172 0
1126 1125 -172 0
-1127 1126 173 0
-1127 -1126 -173 0
1127 -1126 173 0
1127 1126 -173 0
-1128 1127 174 0
-1128 -1127 -174 0
1128 -1127 174 0
1128 1127 -174 0
-1129 1128 175 0
-1129 -1128 -175 0
1129 -1128 175 0
1129 1128 -175 0
-1130 1129 176 0
-1130 -1129 -176 0
1130 -1129 176 0
1130 1129 -176 0
-1131 1130 177 0
-1131 -1130 -177 0
1131 -1130 177 0
1131 1130 -177 0
-1132 1131 180 0
-1132 -1131 -180 0
1132 -1131 180 0
1132 1131 -180 0
-1133 1132 181 0
-1133 -1132 -181 0
1133 -1132 181 0
1133 1132 -181 0
-1134 1133 182 0
-1134 -1133 -182 0
1134 -1133 182 0
1134 1133 -182 0
-1135 1134 183 0
-1135 -1134 -183 0
1135 -1134 183 0
1135 1134 -183 0
-1136 1135 184 0
-1136 -1135 -184 0
1136 -1135 184 0
1136 1135 -184 0
-1137 1136 188 0
-1137 -1136 -188 0
1137 -1136 188 0
1137 1136 -188 0
-1138 1137 189 0
-1138 -1137 -189 0
1138 -1137 189 0
1138 1137 -189 0
-1139 1138 190 0
-1139 -1138 -190 0
1139 -1138 190 0
1139 1138 -190 0
-1140 1139 191 0
-1140 -1139 -191 0
1140 -1139 191 0
1140 1139 -191 0
-1141 1140 194 0
-1141 -1140 -194 0
1141 -1140 194 0
1141 1140 -194 0
-1142 1141 195 0
-1142 -1141 -195 0
1142 -1141 195 0
1142 1141 -195 0
-1143 1142 196 0
-1143 -1142 -196 0
1143 -1142 196 0
1143 1142 -196 0
-1144 1143 198 0
-1144 -1143 -198 0
1144 -1143 198 0
1144 1143 -198 0
-1145 1144 199 0
-1145 -1144 -199 0
1145 -1144 199 0
1145 1144 -199 0
-1146 1145 201 0
-1146 -1145 -201 0
1146 -1145 201 0
1146 1145 -201 0
-1147 1146 202 0
-1147 -1146 -202 0
1147 -1146 202 0
1147 1146 -202 0
-1148 1147 208 0
-1148 -1147 -208 0
1148 -1147 208 0
1148 1147 -208 0
-1149 1148 212 0
-1149 -1148 -212 0
1149 -1148 212 0
1149 1148 -212 0
-1150 1149 215 0
-1150 -1149 -215 0
1150 -1149 215 0
1150 1149 -215 0
-1150 0
-1151 59 60 0
-1151 -59 -60 0
1151 -59 60 0
1151 59 -60 0
-1152 1151 62 0
-1152 -1151 -62 0
1152 -1151 62 0
1152 1151 -62 0
-1153 1152 63 0
-1153 -1152 -63 0
1153 -1152 63 0
1153 1152 -63 0
-1154 1153 65 0
-1154 -1153 -65 0
1154 -1153 65 0
1154 1153 -65 0
-1155 1154 68 0
-1155 -1154 -68 0
1155 -1154 68 0
1155 1154 -68 0
-1156 1155 69 0
-1156 -1155 -69 0
1156 -1155 69 0
1156 1155 -69 0
-1157 1156 71 0
-1157 -1156 -71 0
1157 -1156 71 0
1157 1156 -71 0
-1158 1157 72 0
-1158 -1157 -72 0
1158 -1157 72 0
1158 1157 -72 0
-1159 1158 74 0
-1159 -1158 -74 0
1159 -1158 74 0
1159 1158 -74 0
-1160 1159 75 0
-1160 -1159 -75 0
1160 -1159 75 0
1160 1159 -75 0
-1161 1160 77 0
-1161 -1160 -77 0
1161 -1160 77 0
1161 1160 -77 0
-1162 1161 80 0
-1162 -1161 -80 0
1162 -1161 80 0
1162 1161 -80 0
-1163 1162 86 0
-1163 -1162 -86 0
1163 -1162 86 0
1163 1162 -86 0
-1164 1163 87 0
-1164 -1163 -87 0
1164 -1163 87 0
1164 1163 -87 0
-1165 1164 89 0
-1165 -1164 -89 0
1165 -1164 89 0
1165 1164 -89 0
-1166 1165 90 0
-1166 -1165 -90 0
1166 -1165 90 0
1166 1165 -90 0
-1167 1166 95 0
-1167 -1166 -95 0
1167 -1166 95 0
1167 1166 -95 0
-1168 1167 98 0
-1168 -1167 -98 0
1168 -1167 98 0
1168 1167 -98 0
-1169 1168 102 0
-1169 -1168 -102 0
1169 -1168 102 0
1169 1168 -102 0
-1170 1169 104 0
-1170 -1169 -104 0
1170 -1169 104 0
1170 1169 -104 0
-1171 1170 105 0
-1171 -1170 -105 0
1171 -1170 105 0
1171 1170 -105 0
-1172 1171 107 0
-1172 -1171 -107 0
1172 -1171 107 0
1172 1171 -107 0
-1173 1172 108 0
-1173 -1172 -108 0
1173 -1172 108 0
1173 1172 -108 0
-1174 1173 125 0
-1174 -1173 -125 0
1174 -1173 125 0
1174 1173 -125 0
-1175 1174 161 0
-1175 -1174 -161 0
1175 -1174 161 0
1175 1174 -161 0
-1176 1175 165 0
-1176 -1175 -165 0
1176 -1175 165 0
1176 1175 -165 0
-1177 1176 171 0
-1177 -1176 -171 0
1177 -1176 171 0
1177 1176 -171 0
-1178 1177 172 0
-1178 -1177 -172 0
1178 -1177 172 0
1178 1177 -172 0
-1179 1178 174 0
-1179 -1178 -174 0
1179 -1178 174 0
1179 1178 -174 0
-1180 1179 175 0
-1180 -1179 -175 0
1180 -1179 175 0
1180 1179 -175 0
-1181 1180 178 0
-1181 -1180 -178 0
1181 -1180 178 0
1181 1180 -178 0
-1182 1181 179 0
-1182 -1181 -179 0
1182 -1181 179 0
1182 1181 -179 0
-1183 1182 180 0
-1183 -1182 -180 0
1183 -1182 180 0
1183 1182 -180 0
-1184 1183 181 0
-1184 -1183 -181 0
1184 -1183 181 0
1184 1183 -181 0
-1185 1184 182 0
-1185 -1184 -182 0
1185 -1184 182 0
1185 1184 -182 0
-1186 1185 185 0
-1186 -1185 -185 0
1186 -1185 185 0
1186 1185 -185 0
-1187 1186 186 0
-1187 -1186 -186 0
1187 -1186 186 0
1187 1186 -186 0
-1188 1187 187 0
-1188 -1187 -187 0
1188 -1187 187 0
1188 1187 -187 0
-1189 1188 188 0
-1189 -1188 -188 0
1189 -1188 188 0
1189 1188 -188 0
-1190 1189 189 0
-1190 -1189 -189 0
1190 -1189 189 0
1190 1189 -189 0
-1191 1190 192 0
-1191 -1190 -192 0
1191 -1190 192 0
1191 1190 -192 0
-1192 1191 193 0
-1192 -1191 -193 0
1192 -1191 193 0
1192 1191 -193 0
-1193 1192 194 0
-1193 -1192 -194 0
1193 -1192 194 0
1193 1192 -194 0
-1194 1193 196 0
-1194 -1193 -196 0
1194 -1193 196 0
1194 1193 -196 0
-1195 1194 198 0
-1195 -1194 -198 0
1195 -1194 198 0
1195 1194 -198 0
-1196 1195 199 0
-1196 -1195 -199 0
1196 -1195 199 0
1196 1195 -199 0
-1197 1196 200 0
-1197 -1196 -200 0
1197 -1196 200 0
1197 1196 -200 0
-1198 1197 201 0
-1198 -1197 -201 0
1198 -1197 201 0
1198 1197 -201 0
-1199 1198 203 0
-1199 -1198 -203 0
1199 -1198 203 0
1199 1198 -203 0
-1200 1199 204 0
-1200 -1199 -204 0
1200 -1199 204 0
1200 1199 -204 0
-1201 1200 205 0
-1201 -1200 -205 0
1201 -1200 205 0
1201 1200 -205 0
-1202 1201 206 0
-1202 -1201 -206 0
1202 -1201 206 0
1202 1201 -206 0
-1203 1202 208 0
-1203 -1202 -208 0
1203 -1202 208 0
1203 1202 -208 0
-1204 1203 212 0
-1204 -1203 -212 0
1204 -1203 212 0
1204 1203 -212 0
-1205 1204 215 0
-1205 -1204 -215 0
1205 -1204 215 0
1205 1204 -215 0
-1205 0
-1206 58 60 0
-1206 -58 -60 0
1206 -58 60 0
1206 58 -60 0
-1207 1206 62 0
-1207 -1206 -62 0
1207 -1206 62 0
1207 1206 -62 0
-1208 1207 64 0
-1208 -1207 -64 0
1208 -1207 64 0
1208 1207 -64 0
-1209 1208 65 0
-1209 -1208 -65 0
1209 -1208 65 0
1209 1208 -65 0
-1210 1209 69 0
-1210 -1209 -69 0
1210 -1209 69 0
1210 1209 -69 0
-1211 1210 72 0
-1211 -1210 -72 0
1211 -1210 72 0
1211 1210 -72 0
-1212 1211 73 0
-1212 -1211 -73 0
1212 -1211 73 0
1212 1211 -73 0
-1213 1212 75 0
-1213 -1212 -75 0
1213 -1212 75 0
1213 1212 -75 0
-1214 1213 78 0
-1214 -1213 -78 0
1214 -1213 78 0
1214 1213 -78 0
-1215 1214 80 0
-1215 -1214 -80 0
1215 -1214 80 0
1215 1214 -80 0
-1216 1215 83 0
-1216 -1215 -83 0
1216 -1215 83 0
1216 1215 -83 0
-1217 1216 84 0
-1217 -1216 -84 0
1217 -1216 84 0
1217 1216 -84 0
-1218 1217 87 0
-1218 -1217 -87 0
1218 -1217 87 0
1218 1217 -87 0
-1219 1218 90 0
-1219 -1218 -90 0
1219 -1218 90 0
1219 1218 -90 0
-1220 1219 91 0
-1220 -1219 -91 0
1220 -1219 91 0
1220 1219 -91 0
-1221 1220 94 0
-1221 -1220 -94 0
1221 -1220 94 0
1221 1220 -94 0
-1222 1221 96 0
-1222 -1221 -96 0
1222 -1221 96 0
1222 1221 -96 0
-1223 1222 97 0
-1223 -1222 -97 0
1223 -1222 97 0
1223 1222 -97 0
-1224 1223 98 0
-1224 -1223 -98 0
1224 -1223 98 0
1224 1223 -98 0
-1225 1224 101 0
-1225 -1224 -101 0
1225 -1224 101 0
1225 1224 -101 0
-1226 1225 102 0
-1226 -1225 -102 0
1226 -1225 102 0
1226 1225 -102 0
-1227 1226 105 0
-1227 -1226 -105 0
1227 -1226 105 0
1227 1226 -105 0
-1228 1227 108 0
-1228 -1227 -108 0
1228 -1227 108 0
1228 1227 -108 0
-1229 1228 126 0
-1229 -1228 -126 0
1229 -1228 126 0
1229 1228 -126 0
-1230 1229 162 0
-1230 -1229 -162 0
1230 -1229 162 0
1230 1229 -162 0
-1231 1230 166 0
-1231 -1230 -166 0
1231 -1230 166 0
1231 1230 -166 0
-1232 1231 169 0
-1232 -1231 -169 0
1232 -1231 169 0
1232 1231 -169 0
-1233 1232 172 0
-1233 -1232 -172 0
1233 -1232 172 0
1233 1232 -172 0
-1234 1233 173 0
-1234 -1233 -173 0
1234 -1233 173 0
1234 1233 -173 0
-1235 1234 175 0
-1235 -1234 -175 0
1235 -1234 175 0
1235 1234 -175 0
-1236 1235 176 0
-1236 -1235 -176 0
1236 -1235 176 0
1236 1235 -176 0
-1237 1236 179 0
-1237 -1236 -179 0
1237 -1236 179 0
1237 1236 -179 0
-1238 1237 180 0
-1238 -1237 -180 0
1238 -1237 180 0
1238 1237 -180 0
-1239 1238 181 0
-1239 -1238 -181 0
1239 -1238 181 0
1239 1238 -181 0
-1240 1239 182 0
-1240 -1239 -182 0
1240 -1239 182 0
1240 1239 -182 0
-1241 1240 183 0
-1241 -1240 -183 0
1241 -1240 183 0
1241 1240 -183 0
-1242 1241 186 0
-1242 -1241 -186 0
1242 -1241 186 0
1242 1241 -186 0
-1243 1242 187 0
-1243 -1242 -187 0
1243 -1242 187 0
1243 1242 -187 0
-1244 1243 188 0
-1244 -1243 -188 0
1244 -1243 188 0
1244 1243 -188 0
-1245 1244 189 0
-1245 -1244 -189 0
1245 -1244 189 0
1245 1244 -189 0
-1246 1245 190 0
-1246 -1245 -190 0
1246 -1245 190 0
1246 1245 -190 0
-1247 1246 193 0
-1247 -1246 -193 0
1247 -1246 193 0
1247 1246 -193 0
-1248 1247 194 0
-1248 -1247 -194 0
1248 -1247 194 0
1248 1247 -194 0
-1249 1248 195 0
-1249 -1248 -195 0
1249 -1248 195 0
1249 1248 -195 0
-1250 1249 197 0
-1250 -1249 -197 0
1250 -1249 197 0
1250 1249 -197 0
-1251 1250 199 0
-1251 -1250 -199 0
1251 -1250 199 0
1251 1250 -199 0
-1252 1251 200 0
-1252 -1251 -200 0
1252 -1251 200 0
1252 1251 -200 0
-1253 1252 201 0
-1253 -1252 -201 0
1253 -1252 201 0
1253 1252 -201 0
-1254 1253 202 0
-1254 -1253 -202 0
1254 -1253 202 0
1254 1253 -202 0
-1255 1254 204 0
-1255 -1254 -204 0
1255 -1254 204 0
1255 1254 -204 0
-1256 1255 206 0
-1256 -1255 -206 0
1256 -1255 206 0
1256 1255 -206 0
-1257 1256 207 0
-1257 -1256 -207 0
1257 -1256 207 0
1257 1256 -207 0
-1258 1257 209 0
-1258 -1257 -209 0
1258 -1257 209 0
1258 1257 -209 0
-1259 1258 213 0
-1259 -1258 -213 0
1259 -1258 213 0
1259 1258 -213 0
-1260 1259 216 0
-1260 -1259 -216 0
1260 -1259 216 0
1260 1259 -216 0
-1260 0
-1261 47 52 0
-1261 -47 -52 0
1261 -47 52 0
1261 47 -52 0
-1262 1261 54 0
-1262 -1261 -54 0
1262 -1261 54 0
1262 1261 -54 0
-1263 1262 59 0
-1263 -1262 -59 0
1263 -1262 59 0
1263 1262 -59 0
-1264 1263 67 0
-1264 -1263 -67 0
1264 -1263 67 0
1264 1263 -67 0
-1265 1264 68 0
-1265 -1264 -68 0
1265 -1264 68 0
1265 1264 -68 0
-1266 1265 69 0
-1266 -1265 -69 0
1266 -1265 69 0
1266 1265 -69 0
-1267 1266 71 0
-1267 -1266 -71 0
1267 -1266 71 0
1267 1266 -71 0
-1268 1267 72 0
-1268 -1267 -72 0
1268 -1267 72 0
1268 1267 -72 0
-1269 1268 74 0
-1269 -1268 -74 0
1269 -1268 74 0
1269 1268 -74 0
-1270 1269 77 0
-1270 -1269 -77 0
1270 -1269 77 0
1270 1269 -77 0
-1271 1270 79 0
-1271 -1270 -79 0
1271 -1270 79 0
1271 1270 -79 0
-1272 1271 80 0
-1272 -1271 -80 0
1272 -1271 80 0
1272 1271 -80 0
-1273 1272 86 0
-1273 -1272 -86 0
1273 -1272 86 0
1273 1272 -86 0
-1274 1273 87 0
-1274 -1273 -87 0
1274 -1273 87 0
1274 1273 -87 0
-1275 1274 88 0
-1275 -1274 -88 0
1275 -1274 88 0
1275 1274 -88 0
-1276 1275 90 0
-1276 -1275 -90 0
1276 -1275 90 0
1276 1275 -90 0
-1277 1276 92 0
-1277 -1276 -92 0
1277 -1276 92 0
1277 1276 -92 0
-1278 1277 94 0
-1278 -1277 -94 0
1278 -1277 94 0
1278 1277 -94 0
-1279 1278 95 0
-1279 -1278 -95 0
1279 -1278 95 0
1279 1278 -95 0
-1280 1279 97 0
-1280 -1279 -97 0
1280 -1279 97 0
1280 1279 -97 0
-1281 1280 100 0
-1281 -1280 -100 0
1281 -1280 100 0
1281 1280 -100 0
-1282 1281 101 0
-1282 -1281 -101 0
1282 -1281 101 0
1282 1281 -101 0
-1283 1282 103 0
-1283 -1282 -103 0
1283 -1282 103 0
1283 1282 -103 0
-1284 1283 104 0
-1284 -1283 -104 0
1284 -1283 104 0
1284 1283 -104 0
-1285 1284 105 0
-1285 -1284 -105 0
1285 -1284 105 0
1285 1284 -105 0
-1286 1285 107 0
-1286 -1285 -107 0
1286 -1285 107 0
1286 1285 -107 0
-1287 1286 108 0
-1287 -1286 -108 0
1287 -1286 108 0
1287 1286 -108 0
-1288 1287 127 0
-1288 -1287 -127 0
1288 -1287 127 0
1288 1287 -127 0
-1289 1288 154 0
-1289 -1288 -154 0
1289 -1288 154 0
1289 1288 -154 0
-1290 1289 160 0
-1290 -1289 -160 0
1290 -1289 160 0
1290 1289 -160 0
-1291 1290 166 0
-1291 -1290 -166 0
1291 -1290 166 0
1291 1290 -166 0
-1292 1291 167 0
-1292 -1291 -167 0
1292 -1291 167 0
1292 1291 -167 0
-1293 1292 168 0
-1293 -1292 -168 0
1293 -1292 168 0
1293 1292 -168 0
-1294 1293 169 0
-1294 -1293 -169 0
1294 -1293 169 0
1294 1293 -169 0
-1295 1294 170 0
-1295 -1294 -170 0
1295 -1294 170 0
1295 1294 -170 0
-1296 1295 173 0
-1296 -1295 -173 0
1296 -1295 173 0
1296 1295 -173 0
-1297 1296 174 0
-1297 -1296 -174 0
1297 -1296 174 0
1297 1296 -174 0
-1298 1297 175 0
-1298 -1297 -175 0
1298 -1297 175 0
1298 1297 -175 0
-1299 1298 177 0
-1299 -1298 -177 0
1299 -1298 177 0
1299 1298 -177 0
-1300 1299 179 0
-1300 -1299 -179 0
1300 -1299 179 0
1300 1299 -179 0
-1301 1300 180 0
-1301 -1300 -180 0
1301 -1300 180 0
1301 1300 -180 0
-1302 1301 181 0
-1302 -1301 -181 0
1302 -1301 181 0
1302 1301 -181 0
-1303 1302 182 0
-1303 -1302 -182 0
1303 -1302 182 0
1303 1302 -182 0
-1304 1303 184 0
-1304 -1303 -184 0
1304 -1303 184 0
1304 1303 -184 0
-1305 1304 185 0
-1305 -1304 -185 0
1305 -1304 185 0
1305 1304 -185 0
-1306 1305 186 0
-1306 -1305 -186 0
1306 -1305 186 0
1306 1305 -186 0
-1307 1306 187 0
-1307 -1306 -187 0
1307 -1306 187 0
1307 1306 -187 0
-1308 1307 189 0
-1308 -1307 -189 0
1308 -1307 189 0
1308 1307 -189 0
-1309 1308 192 0
-1309 -1308 -192 0
1309 -1308 192 0
1309 1308 -192 0
-1310 1309 193 0
-1310 -1309 -193 0
1310 -1309 193 0
1310 1309 -193 0
-1311 1310 196 0
-1311 -1310 -196 0
1311 -1310 196 0
1311 1310 -196 0
-1312 1311 200 0
-1312 -1311 -200 0
1312 -1311 200 0
1312 1311 -200 0
-1313 1312 206 0
-1313 -1312 -206 0
1313 -1312 206 0
1313 1312 -206 0
-1314 1313 207 0
-1314 -1313 -207 0
1314 -1313 207 0
1314 1313 -207 0
-1315 1314 213 0
-1315 -1314 -213 0
1315 -1314 213 0
1315 1314 -213 0
-1316 1315 214 0
-1316 -1315 -214 0
1316 -1315 214 0
1316 1315 -214 0
-1317 1316 215 0
-1317 -1316 -215 0
1317 -1316 215 0
1317 1316 -215 0
-1317 0
-1318 48 52 0
-1318 -48 -52 0
1318 -48 52 0
1318 48 -52 0
-1319 1318 53 0
-1319 -1318 -53 0
1319 -1318 53 0
1319 1318 -53 0
-1320 1319 58 0
-1320 -1319 -58 0
1320 -1319 58 0
1320 1319 -58 0
-1321 1320 59 0
-1321 -1320 -59 0
1321 -1320 59 0
1321 1320 -59 0
-1322 1321 60 0
-1322 -1321 -60 0
1322 -1321 60 0
1322 1321 -60 0
-1323 1322 62 0
-1323 -1322 -62 0
1323 -1322 62 0
1323 1322 -62 0
-1324 1323 63 0
-1324 -1323 -63 0
1324 -1323 63 0
1324 1323 -63 0
-1325 1324 64 0
-1325 -1324 -64 0
1325 -1324 64 0
1325 1324 -64 0
-1326 1325 66 0
-1326 -1325 -66 0
1326 -1325 66 0
1326 1325 -66 0
-1327 1326 67 0
-1327 -1326 -67 0
1327 -1326 67 0
1327 1326 -67 0
-1328 1327 69 0
-1328 -1327 -69 0
1328 -1327 69 0
1328 1327 -69 0
-1329 1328 72 0
-1329 -1328 -72 0
1329 -1328 72 0
1329 1328 -72 0
-1330 1329 74 0
-1330 -1329 -74 0
1330 -1329 74 0
1330 1329 -74 0
-1331 1330 75 0
-1331 -1330 -75 0
1331 -1330 75 0
1331 1330 -75 0
-1332 1331 76 0
-1332 -1331 -76 0
1332 -1331 76 0
1332 1331 -76 0
-1333 1332 78 0
-1333 -1332 -78 0
1333 -1332 78 0
1333 1332 -78 0
-1334 1333 79 0
-1334 -1333 -79 0
1334 -1333 79 0
1334 1333 -79 0
-1335 1334 84 0
-1335 -1334 -84 0
1335 -1334 84 0
1335 1334 -84 0
-1336 1335 85 0
-1336 -1335 -85 0
1336 -1335 85 0
1336 1335 -85 0
-1337 1336 87 0
-1337 -1336 -87 0
1337 -1336 87 0
1337 1336 -87 0
-1338 1337 91 0
-1338 -1337 -91 0
1338 -1337 91 0
1338 1337 -91 0
-1339 1338 92 0
-1339 -1338 -92 0
1339 -1338 92 0
1339 1338 -92 0
-1340 1339 93 0
-1340 -1339 -93 0
1340 -1339 93 0
1340 1339 -93 0
-1341 1340 95 0
-1341 -1340 -95 0
1341 -1340 95 0
1341 1340 -95 0
-1342 1341 96 0
-1342 -1341 -96 0
1342 -1341 96 0
1342 1341 -96 0
-1343 1342 98 0
-1343 -1342 -98 0
1343 -1342 98 0
1343 1342 -98 0
-1344 1343 99 0
-1344 -1343 -99 0
1344 -1343 99 0
1344 1343 -99 0
-1345 1344 100 0
-1345 -1344 -100 0
1345 -1344 100 0
1345 1344 -100 0
-1346 1345 105 0
-1346 -1345 -105 0
1346 -1345 105 0
1346 1345 -105 0
-1347 1346 106 0
-1347 -1346 -106 0
1347 -1346 106 0
1347 1346 -106 0
-1348 1347 108 0
-1348 -1347 -108 0
1348 -1347 108 0
1348 1347 -108 0
-1349 1348 128 0
-1349 -1348 -128 0
1349 -1348 128 0
1349 1348 -128 0
-1350 1349 155 0
-1350 -1349 -155 0
1350 -1349 155 0
1350 1349 -155 0
-1351 1350 161 0
-1351 -1350 -161 0
1351 -1350 161 0
1351 1350 -161 0
-1352 1351 165 0
-1352 -1351 -165 0
1352 -1351 165 0
1352 1351 -165 0
-1353 1352 166 0
-1353 -1352 -166 0
1353 -1352 166 0
1353 1352 -166 0
-1354 1353 167 0
-1354 -1353 -167 0
1354 -1353 167 0
1354 1353 -167 0
-1355 1354 171 0
-1355 -1354 -171 0
1355 -1354 171 0
1355 1354 -171 0
-1356 1355 172 0
-1356 -1355 -172 0
1356 -1355 172 0
1356 1355 -172 0
-1357 1356 173 0
-1357 -1356 -173 0
1357 -1356 173 0
1357 1356 -173 0
-1358 1357 174 0
-1358 -1357 -174 0
1358 -1357 174 0
1358 1357 -174 0
-1359 1358 175 0
-1359 -1358 -175 0
1359 -1358 175 0
1359 1358 -175 0
-1360 1359 177 0
-1360 -1359 -177 0
1360 -1359 177 0
1360 1359 -177 0
-1361 1360 178 0
-1361 -1360 -178 0
1361 -1360 178 0
1361 1360 -178 0
-1362 1361 179 0
-1362 -1361 -179 0
1362 -1361 179 0
1362 1361 -179 0
-1363 1362 182 0
-1363 -1362 -182 0
1363 -1362 182 0
1363 1362 -182 0
-1364 1363 184 0
-1364 -1363 -184 0
1364 -1363 184 0
1364 1363 -184 0
-1365 1364 185 0
-1365 -1364 -185 0
1365 -1364 185 0
1365 1364 -185 0
-1366 1365 191 0
-1366 -1365 -191 0
1366 -1365 191 0
1366 1365 -191 0
-1367 1366 195 0
-1367 -1366 -195 0
1367 -1366 195 0
1367 1366 -195 0
-1368 1367 198 0
-1368 -1367 -198 0
1368 -1367 198 0
1368 1367 -198 0
-1369 1368 199 0
-1369 -1368 -199 0
1369 -1368 199 0
1369 1368 -199 0
-1370 1369 202 0
-1370 -1369 -202 0
1370 -1369 202 0
1370 1369 -202 0
-1371 1370 204 0
-1371 -1370 -204 0
1371 -1370 204 0
1371 1370 -204 0
-1372 1371 205 0
-1372 -1371 -205 0
1372 -1371 205 0
1372 1371 -205 0
-1373 1372 206 0
-1373 -1372 -206 0
1373 -1372 206 0
1373 1372 -206 0
-1374 1373 207 0
-1374 -1373 -207 0
1374 -1373 207 0
1374 1373 -207 0
-1375 1374 209 0
-1375 -1374 -209 0
1375 -1374 209 0
1375 1374 -209 0
-1376 1375 212 0
-1376 -1375 -212 0
1376 -1375 212 0
1376 1375 -212 0
-1377 1376 213 0
-1377 -1376 -213 0
1377 -1376 213 0
1377 1376 -213 0
-1378 1377 214 0
-1378 -1377 -214 0
1378 -1377 214 0
1378 1377 -214 0
-1378 0
-1379 46 53 0
-1379 -46 -53 0
1379 -46 53 0
1379 46 -53 0
-1380 1379 54 0
-1380 -1379 -54 0
1380 -1379 54 0
1380 1379 -54 0
-1381 1380 60 0
-1381 -1380 -60 0
1381 -1380 60 0
1381 1380 -60 0
-1382 1381 62 0
-1382 -1381 -62 0
1382 -1381 62 0
1382 1381 -62 0
-1383 1382 64 0
-1383 -1382 -64 0
1383 -1382 64 0
1383 1382 -64 0
-1384 1383 65 0
-1384 -1383 -65 0
1384 -1383 65 0
1384 1383 -65 0
-1385 1384 66 0
-1385 -1384 -66 0
1385 -1384 66 0
1385 1384 -66 0
-1386 1385 70 0
-1386 -1385 -70 0
1386 -1385 70 0
1386 1385 -70 0
-1387 1386 73 0
-1387 -1386 -73 0
1387 -1386 73 0
1387 1386 -73 0
-1388 1387 75 0
-1388 -1387 -75 0
1388 -1387 75 0
1388 1387 -75 0
-1389 1388 80 0
-1389 -1388 -80 0
1389 -1388 80 0
1389 1388 -80 0
-1390 1389 81 0
-1390 -1389 -81 0
1390 -1389 81 0
1390 1389 -81 0
-1391 1390 83 0
-1391 -1390 -83 0
1391 -1390 83 0
1391 1390 -83 0
-1392 1391 84 0
-1392 -1391 -84 0
1392 -1391 84 0
1392 1391 -84 0
-1393 1392 93 0
-1393 -1392 -93 0
1393 -1392 93 0
1393 1392 -93 0
-1394 1393 94 0
-1394 -1393 -94 0
1394 -1393 94 0
1394 1393 -94 0
-1395 1394 96 0
-1395 -1394 -96 0
1395 -1394 96 0
1395 1394 -96 0
-1396 1395 98 0
-1396 -1395 -98 0
1396 -1395 98 0
1396 1395 -98 0
-1397 1396 101 0
-1397 -1396 -101 0
1397 -1396 101 0
1397 1396 -101 0
-1398 1397 102 0
-1398 -1397 -102 0
1398 -1397 102 0
1398 1397 -102 0
-1399 1398 106 0
-1399 -1398 -106 0
1399 -1398 106 0
1399 1398 -106 0
-1400 1399 129 0
-1400 -1399 -129 0
1400 -1399 129 0
1400 1399 -129 0
-1401 1400 156 0
-1401 -1400 -156 0
1401 -1400 156 0
1401 1400 -156 0
-1402 1401 162 0
-1402 -1401 -162 0
1402 -1401 162 0
1402 1401 -162 0
-1403 1402 166 0
-1403 -1402 -166 0
1403 -1402 166 0
1403 1402 -166 0
-1404 1403 167 0
-1404 -1403 -167 0
1404 -1403 167 0
1404 1403 -167 0
-1405 1404 168 0
-1405 -1404 -168 0
1405 -1404 168 0
1405 1404 -168 0
-1406 1405 169 0
-1406 -1405 -169 0
1406 -1405 169 0
1406 1405 -169 0
-1407 1406 172 0
-1407 -1406 -172 0
1407 -1406 172 0
1407 1406 -172 0
-1408 1407 173 0
-1408 -1407 -173 0
1408 -1407 173 0
1408 1407 -173 0
-1409 1408 174 0
-1409 -1408 -174 0
1409 -1408 174 0
1409 1408 -174 0
-1410 1409 176 0
-1410 -1409 -176 0
1410 -1409 176 0
1410 1409 -176 0
-1411 1410 178 0
-1411 -1410 -178 0
1411 -1410 178 0
1411 1410 -178 0
-1412 1411 179 0
-1412 -1411 -179 0
1412 -1411 179 0
1412 1411 -179 0
-1413 1412 180 0
-1413 -1412 -180 0
1413 -1412 180 0
1413 1412 -180 0
-1414 1413 183 0
-1414 -1413 -183 0
1414 -1413 183 0
1414 1413 -183 0
-1415 1414 185 0
-1415 -1414 -185 0
1415 -1414 185 0
1415 1414 -185 0
-1416 1415 186 0
-1416 -1415 -186 0
1416 -1415 186 0
1416 1415 -186 0
-1417 1416 192 0
-1417 -1416 -192 0
1417 -1416 192 0
1417 1416 -192 0
-1418 1417 193 0
-1418 -1417 -193 0
1418 -1417 193 0
1418 1417 -193 0
-1419 1418 196 0
-1419 -1418 -196 0
1419 -1418 196 0
1419 1418 -196 0
-1420 1419 199 0
-1420 -1419 -199 0
1420 -1419 199 0
1420 1419 -199 0
-1421 1420 200 0
-1421 -1420 -200 0
1421 -1420 200 0
1421 1420 -200 0
-1422 1421 203 0
-1422 -1421 -203 0
1422 -1421 203 0
1422 1421 -203 0
-1423 1422 206 0
-1423 -1422 -206 0
1423 -1422 206 0
1423 1422 -206 0
-1424 1423 207 0
-1424 -1423 -207 0
1424 -1423 207 0
1424 1423 -207 0
-1425 1424 208 0
-1425 -1424 -208 0
1425 -1424 208 0
1425 1424 -208 0
-1426 1425 210 0
-1426 -1425 -210 0
1426 -1425 210 0
1426 1425 -210 0
-1427 1426 213 0
-1427 -1426 -213 0
1427 -1426 213 0
1427 1426 -213 0
-1428 1427 214 0
-1428 -1427 -214 0
1428 -1427 214 0
1428 1427 -214 0
-1429 1428 215 0
-1429 -1428 -215 0
1429 -1428 215 0
1429 1428 -215 0
-1429 0
-1430 59 63 0
-1430 -59 -63 0
1430 -59 63 0
1430 59 -63 0
-1431 1430 64 0
-1431 -1430 -64 0
1431 -1430 64 0
1431 1430 -64 0
-1432 1431 66 0
-1432 -1431 -66 0
1432 -1431 66 0
1432 1431 -66 0
-1433 1432 67 0
-1433 -1432 -67 0
1433 -1432 67 0
1433 1432 -67 0
-1434 1433 68 0
-1434 -1433 -68 0
1434 -1433 68 0
1434 1433 -68 0
-1435 1434 69 0
-1435 -1434 -69 0
1435 -1434 69 0
1435 1434 -69 0
-1436 1435 70 0
-1436 -1435 -70 0
1436 -1435 70 0
1436 1435 -70 0
-1437 1436 72 0
-1437 -1436 -72 0
1437 -1436 72 0
1437 1436 -72 0
-1438 1437 74 0
-1438 -1437 -74 0
1438 -1437 74 0
1438 1437 -74 0
-1439 1438 76 0
-1439 -1438 -76 0
1439 -1438 76 0
1439 1438 -76 0
-1440 1439 77 0
-1440 -1439 -77 0
1440 -1439 77 0
1440 1439 -77 0
-1441 1440 79 0
-1441 -1440 -79 0
1441 -1440 79 0
1441 1440 -79 0
-1442 1441 81 0
-1442 -1441 -81 0
1442 -1441 81 0
1442 1441 -81 0
-1443 1442 83 0
-1443 -1442 -83 0
1443 -1442 83 0
1443 1442 -83 0
-1444 1443 84 0
-1444 -1443 -84 0
1444 -1443 84 0
1444 1443 -84 0
-1445 1444 87 0
-1445 -1444 -87 0
1445 -1444 87 0
1445 1444 -87 0
-1446 1445 88 0
-1446 -1445 -88 0
1446 -1445 88 0
1446 1445 -88 0
-1447 1446 90 0
-1447 -1446 -90 0
1447 -1446 90 0
1447 1446 -90 0
-1448 1447 91 0
-1448 -1447 -91 0
1448 -1447 91 0
1448 1447 -91 0
-1449 1448 92 0
-1449 -1448 -92 0
1449 -1448 92 0
1449 1448 -92 0
-1450 1449 97 0
-1450 -1449 -97 0
1450 -1449 97 0
1450 1449 -97 0
-1451 1450 98 0
-1451 -1450 -98 0
1451 -1450 98 0
1451 1450 -98 0
-1452 1451 99 0
-1452 -1451 -99 0
1452 -1451 99 0
1452 1451 -99 0
-1453 1452 100 0
-1453 -1452 -100 0
1453 -1452 100 0
1453 1452 -100 0
-1454 1453 102 0
-1454 -1453 -102 0
1454 -1453 102 0
1454 1453 -102 0
-1455 1454 103 0
-1455 -1454 -103 0
1455 -1454 103 0
1455 1454 -103 0
-1456 1455 105 0
-1456 -1455 -105 0
1456 -1455 105 0
1456 1455 -105 0
-1457 1456 107 0
-1457 -1456 -107 0
1457 -1456 107 0
1457 1456 -107 0
-1458 1457 108 0
-1458 -1457 -108 0
1458 -1457 108 0
1458 1457 -108 0
-1459 1458 130 0
-1459 -1458 -130 0
1459 -1458 130 0
1459 1458 -130 0
-1460 1459 154 0
-1460 -1459 -154 0
1460 -1459 154 0
1460 1459 -154 0
-1461 1460 160 0
-1461 -1460 -160 0
1461 -1460 160 0
1461 1460 -160 0
-1462 1461 165 0
-1462 -1461 -165 0
1462 -1461 165 0
1462 1461 -165 0
-1463 1462 166 0
-1463 -1462 -166 0
1463 -1462 166 0
1463 1462 -166 0
-1464 1463 168 0
-1464 -1463 -168 0
1464 -1463 168 0
1464 1463 -168 0
-1465 1464 169 0
-1465 -1464 -169 0
1465 -1464 169 0
1465 1464 -169 0
-1466 1465 170 0
-1466 -1465 -170 0
1466 -1465 170 0
1466 1465 -170 0
-1467 1466 172 0
-1467 -1466 -172 0
1467 -1466 172 0
1467 1466 -172 0
-1468 1467 173 0
-1468 -1467 -173 0
1468 -1467 173 0
1468 1467 -173 0
-1469 1468 176 0
-1469 -1468 -176 0
1469 -1468 176 0
1469 1468 -176 0
-1470 1469 177 0
-1470 -1469 -177 0
1470 -1469 177 0
1470 1469 -177 0
-1471 1470 179 0
-1471 -1470 -179 0
1471 -1470 179 0
1471 1470 -179 0
-1472 1471 180 0
-1472 -1471 -180 0
1472 -1471 180 0
1472 1471 -180 0
-1473 1472 181 0
-1473 -1472 -181 0
1473 -1472 181 0
1473 1472 -181 0
-1474 1473 182 0
-1474 -1473 -182 0
1474 -1473 182 0
1474 1473 -182 0
-1475 1474 183 0
-1475 -1474 -183 0
1475 -1474 183 0
1475 1474 -183 0
-1476 1475 184 0
-1476 -1475 -184 0
1476 -1475 184 0
1476 1475 -184 0
-1477 1476 186 0
-1477 -1476 -186 0
1477 -1476 186 0
1477 1476 -186 0
-1478 1477 187 0
-1478 -1477 -187 0
1478 -1477 187 0
1478 1477 -187 0
-1479 1478 188 0
-1479 -1478 -188 0
1479 -1478 188 0
1479 1478 -188 0
-1480 1479 189 0
-1480 -1479 -189 0
1480 -1479 189 0
1480 1479 -189 0
-1481 1480 190 0
-1481 -1480 -190 0
1481 -1480 190 0
1481 1480 -190 0
-1482 1481 191 0
-1482 -1481 -191 0
1482 -1481 191 0
1482 1481 -191 0
-1483 1482 194 0
-1483 -1482 -194 0
1483 -1482 194 0
1483 1482 -194 0
-1484 1483 195 0
-1484 -1483 -195 0
1484 -1483 195 0
1484 1483 -195 0
-1485 1484 196 0
-1485 -1484 -196 0
1485 -1484 196 0
1485 1484 -196 0
-1486 1485 198 0
-1486 -1485 -198 0
1486 -1485 198 0
1486 1485 -198 0
-1487 1486 199 0
-1487 -1486 -199 0
1487 -1486 199 0
1487 1486 -199 0
-1488 1487 201 0
-1488 -1487 -201 0
1488 -1487 201 0
1488 1487 -201 0
-1489 1488 202 0
-1489 -1488 -202 0
1489 -1488 202 0
1489 1488 -202 0
-1490 1489 206 0
-1490 -1489 -206 0
1490 -1489 206 0
1490 1489 -206 0
-1491 1490 208 0
-1491 -1490 -208 0
1491 -1490 208 0
1491 1490 -208 0
-1492 1491 212 0
-1492 -1491 -212 0
1492 -1491 212 0
1492 1491 -212 0
-1493 1492 213 0
-1493 -1492 -213 0
1493 -1492 213 0
1493 1492 -213 0
-1494 1493 215 0
-1494 -1493 -215 0
1494 -1493 215 0
1494 1493 -215 0
-1494 0
-1495 60 65 0
-1495 -60 -65 0
1495 -60 65 0
1495 60 -65 0
-1496 1495 67 0
-1496 -1495 -67 0
1496 -1495 67 0
1496 1495 -67 0
-1497 1496 68 0
-1497 -1496 -68 0
1497 -1496 68 0
1497 1496 -68 0
-1498 1497 70 0
-1498 -1497 -70 0
1498 -1497 70 0
1498 1497 -70 0
-1499 1498 71 0
-1499 -1498 -71 0
1499 -1498 71 0
1499 1498 -71 0
-1500 1499 72 0
-1500 -1499 -72 0
1500 -1499 72 0
1500 1499 -72 0
-1501 1500 75 0
-1501 -1500 -75 0
1501 -1500 75 0
1501 1500 -75 0
-1502 1501 77 0
-1502 -1501 -77 0
1502 -1501 77 0
1502 1501 -77 0
-1503 1502 78 0
-1503 -1502 -78 0
1503 -1502 78 0
1503 1502 -78 0
-1504 1503 80 0
-1504 -1503 -80 0
1504 -1503 80 0
1504 1503 -80 0
-1505 1504 84 0
-1505 -1504 -84 0
1505 -1504 84 0
1505 1504 -84 0
-1506 1505 85 0
-1506 -1505 -85 0
1506 -1505 85 0
1506 1505 -85 0
-1507 1506 87 0
-1507 -1506 -87 0
1507 -1506 87 0
1507 1506 -87 0
-1508 1507 88 0
-1508 -1507 -88 0
1508 -1507 88 0
1508 1507 -88 0
-1509 1508 89 0
-1509 -1508 -89 0
1509 -1508 89 0
1509 1508 -89 0
-1510 1509 90 0
-1510 -1509 -90 0
1510 -1509 90 0
1510 1509 -90 0
-1511 1510 92 0
-1511 -1510 -92 0
1511 -1510 92 0
1511 1510 -92 0
-1512 1511 93 0
-1512 -1511 -93 0
1512 -1511 93 0
1512 1511 -93 0
-1513 1512 98 0
-1513 -1512 -98 0
1513 -1512 98 0
1513 1512 -98 0
-1514 1513 99 0
-1514 -1513 -99 0
1514 -1513 99 0
1514 1513 -99 0
-1515 1514 101 0
-1515 -1514 -101 0
1515 -1514 101 0
1515 1514 -101 0
-1516 1515 103 0
-1516 -1515 -103 0
1516 -1515 103 0
1516 1515 -103 0
-1517 1516 104 0
-1517 -1516 -104 0
1517 -1516 104 0
1517 1516 -104 0
-1518 1517 105 0
-1518 -1517 -105 0
1518 -1517 105 0
1518 1517 -105 0
-1519 1518 106 0
-1519 -1518 -106 0
1519 -1518 106 0
1519 1518 -106 0
-1520 1519 131 0
-1520 -1519 -131 0
1520 -1519 131 0
1520 1519 -131 0
-1521 1520 155 0
-1521 -1520 -155 0
1521 -1520 155 0
1521 1520 -155 0
-1522 1521 161 0
-1522 -1521 -161 0
1522 -1521 161 0
1522 1521 -161 0
-1523 1522 165 0
-1523 -1522 -165 0
1523 -1522 165 0
1523 1522 -165 0
-1524 1523 167 0
-1524 -1523 -167 0
1524 -1523 167 0
1524 1523 -167 0
-1525 1524 168 0
-1525 -1524 -168 0
1525 -1524 168 0
1525 1524 -168 0
-1526 1525 169 0
-1526 -1525 -169 0
1526 -1525 169 0
1526 1525 -169 0
-1527 1526 171 0
-1527 -1526 -171 0
1527 -1526 171 0
1527 1526 -171 0
-1528 1527 172 0
-1528 -1527 -172 0
1528 -1527 172 0
1528 1527 -172 0
-1529 1528 174 0
-1529 -1528 -174 0
1529 -1528 174 0
1529 1528 -174 0
-1530 1529 175 0
-1530 -1529 -175 0
1530 -1529 175 0
1530 1529 -175 0
-1531 1530 176 0
-1531 -1530 -176 0
1531 -1530 176 0
1531 1530 -176 0
-1532 1531 178 0
-1532 -1531 -178 0
1532 -1531 178 0
1532 1531 -178 0
-1533 1532 179 0
-1533 -1532 -179 0
1533 -1532 179 0
1533 1532 -179 0
-1534 1533 182 0
-1534 -1533 -182 0
1534 -1533 182 0
1534 1533 -182 0
-1535 1534 185 0
-1535 -1534 -185 0
1535 -1534 185 0
1535 1534 -185 0
-1536 1535 186 0
-1536 -1535 -186 0
1536 -1535 186 0
1536 1535 -186 0
-1537 1536 187 0
-1537 -1536 -187 0
1537 -1536 187 0
1537 1536 -187 0
-1538 1537 189 0
-1538 -1537 -189 0
1538 -1537 189 0
1538 1537 -189 0
-1539 1538 192 0
-1539 -1538 -192 0
1539 -1538 192 0
1539 1538 -192 0
-1540 1539 193 0
-1540 -1539 -193 0
1540 -1539 193 0
1540 1539 -193 0
-1541 1540 194 0
-1541 -1540 -194 0
1541 -1540 194 0
1541 1540 -194 0
-1542 1541 196 0
-1542 -1541 -196 0
1542 -1541 196 0
1542 1541 -196 0
-1543 1542 198 0
-1543 -1542 -198 0
1543 -1542 198 0
1543 1542 -198 0
-1544 1543 199 0
-1544 -1543 -199 0
1544 -1543 199 0
1544 1543 -199 0
-1545 1544 200 0
-1545 -1544 -200 0
1545 -1544 200 0
1545 1544 -200 0
-1546 1545 201 0
-1546 -1545 -201 0
1546 -1545 201 0
1546 1545 -201 0
-1547 1546 203 0
-1547 -1546 -203 0
1547 -1546 203 0
1547 1546 -203 0
-1548 1547 204 0
-1548 -1547 -204 0
1548 -1547 204 0
1548 1547 -204 0
-1549 1548 205 0
-1549 -1548 -205 0
1549 -1548 205 0
1549 1548 -205 0
-1550 1549 206 0
-1550 -1549 -206 0
1550 -1549 206 0
1550 1549 -206 0
-1551 1550 207 0
-1551 -1550 -207 0
1551 -1550 207 0
1551 1550 -207 0
-1552 1551 208 0
-1552 -1551 -208 0
1552 -1551 208 0
1552 1551 -208 0
-1553 1552 212 0
-1553 -1552 -212 0
1553 -1552 212 0
1553 1552 -212 0
-1554 1553 214 0
-1554 -1553 -214 0
1554 -1553 214 0
1554 1553 -214 0
-1555 1554 215 0
-1555 -1554 -215 0
1555 -1554 215 0
1555 1554 -215 0
-1555 0
-1556 58 66 0
-1556 -58 -66 0
1556 -58 66 0
1556 58 -66 0
-1557 1556 67 0
-1557 -1556 -67 0
1557 -1556 67 0
1557 1556 -67 0
-1558 1557 69 0
-1558 -1557 -69 0
1558 -1557 69 0
1558 1557 -69 0
-1559 1558 72 0
-1559 -1558 -72 0
1559 -1558 72 0
1559 1558 -72 0
-1560 1559 78 0
-1560 -1559 -78 0
1560 -1559 78 0
1560 1559 -78 0
-1561 1560 79 0
-1561 -1560 -79 0
1561 -1560 79 0
1561 1560 -79 0
-1562 1561 81 0
-1562 -1561 -81 0
1562 -1561 81 0
1562 1561 -81 0
-1563 1562 85 0
-1563 -1562 -85 0
1563 -1562 85 0
1563 1562 -85 0
-1564 1563 88 0
-1564 -1563 -88 0
1564 -1563 88 0
1564 1563 -88 0
-1565 1564 90 0
-1565 -1564 -90 0
1565 -1564 90 0
1565 1564 -90 0
-1566 1565 91 0
-1566 -1565 -91 0
1566 -1565 91 0
1566 1565 -91 0
-1567 1566 93 0
-1567 -1566 -93 0
1567 -1566 93 0
1567 1566 -93 0
-1568 1567 99 0
-1568 -1567 -99 0
1568 -1567 99 0
1568 1567 -99 0
-1569 1568 100 0
-1569 -1568 -100 0
1569 -1568 100 0
1569 1568 -100 0
-1570 1569 102 0
-1570 -1569 -102 0
1570 -1569 102 0
1570 1569 -102 0
-1571 1570 105 0
-1571 -1570 -105 0
1571 -1570 105 0
1571 1570 -105 0
-1572 1571 106 0
-1572 -1571 -106 0
1572 -1571 106 0
1572 1571 -106 0
-1573 1572 132 0
-1573 -1572 -132 0
1573 -1572 132 0
1573 1572 -132 0
-1574 1573 156 0
-1574 -1573 -156 0
1574 -1573 156 0
1574 1573 -156 0
-1575 1574 162 0
-1575 -1574 -162 0
1575 -1574 162 0
1575 1574 -162 0
-1576 1575 165 0
-1576 -1575 -165 0
1576 -1575 165 0
1576 1575 -165 0
-1577 1576 184 0
-1577 -1576 -184 0
1577 -1576 184 0
1577 1576 -184 0
-1578 1577 191 0
-1578 -1577 -191 0
1578 -1577 191 0
1578 1577 -191 0
-1579 1578 193 0
-1579 -1578 -193 0
1579 -1578 193 0
1579 1578 -193 0
-1580 1579 198 0
-1580 -1579 -198 0
1580 -1579 198 0
1580 1579 -198 0
-1581 1580 200 0
-1581 -1580 -200 0
1581 -1580 200 0
1581 1580 -200 0
-1582 1581 205 0
-1582 -1581 -205 0
1582 -1581 205 0
1582 1581 -205 0
-1583 1582 207 0
-1583 -1582 -207 0
1583 -1582 207 0
1583 1582 -207 0
-1584 1583 212 0
-1584 -1583 -212 0
1584 -1583 212 0
1584 1583 -212 0
-1584 0
-1585 46 47 0
-1585 -46 -47 0
1585 -46 47 0
1585 46 -47 0
-1586 1585 54 0
-1586 -1585 -54 0
1586 -1585 54 0
1586 1585 -54 0
-1587 1586 58 0
-1587 -1586 -58 0
1587 -1586 58 0
1587 1586 -58 0
-1588 1587 59 0
-1588 -1587 -59 0
1588 -1587 59 0
1588 1587 -59 0
-1589 1588 62 0
-1589 -1588 -62 0
1589 -1588 62 0
1589 1588 -62 0
-1590 1589 64 0
-1590 -1589 -64 0
1590 -1589 64 0
1590 1589 -64 0
-1591 1590 67 0
-1591 -1590 -67 0
1591 -1590 67 0
1591 1590 -67 0
-1592 1591 68 0
-1592 -1591 -68 0
1592 -1591 68 0
1592 1591 -68 0
-1593 1592 70 0
-1593 -1592 -70 0
1593 -1592 70 0
1593 1592 -70 0
-1594 1593 71 0
-1594 -1593 -71 0
1594 -1593 71 0
1594 1593 -71 0
-1595 1594 76 0
-1595 -1594 -76 0
1595 -1594 76 0
1595 1594 -76 0
-1596 1595 77 0
-1596 -1595 -77 0
1596 -1595 77 0
1596 1595 -77 0
-1597 1596 82 0
-1597 -1596 -82 0
1597 -1596 82 0
1597 1596 -82 0
-1598 1597 85 0
-1598 -1597 -85 0
1598 -1597 85 0
1598 1597 -85 0
-1599 1598 86 0
-1599 -1598 -86 0
1599 -1598 86 0
1599 1598 -86 0
-1600 1599 88 0
-1600 -1599 -88 0
1600 -1599 88 0
1600 1599 -88 0
-1601 1600 89 0
-1601 -1600 -89 0
1601 -1600 89 0
1601 1600 -89 0
-1602 1601 92 0
-1602 -1601 -92 0
1602 -1601 92 0
1602 1601 -92 0
-1603 1602 94 0
-1603 -1602 -94 0
1603 -1602 94 0
1603 1602 -94 0
-1604 1603 100 0
-1604 -1603 -100 0
1604 -1603 100 0
1604 1603 -100 0
-1605 1604 103 0
-1605 -1604 -103 0
1605 -1604 103 0
1605 1604 -103 0
-1606 1605 104 0
-1606 -1605 -104 0
1606 -1605 104 0
1606 1605 -104 0
-1607 1606 107 0
-1607 -1606 -107 0
1607 -1606 107 0
1607 1606 -107 0
-1608 1607 133 0
-1608 -1607 -133 0
1608 -1607 133 0
1608 1607 -133 0
-1609 1608 154 0
-1609 -1608 -154 0
1609 -1608 154 0
1609 1608 -154 0
-1610 1609 165 0
-1610 -1609 -165 0
1610 -1609 165 0
1610 1609 -165 0
-1611 1610 167 0
-1611 -1610 -167 0
1611 -1610 167 0
1611 1610 -167 0
-1612 1611 170 0
-1612 -1611 -170 0
1612 -1611 170 0
1612 1611 -170 0
-1613 1612 172 0
-1613 -1612 -172 0
1613 -1612 172 0
1613 1612 -172 0
-1614 1613 173 0
-1614 -1613 -173 0
1614 -1613 173 0
1614 1613 -173 0
-1615 1614 174 0
-1615 -1614 -174 0
1615 -1614 174 0
1615 1614 -174 0
-1616 1615 175 0
-1616 -1615 -175 0
1616 -1615 175 0
1616 1615 -175 0
-1617 1616 177 0
-1617 -1616 -177 0
1617 -1616 177 0
1617 1616 -177 0
-1618 1617 180 0
-1618 -1617 -180 0
1618 -1617 180 0
1618 1617 -180 0
-1619 1618 181 0
-1619 -1618 -181 0
1619 -1618 181 0
1619 1618 -181 0
-1620 1619 182 0
-1620 -1619 -182 0
1620 -1619 182 0
1620 1619 -182 0
-1621 1620 184 0
-1621 -1620 -184 0
1621 -1620 184 0
1621 1620 -184 0
-1622 1621 188 0
-1622 -1621 -188 0
1622 -1621 188 0
1622 1621 -188 0
-1623 1622 189 0
-1623 -1622 -189 0
1623 -1622 189 0
1623 1622 -189 0
-1624 1623 194 0
-1624 -1623 -194 0
1624 -1623 194 0
1624 1623 -194 0
-1625 1624 195 0
-1625 -1624 -195 0
1625 -1624 195 0
1625 1624 -195 0
-1626 1625 196 0
-1626 -1625 -196 0
1626 -1625 196 0
1626 1625 -196 0
-1627 1626 201 0
-1627 -1626 -201 0
1627 -1626 201 0
1627 1626 -201 0
-1628 1627 202 0
-1628 -1627 -202 0
1628 -1627 202 0
1628 1627 -202 0
-1629 1628 203 0
-1629 -1628 -203 0
1629 -1628 203 0
1629 1628 -203 0
-1630 1629 208 0
-1630 -1629 -208 0
1630 -1629 208 0
1630 1629 -208 0
-1631 1630 210 0
-1631 -1630 -210 0
1631 -1630 210 0
1631 1630 -210 0
-1632 1631 211 0
-1632 -1631 -211 0
1632 -1631 211 0
1632 1631 -211 0
-1633 1632 212 0
-1633 -1632 -212 0
1633 -1632 212 0
1633 1632 -212 0
-1633 0
-1634 47 48 0
-1634 -47 -48 0
1634 -47 48 0
1634 47 -48 0
-1635 1634 52 0
-1635 -1634 -52 0
1635 -1634 52 0
1635 1634 -52 0
-1636 1635 58 0
-1636 -1635 -58 0
1636 -1635 58 0
1636 1635 -58 0
-1637 1636 60 0
-1637 -1636 -60 0
1637 -1636 60 0
1637 1636 -60 0
-1638 1637 63 0
-1638 -1637 -63 0
1638 -1637 63 0
1638 1637 -63 0
-1639 1638 64 0
-1639 -1638 -64 0
1639 -1638 64 0
1639 1638 -64 0
-1640 1639 67 0
-1640 -1639 -67 0
1640 -1639 67 0
1640 1639 -67 0
-1641 1640 68 0
-1641 -1640 -68 0
1641 -1640 68 0
1641 1640 -68 0
-1642 1641 69 0
-1642 -1641 -69 0
1642 -1641 69 0
1642 1641 -69 0
-1643 1642 72 0
-1643 -1642 -72 0
1643 -1642 72 0
1643 1642 -72 0
-1644 1643 74 0
-1644 -1643 -74 0
1644 -1643 74 0
1644 1643 -74 0
-1645 1644 76 0
-1645 -1644 -76 0
1645 -1644 76 0
1645 1644 -76 0
-1646 1645 77 0
-1646 -1645 -77 0
1646 -1645 77 0
1646 1645 -77 0
-1647 1646 78 0
-1647 -1646 -78 0
1647 -1646 78 0
1647 1646 -78 0
-1648 1647 79 0
-1648 -1647 -79 0
1648 -1647 79 0
1648 1647 -79 0
-1649 1648 85 0
-1649 -1648 -85 0
1649 -1648 85 0
1649 1648 -85 0
-1650 1649 87 0
-1650 -1649 -87 0
1650 -1649 87 0
1650 1649 -87 0
-1651 1650 89 0
-1651 -1650 -89 0
1651 -1650 89 0
1651 1650 -89 0
-1652 1651 90 0
-1652 -1651 -90 0
1652 -1651 90 0
1652 1651 -90 0
-1653 1652 91 0
-1653 -1652 -91 0
1653 -1652 91 0
1653 1652 -91 0
-1654 1653 92 0
-1654 -1653 -92 0
1654 -1653 92 0
1654 1653 -92 0
-1655 1654 93 0
-1655 -1654 -93 0
1655 -1654 93 0
1655 1654 -93 0
-1656 1655 95 0
-1656 -1655 -95 0
1656 -1655 95 0
1656 1655 -95 0
-1657 1656 98 0
-1657 -1656 -98 0
1657 -1656 98 0
1657 1656 -98 0
-1658 1657 100 0
-1658 -1657 -100 0
1658 -1657 100 0
1658 1657 -100 0
-1659 1658 101 0
-1659 -1658 -101 0
1659 -1658 101 0
1659 1658 -101 0
-1660 1659 104 0
-1660 -1659 -104 0
1660 -1659 104 0
1660 1659 -104 0
-1661 1660 105 0
-1661 -1660 -105 0
1661 -1660 105 0
1661 1660 -105 0
-1662 1661 106 0
-1662 -1661 -106 0
1662 -1661 106 0
1662 1661 -106 0
-1663 1662 107 0
-1663 -1662 -107 0
1663 -1662 107 0
1663 1662 -107 0
-1664 1663 108 0
-1664 -1663 -108 0
1664 -1663 108 0
1664 1663 -108 0
-1665 1664 134 0
-1665 -1664 -134 0
1665 -1664 134 0
1665 1664 -134 0
-1666 1665 155 0
-1666 -1665 -155 0
1666 -1665 155 0
1666 1665 -155 0
-1667 1666 166 0
-1667 -1666 -166 0
1667 -1666 166 0
1667 1666 -166 0
-1668 1667 168 0
-1668 -1667 -168 0
1668 -1667 168 0
1668 1667 -168 0
-1669 1668 169 0
-1669 -1668 -169 0
1669 -1668 169 0
1669 1668 -169 0
-1670 1669 171 0
-1670 -1669 -171 0
1670 -1669 171 0
1670 1669 -171 0
-1671 1670 173 0
-1671 -1670 -173 0
1671 -1670 173 0
1671 1670 -173 0
-1672 1671 174 0
-1672 -1671 -174 0
1672 -1671 174 0
1672 1671 -174 0
-1673 1672 175 0
-1673 -1672 -175 0
1673 -1672 175 0
1673 1672 -175 0
-1674 1673 176 0
-1674 -1673 -176 0
1674 -1673 176 0
1674 1673 -176 0
-1675 1674 178 0
-1675 -1674 -178 0
1675 -1674 178 0
1675 1674 -178 0
-1676 1675 182 0
-1676 -1675 -182 0
1676 -1675 182 0
1676 1675 -182 0
-1677 1676 183 0
-1677 -1676 -183 0
1677 -1676 183 0
1677 1676 -183 0
-1678 1677 185 0
-1678 -1677 -185 0
1678 -1677 185 0
1678 1677 -185 0
-1679 1678 189 0
-1679 -1678 -189 0
1679 -1678 189 0
1679 1678 -189 0
-1680 1679 190 0
-1680 -1679 -190 0
1680 -1679 190 0
1680 1679 -190 0
-1681 1680 195 0
-1681 -1680 -195 0
1681 -1680 195 0
1681 1680 -195 0
-1682 1681 196 0
-1682 -1681 -196 0
1682 -1681 196 0
1682 1681 -196 0
-1683 1682 197 0
-1683 -1682 -197 0
1683 -1682 197 0
1683 1682 -197 0
-1684 1683 202 0
-1684 -1683 -202 0
1684 -1683 202 0
1684 1683 -202 0
-1685 1684 203 0
-1685 -1684 -203 0
1685 -1684 203 0
1685 1684 -203 0
-1686 1685 204 0
-1686 -1685 -204 0
1686 -1685 204 0
1686 1685 -204 0
-1687 1686 205 0
-1687 -1686 -205 0
1687 -1686 205 0
1687 1686 -205 0
-1688 1687 209 0
-1688 -1687 -209 0
1688 -1687 209 0
1688 1687 -209 0
-1689 1688 212 0
-1689 -1688 -212 0
1689 -1688 212 0
1689 1688 -212 0
-1690 1689 213 0
-1690 -1689 -213 0
1690 -1689 213 0
1690 1689 -213 0
-1690 0
-1691 46 48 0
-1691 -46 -48 0
1691 -46 48 0
1691 46 -48 0
-1692 1691 53 0
-1692 -1691 -53 0
1692 -1691 53 0
1692 1691 -53 0
-1693 1692 62 0
-1693 -1692 -62 0
1693 -1692 62 0
1693 1692 -62 0
-1694 1693 63 0
-1694 -1693 -63 0
1694 -1693 63 0
1694 1693 -63 0
-1695 1694 65 0
-1695 -1694 -65 0
1695 -1694 65 0
1695 1694 -65 0
-1696 1695 66 0
-1696 -1695 -66 0
1696 -1695 66 0
1696 1695 -66 0
-1697 1696 70 0
-1697 -1696 -70 0
1697 -1696 70 0
1697 1696 -70 0
-1698 1697 72 0
-1698 -1697 -72 0
1698 -1697 72 0
1698 1697 -72 0
-1699 1698 73 0
-1699 -1698 -73 0
1699 -1698 73 0
1699 1698 -73 0
-1700 1699 75 0
-1700 -1699 -75 0
1700 -1699 75 0
1700 1699 -75 0
-1701 1700 76 0
-1701 -1700 -76 0
1701 -1700 76 0
1701 1700 -76 0
-1702 1701 78 0
-1702 -1701 -78 0
1702 -1701 78 0
1702 1701 -78 0
-1703 1702 80 0
-1703 -1702 -80 0
1703 -1702 80 0
1703 1702 -80 0
-1704 1703 81 0
-1704 -1703 -81 0
1704 -1703 81 0
1704 1703 -81 0
-1705 1704 82 0
-1705 -1704 -82 0
1705 -1704 82 0
1705 1704 -82 0
-1706 1705 83 0
-1706 -1705 -83 0
1706 -1705 83 0
1706 1705 -83 0
-1707 1706 84 0
-1707 -1706 -84 0
1707 -1706 84 0
1707 1706 -84 0
-1708 1707 85 0
-1708 -1707 -85 0
1708 -1707 85 0
1708 1707 -85 0
-1709 1708 87 0
-1709 -1708 -87 0
1709 -1708 87 0
1709 1708 -87 0
-1710 1709 91 0
-1710 -1709 -91 0
1710 -1709 91 0
1710 1709 -91 0
-1711 1710 93 0
-1711 -1710 -93 0
1711 -1710 93 0
1711 1710 -93 0
-1712 1711 94 0
-1712 -1711 -94 0
1712 -1711 94 0
1712 1711 -94 0
-1713 1712 96 0
-1713 -1712 -96 0
1713 -1712 96 0
1713 1712 -96 0
-1714 1713 97 0
-1714 -1713 -97 0
1714 -1713 97 0
1714 1713 -97 0
-1715 1714 98 0
-1715 -1714 -98 0
1715 -1714 98 0
1715 1714 -98 0
-1716 1715 101 0
-1716 -1715 -101 0
1716 -1715 101 0
1716 1715 -101 0
-1717 1716 106 0
-1717 -1716 -106 0
1717 -1716 106 0
1717 1716 -106 0
-1718 1717 135 0
-1718 -1717 -135 0
1718 -1717 135 0
1718 1717 -135 0
-1719 1718 156 0
-1719 -1718 -156 0
1719 -1718 156 0
1719 1718 -156 0
-1720 1719 165 0
-1720 -1719 -165 0
1720 -1719 165 0
1720 1719 -165 0
-1721 1720 166 0
-1721 -1720 -166 0
1721 -1720 166 0
1721 1720 -166 0
-1722 1721 167 0
-1722 -1721 -167 0
1722 -1721 167 0
1722 1721 -167 0
-1723 1722 168 0
-1723 -1722 -168 0
1723 -1722 168 0
1723 1722 -168 0
-1724 1723 173 0
-1724 -1723 -173 0
1724 -1723 173 0
1724 1723 -173 0
-1725 1724 174 0
-1725 -1724 -174 0
1725 -1724 174 0
1725 1724 -174 0
-1726 1725 180 0
-1726 -1725 -180 0
1726 -1725 180 0
1726 1725 -180 0
-1727 1726 181 0
-1727 -1726 -181 0
1727 -1726 181 0
1727 1726 -181 0
-1728 1727 187 0
-1728 -1727 -187 0
1728 -1727 187 0
1728 1727 -187 0
-1729 1728 188 0
-1729 -1728 -188 0
1729 -1728 188 0
1729 1728 -188 0
-1730 1729 194 0
-1730 -1729 -194 0
1730 -1729 194 0
1730 1729 -194 0
-1731 1730 195 0
-1731 -1730 -195 0
1731 -1730 195 0
1731 1730 -195 0
-1732 1731 196 0
-1732 -1731 -196 0
1732 -1731 196 0
1732 1731 -196 0
-1733 1732 201 0
-1733 -1732 -201 0
1733 -1732 201 0
1733 1732 -201 0
-1734 1733 202 0
-1734 -1733 -202 0
1734 -1733 202 0
1734 1733 -202 0
-1735 1734 203 0
-1735 -1734 -203 0
1735 -1734 203 0
1735 1734 -203 0
-1736 1735 205 0
-1736 -1735 -205 0
1736 -1735 205 0
1736 1735 -205 0
-1737 1736 208 0
-1737 -1736 -208 0
1737 -1736 208 0
1737 1736 -208 0
-1738 1737 209 0
-1738 -1737 -209 0
1738 -1737 209 0
1738 1737 -209 0
-1739 1738 210 0
-1739 -1738 -210 0
1739 -1738 210 0
1739 1738 -210 0
-1740 1739 212 0
-1740 -1739 -212 0
1740 -1739 212 0
1740 1739 -212 0
-1741 1740 214 0
-1741 -1740 -214 0
1741 -1740 214 0
1741 1740 -214 0
-1742 1741 215 0
-1742 -1741 -215 0
1742 -1741 215 0
1742 1741 -215 0
-1743 1742 216 0
-1743 -1742 -216 0
1743 -1742 216 0
1743 1742 -216 0
-1743 0
-1744 58 67 0
-1744 -58 -67 0
1744 -58 67 0
1744 58 -67 0
-1745 1744 68 0
-1745 -1744 -68 0
1745 -1744 68 0
1745 1744 -68 0
-1746 1745 69 0
-1746 -1745 -69 0
1746 -1745 69 0
1746 1745 -69 0
-1747 1746 71 0
-1747 -1746 -71 0
1747 -1746 71 0
1747 1746 -71 0
-1748 1747 72 0
-1748 -1747 -72 0
1748 -1747 72 0
1748 1747 -72 0
-1749 1748 76 0
-1749 -1748 -76 0
1749 -1748 76 0
1749 1748 -76 0
-1750 1749 77 0
-1750 -1749 -77 0
1750 -1749 77 0
1750 1749 -77 0
-1751 1750 85 0
-1751 -1750 -85 0
1751 -1750 85 0
1751 1750 -85 0
-1752 1751 86 0
-1752 -1751 -86 0
1752 -1751 86 0
1752 1751 -86 0
-1753 1752 87 0
-1753 -1752 -87 0
1753 -1752 87 0
1753 1752 -87 0
-1754 1753 90 0
-1754 -1753 -90 0
1754 -1753 90 0
1754 1753 -90 0
-1755 1754 92 0
-1755 -1754 -92 0
1755 -1754 92 0
1755 1754 -92 0
-1756 1755 105 0
-1756 -1755 -105 0
1756 -1755 105 0
1756 1755 -105 0
-1757 1756 107 0
-1757 -1756 -107 0
1757 -1756 107 0
1757 1756 -107 0
-1758 1757 108 0
-1758 -1757 -108 0
1758 -1757 108 0
1758 1757 -108 0
-1759 1758 136 0
-1759 -1758 -136 0
1759 -1758 136 0
1759 1758 -136 0
-1760 1759 154 0
-1760 -1759 -154 0
1760 -1759 154 0
1760 1759 -154 0
-1761 1760 166 0
-1761 -1760 -166 0
1761 -1760 166 0
1761 1760 -166 0
-1762 1761 168 0
-1762 -1761 -168 0
1762 -1761 168 0
1762 1761 -168 0
-1763 1762 169 0
-1763 -1762 -169 0
1763 -1762 169 0
1763 1762 -169 0
-1764 1763 170 0
-1764 -1763 -170 0
1764 -1763 170 0
1764 1763 -170 0
-1765 1764 176 0
-1765 -1764 -176 0
1765 -1764 176 0
1765 1764 -176 0
-1766 1765 177 0
-1766 -1765 -177 0
1766 -1765 177 0
1766 1765 -177 0
-1767 1766 179 0
-1767 -1766 -179 0
1767 -1766 179 0
1767 1766 -179 0
-1768 1767 182 0
-1768 -1767 -182 0
1768 -1767 182 0
1768 1767 -182 0
-1769 1768 183 0
-1769 -1768 -183 0
1769 -1768 183 0
1769 1768 -183 0
-1770 1769 184 0
-1770 -1769 -184 0
1770 -1769 184 0
1770 1769 -184 0
-1771 1770 185 0
-1771 -1770 -185 0
1771 -1770 185 0
1771 1770 -185 0
-1772 1771 186 0
-1772 -1771 -186 0
1772 -1771 186 0
1772 1771 -186 0
-1773 1772 187 0
-1773 -1772 -187 0
1773 -1772 187 0
1773 1772 -187 0
-1774 1773 188 0
-1774 -1773 -188 0
1774 -1773 188 0
1774 1773 -188 0
-1775 1774 189 0
-1775 -1774 -189 0
1775 -1774 189 0
1775 1774 -189 0
-1776 1775 190 0
-1776 -1775 -190 0
1776 -1775 190 0
1776 1775 -190 0
-1777 1776 191 0
-1777 -1776 -191 0
1777 -1776 191 0
1777 1776 -191 0
-1778 1777 192 0
-1778 -1777 -192 0
1778 -1777 192 0
1778 1777 -192 0
-1779 1778 193 0
-1779 -1778 -193 0
1779 -1778 193 0
1779 1778 -193 0
-1780 1779 194 0
-1780 -1779 -194 0
1780 -1779 194 0
1780 1779 -194 0
-1781 1780 195 0
-1781 -1780 -195 0
1781 -1780 195 0
1781 1780 -195 0
-1782 1781 196 0
-1782 -1781 -196 0
1782 -1781 196 0
1782 1781 -196 0
-1783 1782 198 0
-1783 -1782 -198 0
1783 -1782 198 0
1783 1782 -198 0
-1784 1783 199 0
-1784 -1783 -199 0
1784 -1783 199 0
1784 1783 -199 0
-1785 1784 201 0
-1785 -1784 -201 0
1785 -1784 201 0
1785 1784 -201 0
-1786 1785 202 0
-1786 -1785 -202 0
1786 -1785 202 0
1786 1785 -202 0
-1787 1786 206 0
-1787 -1786 -206 0
1787 -1786 206 0
1787 1786 -206 0
-1788 1787 208 0
-1788 -1787 -208 0
1788 -1787 208 0
1788 1787 -208 0
-1789 1788 213 0
-1789 -1788 -213 0
1789 -1788 213 0
1789 1788 -213 0
-1790 1789 215 0
-1790 -1789 -215 0
1790 -1789 215 0
1790 1789 -215 0
-1790 0
-1791 59 62 0
-1791 -59 -62 0
1791 -59 62 0
1791 59 -62 0
-1792 1791 63 0
-1792 -1791 -63 0
1792 -1791 63 0
1792 1791 -63 0
-1793 1792 65 0
-1793 -1792 -65 0
1793 -1792 65 0
1793 1792 -65 0
-1794 1793 66 0
-1794 -1793 -66 0
1794 -1793 66 0
1794 1793 -66 0
-1795 1794 69 0
-1795 -1794 -69 0
1795 -1794 69 0
1795 1794 -69 0
-1796 1795 71 0
-1796 -1795 -71 0
1796 -1795 71 0
1796 1795 -71 0
-1797 1796 72 0
-1797 -1796 -72 0
1797 -1796 72 0
1797 1796 -72 0
-1798 1797 77 0
-1798 -1797 -77 0
1798 -1797 77 0
1798 1797 -77 0
-1799 1798 78 0
-1799 -1798 -78 0
1799 -1798 78 0
1799 1798 -78 0
-1800 1799 80 0
-1800 -1799 -80 0
1800 -1799 80 0
1800 1799 -80 0
-1801 1800 81 0
-1801 -1800 -81 0
1801 -1800 81 0
1801 1800 -81 0
-1802 1801 83 0
-1802 -1801 -83 0
1802 -1801 83 0
1802 1801 -83 0
-1803 1802 84 0
-1803 -1802 -84 0
1803 -1802 84 0
1803 1802 -84 0
-1804 1803 87 0
-1804 -1803 -87 0
1804 -1803 87 0
1804 1803 -87 0
-1805 1804 89 0
-1805 -1804 -89 0
1805 -1804 89 0
1805 1804 -89 0
-1806 1805 93 0
-1806 -1805 -93 0
1806 -1805 93 0
1806 1805 -93 0
-1807 1806 98 0
-1807 -1806 -98 0
1807 -1806 98 0
1807 1806 -98 0
-1808 1807 99 0
-1808 -1807 -99 0
1808 -1807 99 0
1808 1807 -99 0
-1809 1808 101 0
-1809 -1808 -101 0
1809 -1808 101 0
1809 1808 -101 0
-1810 1809 102 0
-1810 -1809 -102 0
1810 -1809 102 0
1810 1809 -102 0
-1811 1810 104 0
-1811 -1810 -104 0
1811 -1810 104 0
1811 1810 -104 0
-1812 1811 107 0
-1812 -1811 -107 0
1812 -1811 107 0
1812 1811 -107 0
-1813 1812 108 0
-1813 -1812 -108 0
1813 -1812 108 0
1813 1812 -108 0
-1814 1813 137 0
-1814 -1813 -137 0
1814 -1813 137 0
1814 1813 -137 0
-1815 1814 155 0
-1815 -1814 -155 0
1815 -1814 155 0
1815 1814 -155 0
-1816 1815 165 0
-1816 -1815 -165 0
1816 -1815 165 0
1816 1815 -165 0
-1817 1816 166 0
-1817 -1816 -166 0
1817 -1816 166 0
1817 1816 -166 0
-1818 1817 167 0
-1818 -1817 -167 0
1818 -1817 167 0
1818 1817 -167 0
-1819 1818 168 0
-1819 -1818 -168 0
1819 -1818 168 0
1819 1818 -168 0
-1820 1819 169 0
-1820 -1819 -169 0
1820 -1819 169 0
1820 1819 -169 0
-1821 1820 171 0
-1821 -1820 -171 0
1821 -1820 171 0
1821 1820 -171 0
-1822 1821 172 0
-1822 -1821 -172 0
1822 -1821 172 0
1822 1821 -172 0
-1823 1822 173 0
-1823 -1822 -173 0
1823 -1822 173 0
1823 1822 -173 0
-1824 1823 176 0
-1824 -1823 -176 0
1824 -1823 176 0
1824 1823 -176 0
-1825 1824 178 0
-1825 -1824 -178 0
1825 -1824 178 0
1825 1824 -178 0
-1826 1825 179 0
-1826 -1825 -179 0
1826 -1825 179 0
1826 1825 -179 0
-1827 1826 185 0
-1827 -1826 -185 0
1827 -1826 185 0
1827 1826 -185 0
-1828 1827 189 0
-1828 -1827 -189 0
1828 -1827 189 0
1828 1827 -189 0
-1829 1828 192 0
-1829 -1828 -192 0
1829 -1828 192 0
1829 1828 -192 0
-1830 1829 193 0
-1830 -1829 -193 0
1830 -1829 193 0
1830 1829 -193 0
-1831 1830 196 0
-1831 -1830 -196 0
1831 -1830 196 0
1831 1830 -196 0
-1832 1831 198 0
-1832 -1831 -198 0
1832 -1831 198 0
1832 1831 -198 0
-1833 1832 199 0
-1833 -1832 -199 0
1833 -1832 199 0
1833 1832 -199 0
-1834 1833 200 0
-1834 -1833 -200 0
1834 -1833 200 0
1834 1833 -200 0
-1835 1834 201 0
-1835 -1834 -201 0
1835 -1834 201 0
1835 1834 -201 0
-1836 1835 203 0
-1836 -1835 -203 0
1836 -1835 203 0
1836 1835 -203 0
-1837 1836 204 0
-1837 -1836 -204 0
1837 -1836 204 0
1837 1836 -204 0
-1838 1837 205 0
-1838 -1837 -205 0
1838 -1837 205 0
1838 1837 -205 0
-1839 1838 206 0
-1839 -1838 -206 0
1839 -1838 206 0
1839 1838 -206 0
-1840 1839 207 0
-1840 -1839 -207 0
1840 -1839 207 0
1840 1839 -207 0
-1841 1840 208 0
-1841 -1840 -208 0
1841 -1840 208 0
1841 1840 -208 0
-1842 1841 212 0
-1842 -1841 -212 0
1842 -1841 212 0
1842 1841 -212 0
-1843 1842 213 0
-1843 -1842 -213 0
1843 -1842 213 0
1843 1842 -213 0
-1844 1843 214 0
-1844 -1843 -214 0
1844 -1843 214 0
1844 1843 -214 0
-1845 1844 215 0
-1845 -1844 -215 0
1845 -1844 215 0
1845 1844 -215 0
-1845 0
-1846 60 63 0
-1846 -60 -63 0
1846 -60 63 0
1846 60 -63 0
-1847 1846 66 0
-1847 -1846 -66 0
1847 -1846 66 0
1847 1846 -66 0
-1848 1847 67 0
-1848 -1847 -67 0
1848 -1847 67 0
1848 1847 -67 0
-1849 1848 69 0
-1849 -1848 -69 0
1849 -1848 69 0
1849 1848 -69 0
-1850 1849 70 0
-1850 -1849 -70 0
1850 -1849 70 0
1850 1849 -70 0
-1851 1850 73 0
-1851 -1850 -73 0
1851 -1850 73 0
1851 1850 -73 0
-1852 1851 78 0
-1852 -1851 -78 0
1852 -1851 78 0
1852 1851 -78 0
-1853 1852 81 0
-1853 -1852 -81 0
1853 -1852 81 0
1853 1852 -81 0
-1854 1853 84 0
-1854 -1853 -84 0
1854 -1853 84 0
1854 1853 -84 0
-1855 1854 87 0
-1855 -1854 -87 0
1855 -1854 87 0
1855 1854 -87 0
-1856 1855 88 0
-1856 -1855 -88 0
1856 -1855 88 0
1856 1855 -88 0
-1857 1856 94 0
-1857 -1856 -94 0
1857 -1856 94 0
1857 1856 -94 0
-1858 1857 99 0
-1858 -1857 -99 0
1858 -1857 99 0
1858 1857 -99 0
-1859 1858 102 0
-1859 -1858 -102 0
1859 -1858 102 0
1859 1858 -102 0
-1860 1859 103 0
-1860 -1859 -103 0
1860 -1859 103 0
1860 1859 -103 0
-1861 1860 138 0
-1861 -1860 -138 0
1861 -1860 138 0
1861 1860 -138 0
-1862 1861 156 0
-1862 -1861 -156 0
1862 -1861 156 0
1862 1861 -156 0
-1863 1862 165 0
-1863 -1862 -165 0
1863 -1862 165 0
1863 1862 -165 0
-1864 1863 167 0
-1864 -1863 -167 0
1864 -1863 167 0
1864 1863 -167 0
-1865 1864 169 0
-1865 -1864 -169 0
1865 -1864 169 0
1865 1864 -169 0
-1866 1865 174 0
-1866 -1865 -174 0
1866 -1865 174 0
1866 1865 -174 0
-1867 1866 176 0
-1867 -1866 -176 0
1867 -1866 176 0
1867 1866 -176 0
-1868 1867 181 0
-1868 -1867 -181 0
1868 -1867 181 0
1868 1867 -181 0
-1869 1868 183 0
-1869 -1868 -183 0
1869 -1868 183 0
1869 1868 -183 0
-1870 1869 184 0
-1870 -1869 -184 0
1870 -1869 184 0
1870 1869 -184 0
-1871 1870 188 0
-1871 -1870 -188 0
1871 -1870 188 0
1871 1870 -188 0
-1872 1871 191 0
-1872 -1871 -191 0
1872 -1871 191 0
1872 1871 -191 0
-1873 1872 193 0
-1873 -1872 -193 0
1873 -1872 193 0
1873 1872 -193 0
-1874 1873 195 0
-1874 -1873 -195 0
1874 -1873 195 0
1874 1873 -195 0
-1875 1874 198 0
-1875 -1874 -198 0
1875 -1874 198 0
1875 1874 -198 0
-1876 1875 200 0
-1876 -1875 -200 0
1876 -1875 200 0
1876 1875 -200 0
-1877 1876 205 0
-1877 -1876 -205 0
1877 -1876 205 0
1877 1876 -205 0
-1878 1877 207 0
-1878 -1877 -207 0
1878 -1877 207 0
1878 1877 -207 0
-1879 1878 212 0
-1879 -1878 -212 0
1879 -1878 212 0
1879 1878 -212 0
-1880 1879 214 0
-1880 -1879 -214 0
1880 -1879 214 0
1880 1879 -214 0
-1880 0
-1881 46 52 0
-1881 -46 -52 0
1881 -46 52 0
1881 46 -52 0
-1882 1881 64 0
-1882 -1881 -64 0
1882 -1881 64 0
1882 1881 -64 0
-1883 1882 65 0
-1883 -1882 -65 0
1883 -1882 65 0
1883 1882 -65 0
-1884 1883 67 0
-1884 -1883 -67 0
1884 -1883 67 0
1884 1883 -67 0
-1885 1884 68 0
-1885 -1884 -68 0
1885 -1884 68 0
1885 1884 -68 0
-1886 1885 69 0
-1886 -1885 -69 0
1886 -1885 69 0
1886 1885 -69 0
-1887 1886 70 0
-1887 -1886 -70 0
1887 -1886 70 0
1887 1886 -70 0
-1888 1887 72 0
-1888 -1887 -72 0
1888 -1887 72 0
1888 1887 -72 0
-1889 1888 73 0
-1889 -1888 -73 0
1889 -1888 73 0
1889 1888 -73 0
-1890 1889 76 0
-1890 -1889 -76 0
1890 -1889 76 0
1890 1889 -76 0
-1891 1890 83 0
-1891 -1890 -83 0
1891 -1890 83 0
1891 1890 -83 0
-1892 1891 87 0
-1892 -1891 -87 0
1892 -1891 87 0
1892 1891 -87 0
-1893 1892 88 0
-1893 -1892 -88 0
1893 -1892 88 0
1893 1892 -88 0
-1894 1893 90 0
-1894 -1893 -90 0
1894 -1893 90 0
1894 1893 -90 0
-1895 1894 91 0
-1895 -1894 -91 0
1895 -1894 91 0
1895 1894 -91 0
-1896 1895 94 0
-1896 -1895 -94 0
1896 -1895 94 0
1896 1895 -94 0
-1897 1896 98 0
-1897 -1896 -98 0
1897 -1896 98 0
1897 1896 -98 0
-1898 1897 100 0
-1898 -1897 -100 0
1898 -1897 100 0
1898 1897 -100 0
-1899 1898 105 0
-1899 -1898 -105 0
1899 -1898 105 0
1899 1898 -105 0
-1900 1899 106 0
-1900 -1899 -106 0
1900 -1899 106 0
1900 1899 -106 0
-1901 1900 108 0
-1901 -1900 -108 0
1901 -1900 108 0
1901 1900 -108 0
-1902 1901 139 0
-1902 -1901 -139 0
1902 -1901 139 0
1902 1901 -139 0
-1903 1902 160 0
-1903 -1902 -160 0
1903 -1902 160 0
1903 1902 -160 0
-1904 1903 166 0
-1904 -1903 -166 0
1904 -1903 166 0
1904 1903 -166 0
-1905 1904 167 0
-1905 -1904 -167 0
1905 -1904 167 0
1905 1904 -167 0
-1906 1905 170 0
-1906 -1905 -170 0
1906 -1905 170 0
1906 1905 -170 0
-1907 1906 174 0
-1907 -1906 -174 0
1907 -1906 174 0
1907 1906 -174 0
-1908 1907 175 0
-1908 -1907 -175 0
1908 -1907 175 0
1908 1907 -175 0
-1909 1908 176 0
-1909 -1908 -176 0
1909 -1908 176 0
1909 1908 -176 0
-1910 1909 177 0
-1910 -1909 -177 0
1910 -1909 177 0
1910 1909 -177 0
-1911 1910 179 0
-1911 -1910 -179 0
1911 -1910 179 0
1911 1910 -179 0
-1912 1911 182 0
-1912 -1911 -182 0
1912 -1911 182 0
1912 1911 -182 0
-1913 1912 183 0
-1913 -1912 -183 0
1913 -1912 183 0
1913 1912 -183 0
-1914 1913 184 0
-1914 -1913 -184 0
1914 -1913 184 0
1914 1913 -184 0
-1915 1914 185 0
-1915 -1914 -185 0
1915 -1914 185 0
1915 1914 -185 0
-1916 1915 186 0
-1916 -1915 -186 0
1916 -1915 186 0
1916 1915 -186 0
-1917 1916 187 0
-1917 -1916 -187 0
1917 -1916 187 0
1917 1916 -187 0
-1918 1917 189 0
-1918 -1917 -189 0
1918 -1917 189 0
1918 1917 -189 0
-1919 1918 190 0
-1919 -1918 -190 0
1919 -1918 190 0
1919 1918 -190 0
-1920 1919 191 0
-1920 -1919 -191 0
1920 -1919 191 0
1920 1919 -191 0
-1921 1920 192 0
-1921 -1920 -192 0
1921 -1920 192 0
1921 1920 -192 0
-1922 1921 193 0
-1922 -1921 -193 0
1922 -1921 193 0
1922 1921 -193 0
-1923 1922 194 0
-1923 -1922 -194 0
1923 -1922 194 0
1923 1922 -194 0
-1924 1923 196 0
-1924 -1923 -196 0
1924 -1923 196 0
1924 1923 -196 0
-1925 1924 198 0
-1925 -1924 -198 0
1925 -1924 198 0
1925 1924 -198 0
-1926 1925 199 0
-1926 -1925 -199 0
1926 -1925 199 0
1926 1925 -199 0
-1927 1926 201 0
-1927 -1926 -201 0
1927 -1926 201 0
1927 1926 -201 0
-1928 1927 203 0
-1928 -1927 -203 0
1928 -1927 203 0
1928 1927 -203 0
-1929 1928 206 0
-1929 -1928 -206 0
1929 -1928 206 0
1929 1928 -206 0
-1930 1929 208 0
-1930 -1929 -208 0
1930 -1929 208 0
1930 1929 -208 0
-1931 1930 210 0
-1931 -1930 -210 0
1931 -1930 210 0
1931 1930 -210 0
-1932 1931 211 0
-1932 -1931 -211 0
1932 -1931 211 0
1932 1931 -211 0
-1933 1932 213 0
-1933 -1932 -213 0
1933 -1932 213 0
1933 1932 -213 0
-1933 0
-1934 47 53 0
-1934 -47 -53 0
1934 -47 53 0
1934 47 -53 0
-1935 1934 65 0
-1935 -1934 -65 0
1935 -1934 65 0
1935 1934 -65 0
-1936 1935 66 0
-1936 -1935 -66 0
1936 -1935 66 0
1936 1935 -66 0
-1937 1936 67 0
-1937 -1936 -67 0
1937 -1936 67 0
1937 1936 -67 0
-1938 1937 68 0
-1938 -1937 -68 0
1938 -1937 68 0
1938 1937 -68 0
-1939 1938 69 0
-1939 -1938 -69 0
1939 -1938 69 0
1939 1938 -69 0
-1940 1939 70 0
-1940 -1939 -70 0
1940 -1939 70 0
1940 1939 -70 0
-1941 1940 71 0
-1941 -1940 -71 0
1941 -1940 71 0
1941 1940 -71 0
-1942 1941 74 0
-1942 -1941 -74 0
1942 -1941 74 0
1942 1941 -74 0
-1943 1942 77 0
-1943 -1942 -77 0
1943 -1942 77 0
1943 1942 -77 0
-1944 1943 84 0
-1944 -1943 -84 0
1944 -1943 84 0
1944 1943 -84 0
-1945 1944 85 0
-1945 -1944 -85 0
1945 -1944 85 0
1945 1944 -85 0
-1946 1945 88 0
-1946 -1945 -88 0
1946 -1945 88 0
1946 1945 -88 0
-1947 1946 89 0
-1947 -1946 -89 0
1947 -1946 89 0
1947 1946 -89 0
-1948 1947 92 0
-1948 -1947 -92 0
1948 -1947 92 0
1948 1947 -92 0
-1949 1948 95 0
-1949 -1948 -95 0
1949 -1948 95 0
1949 1948 -95 0
-1950 1949 99 0
-1950 -1949 -99 0
1950 -1949 99 0
1950 1949 -99 0
-1951 1950 101 0
-1951 -1950 -101 0
1951 -1950 101 0
1951 1950 -101 0
-1952 1951 103 0
-1952 -1951 -103 0
1952 -1951 103 0
1952 1951 -103 0
-1953 1952 106 0
-1953 -1952 -106 0
1953 -1952 106 0
1953 1952 -106 0
-1954 1953 107 0
-1954 -1953 -107 0
1954 -1953 107 0
1954 1953 -107 0
-1955 1954 140 0
-1955 -1954 -140 0
1955 -1954 140 0
1955 1954 -140 0
-1956 1955 161 0
-1956 -1955 -161 0
1956 -1955 161 0
1956 1955 -161 0
-1957 1956 167 0
-1957 -1956 -167 0
1957 -1956 167 0
1957 1956 -167 0
-1958 1957 168 0
-1958 -1957 -168 0
1958 -1957 168 0
1958 1957 -168 0
-1959 1958 169 0
-1959 -1958 -169 0
1959 -1958 169 0
1959 1958 -169 0
-1960 1959 171 0
-1960 -1959 -171 0
1960 -1959 171 0
1960 1959 -171 0
-1961 1960 176 0
-1961 -1960 -176 0
1961 -1960 176 0
1961 1960 -176 0
-1962 1961 177 0
-1962 -1961 -177 0
1962 -1961 177 0
1962 1961 -177 0
-1963 1962 178 0
-1963 -1962 -178 0
1963 -1962 178 0
1963 1962 -178 0
-1964 1963 180 0
-1964 -1963 -180 0
1964 -1963 180 0
1964 1963 -180 0
-1965 1964 181 0
-1965 -1964 -181 0
1965 -1964 181 0
1965 1964 -181 0
-1966 1965 183 0
-1966 -1965 -183 0
1966 -1965 183 0
1966 1965 -183 0
-1967 1966 184 0
-1967 -1966 -184 0
1967 -1966 184 0
1967 1966 -184 0
-1968 1967 185 0
-1968 -1967 -185 0
1968 -1967 185 0
1968 1967 -185 0
-1969 1968 186 0
-1969 -1968 -186 0
1969 -1968 186 0
1969 1968 -186 0
-1970 1969 187 0
-1970 -1969 -187 0
1970 -1969 187 0
1970 1969 -187 0
-1971 1970 188 0
-1971 -1970 -188 0
1971 -1970 188 0
1971 1970 -188 0
-1972 1971 190 0
-1972 -1971 -190 0
1972 -1971 190 0
1972 1971 -190 0
-1973 1972 191 0
-1973 -1972 -191 0
1973 -1972 191 0
1973 1972 -191 0
-1974 1973 192 0
-1974 -1973 -192 0
1974 -1973 192 0
1974 1973 -192 0
-1975 1974 193 0
-1975 -1974 -193 0
1975 -1974 193 0
1975 1974 -193 0
-1976 1975 194 0
-1976 -1975 -194 0
1976 -1975 194 0
1976 1975 -194 0
-1977 1976 195 0
-1977 -1976 -195 0
1977 -1976 195 0
1977 1976 -195 0
-1978 1977 197 0
-1978 -1977 -197 0
1978 -1977 197 0
1978 1977 -197 0
-1979 1978 200 0
-1979 -1978 -200 0
1979 -1978 200 0
1979 1978 -200 0
-1980 1979 202 0
-1980 -1979 -202 0
1980 -1979 202 0
1980 1979 -202 0
-1981 1980 204 0
-1981 -1980 -204 0
1981 -1980 204 0
1981 1980 -204 0
-1982 1981 205 0
-1982 -1981 -205 0
1982 -1981 205 0
1982 1981 -205 0
-1983 1982 207 0
-1983 -1982 -207 0
1983 -1982 207 0
1983 1982 -207 0
-1984 1983 209 0
-1984 -1983 -209 0
1984 -1983 209 0
1984 1983 -209 0
-1985 1984 212 0
-1985 -1984 -212 0
1985 -1984 212 0
1985 1984 -212 0
-1986 1985 214 0
-1986 -1985 -214 0
1986 -1985 214 0
1986 1985 -214 0
-1986 0
-1987 48 54 0
-1987 -48 -54 0
1987 -48 54 0
1987 48 -54 0
-1988 1987 64 0
-1988 -1987 -64 0
1988 -1987 64 0
1988 1987 -64 0
-1989 1988 66 0
-1989 -1988 -66 0
1989 -1988 66 0
1989 1988 -66 0
-1990 1989 68 0
-1990 -1989 -68 0
1990 -1989 68 0
1990 1989 -68 0
-1991 1990 70 0
-1991 -1990 -70 0
1991 -1990 70 0
1991 1990 -70 0
-1992 1991 71 0
-1992 -1991 -71 0
1992 -1991 71 0
1992 1991 -71 0
-1993 1992 75 0
-1993 -1992 -75 0
1993 -1992 75 0
1993 1992 -75 0
-1994 1993 78 0
-1994 -1993 -78 0
1994 -1993 78 0
1994 1993 -78 0
-1995 1994 82 0
-1995 -1994 -82 0
1995 -1994 82 0
1995 1994 -82 0
-1996 1995 86 0
-1996 -1995 -86 0
1996 -1995 86 0
1996 1995 -86 0
-1997 1996 87 0
-1997 -1996 -87 0
1997 -1996 87 0
1997 1996 -87 0
-1998 1997 89 0
-1998 -1997 -89 0
1998 -1997 89 0
1998 1997 -89 0
-1999 1998 93 0
-1999 -1998 -93 0
1999 -1998 93 0
1999 1998 -93 0
-2000 1999 96 0
-2000 -1999 -96 0
2000 -1999 96 0
2000 1999 -96 0
-2001 2000 97 0
-2001 -2000 -97 0
2001 -2000 97 0
2001 2000 -97 0
-2002 2001 102 0
-2002 -2001 -102 0
2002 -2001 102 0
2002 2001 -102 0
-2003 2002 104 0
-2003 -2002 -104 0
2003 -2002 104 0
2003 2002 -104 0
-2004 2003 105 0
-2004 -2003 -105 0
2004 -2003 105 0
2004 2003 -105 0
-2005 2004 107 0
-2005 -2004 -107 0
2005 -2004 107 0
2005 2004 -107 0
-2006 2005 141 0
-2006 -2005 -141 0
2006 -2005 141 0
2006 2005 -141 0
-2007 2006 162 0
-2007 -2006 -162 0
2007 -2006 162 0
2007 2006 -162 0
-2008 2007 165 0
-2008 -2007 -165 0
2008 -2007 165 0
2008 2007 -165 0
-2009 2008 166 0
-2009 -2008 -166 0
2009 -2008 166 0
2009 2008 -166 0
-2010 2009 169 0
-2010 -2009 -169 0
2010 -2009 169 0
2010 2009 -169 0
-2011 2010 173 0
-2011 -2010 -173 0
2011 -2010 173 0
2011 2010 -173 0
-2012 2011 175 0
-2012 -2011 -175 0
2012 -2011 175 0
2012 2011 -175 0
-2013 2012 176 0
-2013 -2012 -176 0
2013 -2012 176 0
2013 2012 -176 0
-2014 2013 178 0
-2014 -2013 -178 0
2014 -2013 178 0
2014 2013 -178 0
-2015 2014 180 0
-2015 -2014 -180 0
2015 -2014 180 0
2015 2014 -180 0
-2016 2015 182 0
-2016 -2015 -182 0
2016 -2015 182 0
2016 2015 -182 0
-2017 2016 183 0
-2017 -2016 -183 0
2017 -2016 183 0
2017 2016 -183 0
-2018 2017 185 0
-2018 -2017 -185 0
2018 -2017 185 0
2018 2017 -185 0
-2019 2018 189 0
-2019 -2018 -189 0
2019 -2018 189 0
2019 2018 -189 0
-2020 2019 190 0
-2020 -2019 -190 0
2020 -2019 190 0
2020 2019 -190 0
-2021 2020 192 0
-2021 -2020 -192 0
2021 -2020 192 0
2021 2020 -192 0
-2022 2021 196 0
-2022 -2021 -196 0
2022 -2021 196 0
2022 2021 -196 0
-2023 2022 197 0
-2023 -2022 -197 0
2023 -2022 197 0
2023 2022 -197 0
-2024 2023 202 0
-2024 -2023 -202 0
2024 -2023 202 0
2024 2023 -202 0
-2025 2024 203 0
-2025 -2024 -203 0
2025 -2024 203 0
2025 2024 -203 0
-2026 2025 204 0
-2026 -2025 -204 0
2026 -2025 204 0
2026 2025 -204 0
-2027 2026 205 0
-2027 -2026 -205 0
2027 -2026 205 0
2027 2026 -205 0
-2028 2027 209 0
-2028 -2027 -209 0
2028 -2027 209 0
2028 2027 -209 0
-2029 2028 210 0
-2029 -2028 -210 0
2029 -2028 210 0
2029 2028 -210 0
-2030 2029 212 0
-2030 -2029 -212 0
2030 -2029 212 0
2030 2029 -212 0
-2031 2030 216 0
-2031 -2030 -216 0
2031 -2030 216 0
2031 2030 -216 0
-2031 0
-2032 59 63 0
-2032 -59 -63 0
2032 -59 63 0
2032 59 -63 0
-2033 2032 64 0
-2033 -2032 -64 0
2033 -2032 64 0
2033 2032 -64 0
-2034 2033 66 0
-2034 -2033 -66 0
2034 -2033 66 0
2034 2033 -66 0
-2035 2034 67 0
-2035 -2034 -67 0
2035 -2034 67 0
2035 2034 -67 0
-2036 2035 68 0
-2036 -2035 -68 0
2036 -2035 68 0
2036 2035 -68 0
-2037 2036 70 0
-2037 -2036 -70 0
2037 -2036 70 0
2037 2036 -70 0
-2038 2037 71 0
-2038 -2037 -71 0
2038 -2037 71 0
2038 2037 -71 0
-2039 2038 73 0
-2039 -2038 -73 0
2039 -2038 73 0
2039 2038 -73 0
-2040 2039 74 0
-2040 -2039 -74 0
2040 -2039 74 0
2040 2039 -74 0
-2041 2040 77 0
-2041 -2040 -77 0
2041 -2040 77 0
2041 2040 -77 0
-2042 2041 81 0
-2042 -2041 -81 0
2042 -2041 81 0
2042 2041 -81 0
-2043 2042 82 0
-2043 -2042 -82 0
2043 -2042 82 0
2043 2042 -82 0
-2044 2043 83 0
-2044 -2043 -83 0
2044 -2043 83 0
2044 2043 -83 0
-2045 2044 84 0
-2045 -2044 -84 0
2045 -2044 84 0
2045 2044 -84 0
-2046 2045 85 0
-2046 -2045 -85 0
2046 -2045 85 0
2046 2045 -85 0
-2047 2046 86 0
-2047 -2046 -86 0
2047 -2046 86 0
2047 2046 -86 0
-2048 2047 88 0
-2048 -2047 -88 0
2048 -2047 88 0
2048 2047 -88 0
-2049 2048 89 0
-2049 -2048 -89 0
2049 -2048 89 0
2049 2048 -89 0
-2050 2049 91 0
-2050 -2049 -91 0
2050 -2049 91 0
2050 2049 -91 0
-2051 2050 92 0
-2051 -2050 -92 0
2051 -2050 92 0
2051 2050 -92 0
-2052 2051 98 0
-2052 -2051 -98 0
2052 -2051 98 0
2052 2051 -98 0
-2053 2052 99 0
-2053 -2052 -99 0
2053 -2052 99 0
2053 2052 -99 0
-2054 2053 102 0
-2054 -2053 -102 0
2054 -2053 102 0
2054 2053 -102 0
-2055 2054 103 0
-2055 -2054 -103 0
2055 -2054 103 0
2055 2054 -103 0
-2056 2055 104 0
-2056 -2055 -104 0
2056 -2055 104 0
2056 2055 -104 0
-2057 2056 106 0
-2057 -2056 -106 0
2057 -2056 106 0
2057 2056 -106 0
-2058 2057 107 0
-2058 -2057 -107 0
2058 -2057 107 0
2058 2057 -107 0
-2059 2058 142 0
-2059 -2058 -142 0
2059 -2058 142 0
2059 2058 -142 0
-2060 2059 160 0
-2060 -2059 -160 0
2060 -2059 160 0
2060 2059 -160 0
-2061 2060 165 0
-2061 -2060 -165 0
2061 -2060 165 0
2061 2060 -165 0
-2062 2061 167 0
-2062 -2061 -167 0
2062 -2061 167 0
2062 2061 -167 0
-2063 2062 172 0
-2063 -2062 -172 0
2063 -2062 172 0
2063 2062 -172 0
-2064 2063 174 0
-2064 -2063 -174 0
2064 -2063 174 0
2064 2063 -174 0
-2065 2064 175 0
-2065 -2064 -175 0
2065 -2064 175 0
2065 2064 -175 0
-2066 2065 176 0
-2066 -2065 -176 0
2066 -2065 176 0
2066 2065 -176 0
-2067 2066 182 0
-2067 -2066 -182 0
2067 -2066 182 0
2067 2066 -182 0
-2068 2067 183 0
-2068 -2067 -183 0
2068 -2067 183 0
2068 2067 -183 0
-2069 2068 185 0
-2069 -2068 -185 0
2069 -2068 185 0
2069 2068 -185 0
-2070 2069 188 0
-2070 -2069 -188 0
2070 -2069 188 0
2070 2069 -188 0
-2071 2070 189 0
-2071 -2070 -189 0
2071 -2070 189 0
2071 2070 -189 0
-2072 2071 190 0
-2072 -2071 -190 0
2072 -2071 190 0
2072 2071 -190 0
-2073 2072 191 0
-2073 -2072 -191 0
2073 -2072 191 0
2073 2072 -191 0
-2074 2073 192 0
-2074 -2073 -192 0
2074 -2073 192 0
2074 2073 -192 0
-2075 2074 193 0
-2075 -2074 -193 0
2075 -2074 193 0
2075 2074 -193 0
-2076 2075 194 0
-2076 -2075 -194 0
2076 -2075 194 0
2076 2075 -194 0
-2077 2076 195 0
-2077 -2076 -195 0
2077 -2076 195 0
2077 2076 -195 0
-2078 2077 196 0
-2078 -2077 -196 0
2078 -2077 196 0
2078 2077 -196 0
-2079 2078 197 0
-2079 -2078 -197 0
2079 -2078 197 0
2079 2078 -197 0
-2080 2079 198 0
-2080 -2079 -198 0
2080 -2079 198 0
2080 2079 -198 0
-2081 2080 199 0
-2081 -2080 -199 0
2081 -2080 199 0
2081 2080 -199 0
-2082 2081 200 0
-2082 -2081 -200 0
2082 -2081 200 0
2082 2081 -200 0
-2083 2082 201 0
-2083 -2082 -201 0
2083 -2082 201 0
2083 2082 -201 0
-2084 2083 202 0
-2084 -2083 -202 0
2084 -2083 202 0
2084 2083 -202 0
-2085 2084 204 0
-2085 -2084 -204 0
2085 -2084 204 0
2085 2084 -204 0
-2086 2085 205 0
-2086 -2085 -205 0
2086 -2085 205 0
2086 2085 -205 0
-2087 2086 207 0
-2087 -2086 -207 0
2087 -2086 207 0
2087 2086 -207 0
-2088 2087 208 0
-2088 -2087 -208 0
2088 -2087 208 0
2088 2087 -208 0
-2089 2088 212 0
-2089 -2088 -212 0
2089 -2088 212 0
2089 2088 -212 0
-2090 2089 214 0
-2090 -2089 -214 0
2090 -2089 214 0
2090 2089 -214 0
-2090 0
-2091 60 62 0
-2091 -60 -62 0
2091 -60 62 0
2091 60 -62 0
-2092 2091 63 0
-2092 -2091 -63 0
2092 -2091 63 0
2092 2091 -63 0
-2093 2092 66 0
-2093 -2092 -66 0
2093 -2092 66 0
2093 2092 -66 0
-2094 2093 67 0
-2094 -2093 -67 0
2094 -2093 67 0
2094 2093 -67 0
-2095 2094 70 0
-2095 -2094 -70 0
2095 -2094 70 0
2095 2094 -70 0
-2096 2095 74 0
-2096 -2095 -74 0
2096 -2095 74 0
2096 2095 -74 0
-2097 2096 75 0
-2097 -2096 -75 0
2097 -2096 75 0
2097 2096 -75 0
-2098 2097 78 0
-2098 -2097 -78 0
2098 -2097 78 0
2098 2097 -78 0
-2099 2098 80 0
-2099 -2098 -80 0
2099 -2098 80 0
2099 2098 -80 0
-2100 2099 81 0
-2100 -2099 -81 0
2100 -2099 81 0
2100 2099 -81 0
-2101 2100 85 0
-2101 -2100 -85 0
2101 -2100 85 0
2101 2100 -85 0
-2102 2101 88 0
-2102 -2101 -88 0
2102 -2101 88 0
2102 2101 -88 0
-2103 2102 92 0
-2103 -2102 -92 0
2103 -2102 92 0
2103 2102 -92 0
-2104 2103 93 0
-2104 -2103 -93 0
2104 -2103 93 0
2104 2103 -93 0
-2105 2104 98 0
-2105 -2104 -98 0
2105 -2104 98 0
2105 2104 -98 0
-2106 2105 101 0
-2106 -2105 -101 0
2106 -2105 101 0
2106 2105 -101 0
-2107 2106 102 0
-2107 -2106 -102 0
2107 -2106 102 0
2107 2106 -102 0
-2108 2107 103 0
-2108 -2107 -103 0
2108 -2107 103 0
2108 2107 -103 0
-2109 2108 106 0
-2109 -2108 -106 0
2109 -2108 106 0
2109 2108 -106 0
-2110 2109 143 0
-2110 -2109 -143 0
2110 -2109 143 0
2110 2109 -143 0
-2111 2110 161 0
-2111 -2110 -161 0
2111 -2110 161 0
2111 2110 -161 0
-2112 2111 166 0
-2112 -2111 -166 0
2112 -2111 166 0
2112 2111 -166 0
-2113 2112 168 0
-2113 -2112 -168 0
2113 -2112 168 0
2113 2112 -168 0
-2114 2113 169 0
-2114 -2113 -169 0
2114 -2113 169 0
2114 2113 -169 0
-2115 2114 173 0
-2115 -2114 -173 0
2115 -2114 173 0
2115 2114 -173 0
-2116 2115 176 0
-2116 -2115 -176 0
2116 -2115 176 0
2116 2115 -176 0
-2117 2116 177 0
-2117 -2116 -177 0
2117 -2116 177 0
2117 2116 -177 0
-2118 2117 183 0
-2118 -2117 -183 0
2118 -2117 183 0
2118 2117 -183 0
-2119 2118 184 0
-2119 -2118 -184 0
2119 -2118 184 0
2119 2118 -184 0
-2120 2119 186 0
-2120 -2119 -186 0
2120 -2119 186 0
2120 2119 -186 0
-2121 2120 187 0
-2121 -2120 -187 0
2121 -2120 187 0
2121 2120 -187 0
-2122 2121 189 0
-2122 -2121 -189 0
2122 -2121 189 0
2122 2121 -189 0
-2123 2122 190 0
-2123 -2122 -190 0
2123 -2122 190 0
2123 2122 -190 0
-2124 2123 191 0
-2124 -2123 -191 0
2124 -2123 191 0
2124 2123 -191 0
-2125 2124 192 0
-2125 -2124 -192 0
2125 -2124 192 0
2125 2124 -192 0
-2126 2125 193 0
-2126 -2125 -193 0
2126 -2125 193 0
2126 2125 -193 0
-2127 2126 194 0
-2127 -2126 -194 0
2127 -2126 194 0
2127 2126 -194 0
-2128 2127 195 0
-2128 -2127 -195 0
2128 -2127 195 0
2128 2127 -195 0
-2129 2128 196 0
-2129 -2128 -196 0
2129 -2128 196 0
2129 2128 -196 0
-2130 2129 197 0
-2130 -2129 -197 0
2130 -2129 197 0
2130 2129 -197 0
-2131 2130 198 0
-2131 -2130 -198 0
2131 -2130 198 0
2131 2130 -198 0
-2132 2131 199 0
-2132 -2131 -199 0
2132 -2131 199 0
2132 2131 -199 0
-2133 2132 200 0
-2133 -2132 -200 0
2133 -2132 200 0
2133 2132 -200 0
-2134 2133 201 0
-2134 -2133 -201 0
2134 -2133 201 0
2134 2133 -201 0
-2135 2134 202 0
-2135 -2134 -202 0
2135 -2134 202 0
2135 2134 -202 0
-2136 2135 203 0
-2136 -2135 -203 0
2136 -2135 203 0
2136 2135 -203 0
-2137 2136 206 0
-2137 -2136 -206 0
2137 -2136 206 0
2137 2136 -206 0
-2138 2137 208 0
-2138 -2137 -208 0
2138 -2137 208 0
2138 2137 -208 0
-2139 2138 209 0
-2139 -2138 -209 0
2139 -2138 209 0
2139 2138 -209 0
-2140 2139 213 0
-2140 -2139 -213 0
2140 -2139 213 0
2140 2139 -213 0
-2141 2140 215 0
-2141 -2140 -215 0
2141 -2140 215 0
2141 2140 -215 0
-2141 0
-2142 58 62 0
-2142 -58 -62 0
2142 -58 62 0
2142 58 -62 0
-2143 2142 65 0
-2143 -2142 -65 0
2143 -2142 65 0
2143 2142 -65 0
-2144 2143 66 0
-2144 -2143 -66 0
2144 -2143 66 0
2144 2143 -66 0
-2145 2144 67 0
-2145 -2144 -67 0
2145 -2144 67 0
2145 2144 -67 0
-2146 2145 68 0
-2146 -2145 -68 0
2146 -2145 68 0
2146 2145 -68 0
-2147 2146 69 0
-2147 -2146 -69 0
2147 -2146 69 0
2147 2146 -69 0
-2148 2147 70 0
-2148 -2147 -70 0
2148 -2147 70 0
2148 2147 -70 0
-2149 2148 71 0
-2149 -2148 -71 0
2149 -2148 71 0
2149 2148 -71 0
-2150 2149 72 0
-2150 -2149 -72 0
2150 -2149 72 0
2150 2149 -72 0
-2151 2150 75 0
-2151 -2150 -75 0
2151 -2150 75 0
2151 2150 -75 0
-2152 2151 79 0
-2152 -2151 -79 0
2152 -2151 79 0
2152 2151 -79 0
-2153 2152 80 0
-2153 -2152 -80 0
2153 -2152 80 0
2153 2152 -80 0
-2154 2153 83 0
-2154 -2153 -83 0
2154 -2153 83 0
2154 2153 -83 0
-2155 2154 84 0
-2155 -2154 -84 0
2155 -2154 84 0
2155 2154 -84 0
-2156 2155 85 0
-2156 -2155 -85 0
2156 -2155 85 0
2156 2155 -85 0
-2157 2156 86 0
-2157 -2156 -86 0
2157 -2156 86 0
2157 2156 -86 0
-2158 2157 87 0
-2158 -2157 -87 0
2158 -2157 87 0
2158 2157 -87 0
-2159 2158 88 0
-2159 -2158 -88 0
2159 -2158 88 0
2159 2158 -88 0
-2160 2159 89 0
-2160 -2159 -89 0
2160 -2159 89 0
2160 2159 -89 0
-2161 2160 90 0
-2161 -2160 -90 0
2161 -2160 90 0
2161 2160 -90 0
-2162 2161 91 0
-2162 -2161 -91 0
2162 -2161 91 0
2162 2161 -91 0
-2163 2162 93 0
-2163 -2162 -93 0
2163 -2162 93 0
2163 2162 -93 0
-2164 2163 98 0
-2164 -2163 -98 0
2164 -2163 98 0
2164 2163 -98 0
-2165 2164 100 0
-2165 -2164 -100 0
2165 -2164 100 0
2165 2164 -100 0
-2166 2165 101 0
-2166 -2165 -101 0
2166 -2165 101 0
2166 2165 -101 0
-2167 2166 103 0
-2167 -2166 -103 0
2167 -2166 103 0
2167 2166 -103 0
-2168 2167 104 0
-2168 -2167 -104 0
2168 -2167 104 0
2168 2167 -104 0
-2169 2168 105 0
-2169 -2168 -105 0
2169 -2168 105 0
2169 2168 -105 0
-2170 2169 106 0
-2170 -2169 -106 0
2170 -2169 106 0
2170 2169 -106 0
-2171 2170 107 0
-2171 -2170 -107 0
2171 -2170 107 0
2171 2170 -107 0
-2172 2171 108 0
-2172 -2171 -108 0
2172 -2171 108 0
2172 2171 -108 0
-2173 2172 144 0
-2173 -2172 -144 0
2173 -2172 144 0
2173 2172 -144 0
-2174 2173 162 0
-2174 -2173 -162 0
2174 -2173 162 0
2174 2173 -162 0
-2175 2174 165 0
-2175 -2174 -165 0
2175 -2174 165 0
2175 2174 -165 0
-2176 2175 166 0
-2176 -2175 -166 0
2176 -2175 166 0
2176 2175 -166 0
-2177 2176 167 0
-2177 -2176 -167 0
2177 -2176 167 0
2177 2176 -167 0
-2178 2177 168 0
-2178 -2177 -168 0
2178 -2177 168 0
2178 2177 -168 0
-2179 2178 169 0
-2179 -2178 -169 0
2179 -2178 169 0
2179 2178 -169 0
-2180 2179 172 0
-2180 -2179 -172 0
2180 -2179 172 0
2180 2179 -172 0
-2181 2180 173 0
-2181 -2180 -173 0
2181 -2180 173 0
2181 2180 -173 0
-2182 2181 174 0
-2182 -2181 -174 0
2182 -2181 174 0
2182 2181 -174 0
-2183 2182 176 0
-2183 -2182 -176 0
2183 -2182 176 0
2183 2182 -176 0
-2184 2183 178 0
-2184 -2183 -178 0
2184 -2183 178 0
2184 2183 -178 0
-2185 2184 179 0
-2185 -2184 -179 0
2185 -2184 179 0
2185 2184 -179 0
-2186 2185 180 0
-2186 -2185 -180 0
2186 -2185 180 0
2186 2185 -180 0
-2187 2186 183 0
-2187 -2186 -183 0
2187 -2186 183 0
2187 2186 -183 0
-2188 2187 185 0
-2188 -2187 -185 0
2188 -2187 185 0
2188 2187 -185 0
-2189 2188 186 0
-2189 -2188 -186 0
2189 -2188 186 0
2189 2188 -186 0
-2190 2189 192 0
-2190 -2189 -192 0
2190 -2189 192 0
2190 2189 -192 0
-2191 2190 193 0
-2191 -2190 -193 0
2191 -2190 193 0
2191 2190 -193 0
-2192 2191 196 0
-2192 -2191 -196 0
2192 -2191 196 0
2192 2191 -196 0
-2193 2192 199 0
-2193 -2192 -199 0
2193 -2192 199 0
2193 2192 -199 0
-2194 2193 200 0
-2194 -2193 -200 0
2194 -2193 200 0
2194 2193 -200 0
-2195 2194 203 0
-2195 -2194 -203 0
2195 -2194 203 0
2195 2194 -203 0
-2196 2195 205 0
-2196 -2195 -205 0
2196 -2195 205 0
2196 2195 -205 0
-2197 2196 206 0
-2197 -2196 -206 0
2197 -2196 206 0
2197 2196 -206 0
-2198 2197 207 0
-2198 -2197 -207 0
2198 -2197 207 0
2198 2197 -207 0
-2199 2198 208 0
-2199 -2198 -208 0
2199 -2198 208 0
2199 2198 -208 0
-2200 2199 210 0
-2200 -2199 -210 0
2200 -2199 210 0
2200 2199 -210 0
-2201 2200 212 0
-2201 -2200 -212 0
2201 -2200 212 0
2201 2200 -212 0
-2202 2201 213 0
-2202 -2201 -213 0
2202 -2201 213 0
2202 2201 -213 0
-2203 2202 214 0
-2203 -2202 -214 0
2203 -2202 214 0
2203 2202 -214 0
-2204 2203 215 0
-2204 -2203 -215 0
2204 -2203 215 0
2204 2203 -215 0
-2204 0
-2205 47 52 0
-2205 -47 -52 0
2205 -47 52 0
2205 47 -52 0
-2206 2205 54 0
-2206 -2205 -54 0
2206 -2205 54 0
2206 2205 -54 0
-2207 2206 59 0
-2207 -2206 -59 0
2207 -2206 59 0
2207 2206 -59 0
-2208 2207 62 0
-2208 -2207 -62 0
2208 -2207 62 0
2208 2207 -62 0
-2209 2208 63 0
-2209 -2208 -63 0
2209 -2208 63 0
2209 2208 -63 0
-2210 2209 64 0
-2210 -2209 -64 0
2210 -2209 64 0
2210 2209 -64 0
-2211 2210 65 0
-2211 -2210 -65 0
2211 -2210 65 0
2211 2210 -65 0
-2212 2211 66 0
-2212 -2211 -66 0
2212 -2211 66 0
2212 2211 -66 0
-2213 2212 69 0
-2213 -2212 -69 0
2213 -2212 69 0
2213 2212 -69 0
-2214 2213 71 0
-2214 -2213 -71 0
2214 -2213 71 0
2214 2213 -71 0
-2215 2214 72 0
-2215 -2214 -72 0
2215 -2214 72 0
2215 2214 -72 0
-2216 2215 74 0
-2216 -2215 -74 0
2216 -2215 74 0
2216 2215 -74 0
-2217 2216 77 0
-2217 -2216 -77 0
2217 -2216 77 0
2217 2216 -77 0
-2218 2217 79 0
-2218 -2217 -79 0
2218 -2217 79 0
2218 2217 -79 0
-2219 2218 80 0
-2219 -2218 -80 0
2219 -2218 80 0
2219 2218 -80 0
-2220 2219 81 0
-2220 -2219 -81 0
2220 -2219 81 0
2220 2219 -81 0
-2221 2220 82 0
-2221 -2220 -82 0
2221 -2220 82 0
2221 2220 -82 0
-2222 2221 83 0
-2222 -2221 -83 0
2222 -2221 83 0
2222 2221 -83 0
-2223 2222 84 0
-2223 -2222 -84 0
2223 -2222 84 0
2223 2222 -84 0
-2224 2223 86 0
-2224 -2223 -86 0
2224 -2223 86 0
2224 2223 -86 0
-2225 2224 87 0
-2225 -2224 -87 0
2225 -2224 87 0
2225 2224 -87 0
-2226 2225 88 0
-2226 -2225 -88 0
2226 -2225 88 0
2226 2225 -88 0
-2227 2226 89 0
-2227 -2226 -89 0
2227 -2226 89 0
2227 2226 -89 0
-2228 2227 90 0
-2228 -2227 -90 0
2228 -2227 90 0
2228 2227 -90 0
-2229 2228 92 0
-2229 -2228 -92 0
2229 -2228 92 0
2229 2228 -92 0
-2230 2229 94 0
-2230 -2229 -94 0
2230 -2229 94 0
2230 2229 -94 0
-2231 2230 95 0
-2231 -2230 -95 0
2231 -2230 95 0
2231 2230 -95 0
-2232 2231 97 0
-2232 -2231 -97 0
2232 -2231 97 0
2232 2231 -97 0
-2233 2232 98 0
-2233 -2232 -98 0
2233 -2232 98 0
2233 2232 -98 0
-2234 2233 99 0
-2234 -2233 -99 0
2234 -2233 99 0
2234 2233 -99 0
-2235 2234 100 0
-2235 -2234 -100 0
2235 -2234 100 0
2235 2234 -100 0
-2236 2235 101 0
-2236 -2235 -101 0
2236 -2235 101 0
2236 2235 -101 0
-2237 2236 102 0
-2237 -2236 -102 0
2237 -2236 102 0
2237 2236 -102 0
-2238 2237 104 0
-2238 -2237 -104 0
2238 -2237 104 0
2238 2237 -104 0
-2239 2238 105 0
-2239 -2238 -105 0
2239 -2238 105 0
2239 2238 -105 0
-2240 2239 107 0
-2240 -2239 -107 0
2240 -2239 107 0
2240 2239 -107 0
-2241 2240 108 0
-2241 -2240 -108 0
2241 -2240 108 0
2241 2240 -108 0
-2242 2241 145 0
-2242 -2241 -145 0
2242 -2241 145 0
2242 2241 -145 0
-2243 2242 154 0
-2243 -2242 -154 0
2243 -2242 154 0
2243 2242 -154 0
-2244 2243 160 0
-2244 -2243 -160 0
2244 -2243 160 0
2244 2243 -160 0
-2245 2244 168 0
-2245 -2244 -168 0
2245 -2244 168 0
2245 2244 -168 0
-2246 2245 169 0
-2246 -2245 -169 0
2246 -2245 169 0
2246 2245 -169 0
-2247 2246 176 0
-2247 -2246 -176 0
2247 -2246 176 0
2247 2246 -176 0
-2248 2247 183 0
-2248 -2247 -183 0
2248 -2247 183 0
2248 2247 -183 0
-2249 2248 190 0
-2249 -2248 -190 0
2249 -2248 190 0
2249 2248 -190 0
-2250 2249 191 0
-2250 -2249 -191 0
2250 -2249 191 0
2250 2249 -191 0
-2251 2250 198 0
-2251 -2250 -198 0
2251 -2250 198 0
2251 2250 -198 0
-2252 2251 199 0
-2252 -2251 -199 0
2252 -2251 199 0
2252 2251 -199 0
-2253 2252 200 0
-2253 -2252 -200 0
2253 -2252 200 0
2253 2252 -200 0
-2254 2253 203 0
-2254 -2253 -203 0
2254 -2253 203 0
2254 2253 -203 0
-2255 2254 207 0
-2255 -2254 -207 0
2255 -2254 207 0
2255 2254 -207 0
-2256 2255 210 0
-2256 -2255 -210 0
2256 -2255 210 0
2256 2255 -210 0
-2257 2256 211 0
-2257 -2256 -211 0
2257 -2256 211 0
2257 2256 -211 0
-2258 2257 214 0
-2258 -2257 -214 0
2258 -2257 214 0
2258 2257 -214 0
-2259 2258 215 0
-2259 -2258 -215 0
2259 -2258 215 0
2259 2258 -215 0
-2259 0
-2260 48 52 0
-2260 -48 -52 0
2260 -48 52 0
2260 48 -52 0
-2261 2260 53 0
-2261 -2260 -53 0
2261 -2260 53 0
2261 2260 -53 0
-2262 2261 58 0
-2262 -2261 -58 0
2262 -2261 58 0
2262 2261 -58 0
-2263 2262 59 0
-2263 -2262 -59 0
2263 -2262 59 0
2263 2262 -59 0
-2264 2263 60 0
-2264 -2263 -60 0
2264 -2263 60 0
2264 2263 -60 0
-2265 2264 63 0
-2265 -2264 -63 0
2265 -2264 63 0
2265 2264 -63 0
-2266 2265 64 0
-2266 -2265 -64 0
2266 -2265 64 0
2266 2265 -64 0
-2267 2266 66 0
-2267 -2266 -66 0
2267 -2266 66 0
2267 2266 -66 0
-2268 2267 69 0
-2268 -2267 -69 0
2268 -2267 69 0
2268 2267 -69 0
-2269 2268 70 0
-2269 -2268 -70 0
2269 -2268 70 0
2269 2268 -70 0
-2270 2269 71 0
-2270 -2269 -71 0
2270 -2269 71 0
2270 2269 -71 0
-2271 2270 74 0
-2271 -2270 -74 0
2271 -2270 74 0
2271 2270 -74 0
-2272 2271 75 0
-2272 -2271 -75 0
2272 -2271 75 0
2272 2271 -75 0
-2273 2272 76 0
-2273 -2272 -76 0
2273 -2272 76 0
2273 2272 -76 0
-2274 2273 78 0
-2274 -2273 -78 0
2274 -2273 78 0
2274 2273 -78 0
-2275 2274 79 0
-2275 -2274 -79 0
2275 -2274 79 0
2275 2274 -79 0
-2276 2275 80 0
-2276 -2275 -80 0
2276 -2275 80 0
2276 2275 -80 0
-2277 2276 81 0
-2277 -2276 -81 0
2277 -2276 81 0
2277 2276 -81 0
-2278 2277 84 0
-2278 -2277 -84 0
2278 -2277 84 0
2278 2277 -84 0
-2279 2278 86 0
-2279 -2278 -86 0
2279 -2278 86 0
2279 2278 -86 0
-2280 2279 88 0
-2280 -2279 -88 0
2280 -2279 88 0
2280 2279 -88 0
-2281 2280 89 0
-2281 -2280 -89 0
2281 -2280 89 0
2281 2280 -89 0
-2282 2281 91 0
-2282 -2281 -91 0
2282 -2281 91 0
2282 2281 -91 0
-2283 2282 92 0
-2283 -2282 -92 0
2283 -2282 92 0
2283 2282 -92 0
-2284 2283 93 0
-2284 -2283 -93 0
2284 -2283 93 0
2284 2283 -93 0
-2285 2284 95 0
-2285 -2284 -95 0
2285 -2284 95 0
2285 2284 -95 0
-2286 2285 96 0
-2286 -2285 -96 0
2286 -2285 96 0
2286 2285 -96 0
-2287 2286 99 0
-2287 -2286 -99 0
2287 -2286 99 0
2287 2286 -99 0
-2288 2287 100 0
-2288 -2287 -100 0
2288 -2287 100 0
2288 2287 -100 0
-2289 2288 101 0
-2289 -2288 -101 0
2289 -2288 101 0
2289 2288 -101 0
-2290 2289 102 0
-2290 -2289 -102 0
2290 -2289 102 0
2290 2289 -102 0
-2291 2290 103 0
-2291 -2290 -103 0
2291 -2290 103 0
2291 2290 -103 0
-2292 2291 107 0
-2292 -2291 -107 0
2292 -2291 107 0
2292 2291 -107 0
-2293 2292 146 0
-2293 -2292 -146 0
2293 -2292 146 0
2293 2292 -146 0
-2294 2293 155 0
-2294 -2293 -155 0
2294 -2293 155 0
2294 2293 -155 0
-2295 2294 161 0
-2295 -2294 -161 0
2295 -2294 161 0
2295 2294 -161 0
-2296 2295 165 0
-2296 -2295 -165 0
2296 -2295 165 0
2296 2295 -165 0
-2297 2296 166 0
-2297 -2296 -166 0
2297 -2296 166 0
2297 2296 -166 0
-2298 2297 168 0
-2298 -2297 -168 0
2298 -2297 168 0
2298 2297 -168 0
-2299 2298 169 0
-2299 -2298 -169 0
2299 -2298 169 0
2299 2298 -169 0
-2300 2299 172 0
-2300 -2299 -172 0
2300 -2299 172 0
2300 2299 -172 0
-2301 2300 173 0
-2301 -2300 -173 0
2301 -2300 173 0
2301 2300 -173 0
-2302 2301 176 0
-2302 -2301 -176 0
2302 -2301 176 0
2302 2301 -176 0
-2303 2302 179 0
-2303 -2302 -179 0
2303 -2302 179 0
2303 2302 -179 0
-2304 2303 180 0
-2304 -2303 -180 0
2304 -2303 180 0
2304 2303 -180 0
-2305 2304 181 0
-2305 -2304 -181 0
2305 -2304 181 0
2305 2304 -181 0
-2306 2305 183 0
-2306 -2305 -183 0
2306 -2305 183 0
2306 2305 -183 0
-2307 2306 186 0
-2307 -2306 -186 0
2307 -2306 186 0
2307 2306 -186 0
-2308 2307 187 0
-2308 -2307 -187 0
2308 -2307 187 0
2308 2307 -187 0
-2309 2308 188 0
-2309 -2308 -188 0
2309 -2308 188 0
2309 2308 -188 0
-2310 2309 190 0
-2310 -2309 -190 0
2310 -2309 190 0
2310 2309 -190 0
-2311 2310 192 0
-2311 -2310 -192 0
2311 -2310 192 0
2311 2310 -192 0
-2312 2311 193 0
-2312 -2311 -193 0
2312 -2311 193 0
2312 2311 -193 0
-2313 2312 194 0
-2313 -2312 -194 0
2313 -2312 194 0
2313 2312 -194 0
-2314 2313 195 0
-2314 -2313 -195 0
2314 -2313 195 0
2314 2313 -195 0
-2315 2314 197 0
-2315 -2314 -197 0
2315 -2314 197 0
2315 2314 -197 0
-2316 2315 198 0
-2316 -2315 -198 0
2316 -2315 198 0
2316 2315 -198 0
-2317 2316 199 0
-2317 -2316 -199 0
2317 -2316 199 0
2317 2316 -199 0
-2318 2317 200 0
-2318 -2317 -200 0
2318 -2317 200 0
2318 2317 -200 0
-2319 2318 202 0
-2319 -2318 -202 0
2319 -2318 202 0
2319 2318 -202 0
-2320 2319 206 0
-2320 -2319 -206 0
2320 -2319 206 0
2320 2319 -206 0
-2321 2320 209 0
-2321 -2320 -209 0
2321 -2320 209 0
2321 2320 -209 0
-2322 2321 213 0
-2322 -2321 -213 0
2322 -2321 213 0
2322 2321 -213 0
-2322 0
-2323 46 53 0
-2323 -46 -53 0
2323 -46 53 0
2323 46 -53 0
-2324 2323 54 0
-2324 -2323 -54 0
2324 -2323 54 0
2324 2323 -54 0
-2325 2324 60 0
-2325 -2324 -60 0
2325 -2324 60 0
2325 2324 -60 0
-2326 2325 64 0
-2326 -2325 -64 0
2326 -2325 64 0
2326 2325 -64 0
-2327 2326 72 0
-2327 -2326 -72 0
2327 -2326 72 0
2327 2326 -72 0
-2328 2327 73 0
-2328 -2327 -73 0
2328 -2327 73 0
2328 2327 -73 0
-2329 2328 75 0
-2329 -2328 -75 0
2329 -2328 75 0
2329 2328 -75 0
-2330 2329 81 0
-2330 -2329 -81 0
2330 -2329 81 0
2330 2329 -81 0
-2331 2330 82 0
-2331 -2330 -82 0
2331 -2330 82 0
2331 2330 -82 0
-2332 2331 85 0
-2332 -2331 -85 0
2332 -2331 85 0
2332 2331 -85 0
-2333 2332 87 0
-2333 -2332 -87 0
2333 -2332 87 0
2333 2332 -87 0
-2334 2333 90 0
-2334 -2333 -90 0
2334 -2333 90 0
2334 2333 -90 0
-2335 2334 93 0
-2335 -2334 -93 0
2335 -2334 93 0
2335 2334 -93 0
-2336 2335 94 0
-2336 -2335 -94 0
2336 -2335 94 0
2336 2335 -94 0
-2337 2336 96 0
-2337 -2336 -96 0
2337 -2336 96 0
2337 2336 -96 0
-2338 2337 97 0
-2338 -2337 -97 0
2338 -2337 97 0
2338 2337 -97 0
-2339 2338 102 0
-2339 -2338 -102 0
2339 -2338 102 0
2339 2338 -102 0
-2340 2339 106 0
-2340 -2339 -106 0
2340 -2339 106 0
2340 2339 -106 0
-2341 2340 108 0
-2341 -2340 -108 0
2341 -2340 108 0
2341 2340 -108 0
-2342 2341 147 0
-2342 -2341 -147 0
2342 -2341 147 0
2342 2341 -147 0
-2343 2342 156 0
-2343 -2342 -156 0
2343 -2342 156 0
2343 2342 -156 0
-2344 2343 162 0
-2344 -2343 -162 0
2344 -2343 162 0
2344 2343 -162 0
-2345 2344 165 0
-2345 -2344 -165 0
2345 -2344 165 0
2345 2344 -165 0
-2346 2345 167 0
-2346 -2345 -167 0
2346 -2345 167 0
2346 2345 -167 0
-2347 2346 168 0
-2347 -2346 -168 0
2347 -2346 168 0
2347 2346 -168 0
-2348 2347 169 0
-2348 -2347 -169 0
2348 -2347 169 0
2348 2347 -169 0
-2349 2348 172 0
-2349 -2348 -172 0
2349 -2348 172 0
2349 2348 -172 0
-2350 2349 174 0
-2350 -2349 -174 0
2350 -2349 174 0
2350 2349 -174 0
-2351 2350 175 0
-2351 -2350 -175 0
2351 -2350 175 0
2351 2350 -175 0
-2352 2351 176 0
-2352 -2351 -176 0
2352 -2351 176 0
2352 2351 -176 0
-2353 2352 179 0
-2353 -2352 -179 0
2353 -2352 179 0
2353 2352 -179 0
-2354 2353 182 0
-2354 -2353 -182 0
2354 -2353 182 0
2354 2353 -182 0
-2355 2354 183 0
-2355 -2354 -183 0
2355 -2354 183 0
2355 2354 -183 0
-2356 2355 186 0
-2356 -2355 -186 0
2356 -2355 186 0
2356 2355 -186 0
-2357 2356 189 0
-2357 -2356 -189 0
2357 -2356 189 0
2357 2356 -189 0
-2358 2357 190 0
-2358 -2357 -190 0
2358 -2357 190 0
2358 2357 -190 0
-2359 2358 193 0
-2359 -2358 -193 0
2359 -2358 193 0
2359 2358 -193 0
-2360 2359 196 0
-2360 -2359 -196 0
2360 -2359 196 0
2360 2359 -196 0
-2361 2360 197 0
-2361 -2360 -197 0
2361 -2360 197 0
2361 2360 -197 0
-2362 2361 199 0
-2362 -2361 -199 0
2362 -2361 199 0
2362 2361 -199 0
-2363 2362 200 0
-2363 -2362 -200 0
2363 -2362 200 0
2363 2362 -200 0
-2364 2363 202 0
-2364 -2363 -202 0
2364 -2363 202 0
2364 2363 -202 0
-2365 2364 203 0
-2365 -2364 -203 0
2365 -2364 203 0
2365 2364 -203 0
-2366 2365 204 0
-2366 -2365 -204 0
2366 -2365 204 0
2366 2365 -204 0
-2367 2366 205 0
-2367 -2366 -205 0
2367 -2366 205 0
2367 2366 -205 0
-2368 2367 206 0
-2368 -2367 -206 0
2368 -2367 206 0
2368 2367 -206 0
-2369 2368 207 0
-2369 -2368 -207 0
2369 -2368 207 0
2369 2368 -207 0
-2370 2369 208 0
-2370 -2369 -208 0
2370 -2369 208 0
2370 2369 -208 0
-2371 2370 209 0
-2371 -2370 -209 0
2371 -2370 209 0
2371 2370 -209 0
-2372 2371 210 0
-2372 -2371 -210 0
2372 -2371 210 0
2372 2371 -210 0
-2373 2372 212 0
-2373 -2372 -212 0
2373 -2372 212 0
2373 2372 -212 0
-2374 2373 213 0
-2374 -2373 -213 0
2374 -2373 213 0
2374 2373 -213 0
-2375 2374 214 0
-2375 -2374 -214 0
2375 -2374 214 0
2375 2374 -214 0
-2376 2375 215 0
-2376 -2375 -215 0
2376 -2375 215 0
2376 2375 -215 0
-2377 2376 216 0
-2377 -2376 -216 0
2377 -2376 216 0
2377 2376 -216 0
-2377 0
-2378 59 62 0
-2378 -59 -62 0
2378 -59 62 0
2378 59 -62 0
-2379 2378 63 0
-2379 -2378 -63 0
2379 -2378 63 0
2379 2378 -63 0
-2380 2379 65 0
-2380 -2379 -65 0
2380 -2379 65 0
2380 2379 -65 0
-2381 2380 66 0
-2381 -2380 -66 0
2381 -2380 66 0
2381 2380 -66 0
-2382 2381 67 0
-2382 -2381 -67 0
2382 -2381 67 0
2382 2381 -67 0
-2383 2382 74 0
-2383 -2382 -74 0
2383 -2382 74 0
2383 2382 -74 0
-2384 2383 76 0
-2384 -2383 -76 0
2384 -2383 76 0
2384 2383 -76 0
-2385 2384 77 0
-2385 -2384 -77 0
2385 -2384 77 0
2385 2384 -77 0
-2386 2385 79 0
-2386 -2385 -79 0
2386 -2385 79 0
2386 2385 -79 0
-2387 2386 80 0
-2387 -2386 -80 0
2387 -2386 80 0
2387 2386 -80 0
-2388 2387 81 0
-2388 -2387 -81 0
2388 -2387 81 0
2388 2387 -81 0
-2389 2388 82 0
-2389 -2388 -82 0
2389 -2388 82 0
2389 2388 -82 0
-2390 2389 83 0
-2390 -2389 -83 0
2390 -2389 83 0
2390 2389 -83 0
-2391 2390 84 0
-2391 -2390 -84 0
2391 -2390 84 0
2391 2390 -84 0
-2392 2391 88 0
-2392 -2391 -88 0
2392 -2391 88 0
2392 2391 -88 0
-2393 2392 89 0
-2393 -2392 -89 0
2393 -2392 89 0
2393 2392 -89 0
-2394 2393 91 0
-2394 -2393 -91 0
2394 -2393 91 0
2394 2393 -91 0
-2395 2394 92 0
-2395 -2394 -92 0
2395 -2394 92 0
2395 2394 -92 0
-2396 2395 98 0
-2396 -2395 -98 0
2396 -2395 98 0
2396 2395 -98 0
-2397 2396 99 0
-2397 -2396 -99 0
2397 -2396 99 0
2397 2396 -99 0
-2398 2397 101 0
-2398 -2397 -101 0
2398 -2397 101 0
2398 2397 -101 0
-2399 2398 102 0
-2399 -2398 -102 0
2399 -2398 102 0
2399 2398 -102 0
-2400 2399 103 0
-2400 -2399 -103 0
2400 -2399 103 0
2400 2399 -103 0
-2401 2400 104 0
-2401 -2400 -104 0
2401 -2400 104 0
2401 2400 -104 0
-2402 2401 106 0
-2402 -2401 -106 0
2402 -2401 106 0
2402 2401 -106 0
-2403 2402 148 0
-2403 -2402 -148 0
2403 -2402 148 0
2403 2402 -148 0
-2404 2403 154 0
-2404 -2403 -154 0
2404 -2403 154 0
2404 2403 -154 0
-2405 2404 160 0
-2405 -2404 -160 0
2405 -2404 160 0
2405 2404 -160 0
-2406 2405 165 0
-2406 -2405 -165 0
2406 -2405 165 0
2406 2405 -165 0
-2407 2406 167 0
-2407 -2406 -167 0
2407 -2406 167 0
2407 2406 -167 0
-2408 2407 168 0
-2408 -2407 -168 0
2408 -2407 168 0
2408 2407 -168 0
-2409 2408 169 0
-2409 -2408 -169 0
2409 -2408 169 0
2409 2408 -169 0
-2410 2409 170 0
-2410 -2409 -170 0
2410 -2409 170 0
2410 2409 -170 0
-2411 2410 172 0
-2411 -2410 -172 0
2411 -2410 172 0
2411 2410 -172 0
-2412 2411 173 0
-2412 -2411 -173 0
2412 -2411 173 0
2412 2411 -173 0
-2413 2412 174 0
-2413 -2412 -174 0
2413 -2412 174 0
2413 2412 -174 0
-2414 2413 175 0
-2414 -2413 -175 0
2414 -2413 175 0
2414 2413 -175 0
-2415 2414 177 0
-2415 -2414 -177 0
2415 -2414 177 0
2415 2414 -177 0
-2416 2415 180 0
-2416 -2415 -180 0
2416 -2415 180 0
2416 2415 -180 0
-2417 2416 181 0
-2417 -2416 -181 0
2417 -2416 181 0
2417 2416 -181 0
-2418 2417 182 0
-2418 -2417 -182 0
2418 -2417 182 0
2418 2417 -182 0
-2419 2418 184 0
-2419 -2418 -184 0
2419 -2418 184 0
2419 2418 -184 0
-2420 2419 188 0
-2420 -2419 -188 0
2420 -2419 188 0
2420 2419 -188 0
-2421 2420 189 0
-2421 -2420 -189 0
2421 -2420 189 0
2421 2420 -189 0
-2422 2421 194 0
-2422 -2421 -194 0
2422 -2421 194 0
2422 2421 -194 0
-2423 2422 195 0
-2423 -2422 -195 0
2423 -2422 195 0
2423 2422 -195 0
-2424 2423 196 0
-2424 -2423 -196 0
2424 -2423 196 0
2424 2423 -196 0
-2425 2424 201 0
-2425 -2424 -201 0
2425 -2424 201 0
2425 2424 -201 0
-2426 2425 202 0
-2426 -2425 -202 0
2426 -2425 202 0
2426 2425 -202 0
-2427 2426 203 0
-2427 -2426 -203 0
2427 -2426 203 0
2427 2426 -203 0
-2428 2427 208 0
-2428 -2427 -208 0
2428 -2427 208 0
2428 2427 -208 0
-2429 2428 210 0
-2429 -2428 -210 0
2429 -2428 210 0
2429 2428 -210 0
-2430 2429 211 0
-2430 -2429 -211 0
2430 -2429 211 0
2430 2429 -211 0
-2431 2430 212 0
-2431 -2430 -212 0
2431 -2430 212 0
2431 2430 -212 0
-2432 2431 215 0
-2432 -2431 -215 0
2432 -2431 215 0
2432 2431 -215 0
-2432 0
-2433 60 63 0
-2433 -60 -63 0
2433 -60 63 0
2433 60 -63 0
-2434 2433 66 0
-2434 -2433 -66 0
2434 -2433 66 0
2434 2433 -66 0
-2435 2434 68 0
-2435 -2434 -68 0
2435 -2434 68 0
2435 2434 -68 0
-2436 2435 69 0
-2436 -2435 -69 0
2436 -2435 69 0
2436 2435 -69 0
-2437 2436 72 0
-2437 -2436 -72 0
2437 -2436 72 0
2437 2436 -72 0
-2438 2437 75 0
-2438 -2437 -75 0
2438 -2437 75 0
2438 2437 -75 0
-2439 2438 77 0
-2439 -2438 -77 0
2439 -2438 77 0
2439 2438 -77 0
-2440 2439 78 0
-2440 -2439 -78 0
2440 -2439 78 0
2440 2439 -78 0
-2441 2440 80 0
-2441 -2440 -80 0
2441 -2440 80 0
2441 2440 -80 0
-2442 2441 81 0
-2442 -2441 -81 0
2442 -2441 81 0
2442 2441 -81 0
-2443 2442 83 0
-2443 -2442 -83 0
2443 -2442 83 0
2443 2442 -83 0
-2444 2443 84 0
-2444 -2443 -84 0
2444 -2443 84 0
2444 2443 -84 0
-2445 2444 87 0
-2445 -2444 -87 0
2445 -2444 87 0
2445 2444 -87 0
-2446 2445 89 0
-2446 -2445 -89 0
2446 -2445 89 0
2446 2445 -89 0
-2447 2446 92 0
-2447 -2446 -92 0
2447 -2446 92 0
2447 2446 -92 0
-2448 2447 93 0
-2448 -2447 -93 0
2448 -2447 93 0
2448 2447 -93 0
-2449 2448 99 0
-2449 -2448 -99 0
2449 -2448 99 0
2449 2448 -99 0
-2450 2449 102 0
-2450 -2449 -102 0
2450 -2449 102 0
2450 2449 -102 0
-2451 2450 104 0
-2451 -2450 -104 0
2451 -2450 104 0
2451 2450 -104 0
-2452 2451 107 0
-2452 -2451 -107 0
2452 -2451 107 0
2452 2451 -107 0
-2453 2452 108 0
-2453 -2452 -108 0
2453 -2452 108 0
2453 2452 -108 0
-2454 2453 149 0
-2454 -2453 -149 0
2454 -2453 149 0
2454 2453 -149 0
-2455 2454 155 0
-2455 -2454 -155 0
2455 -2454 155 0
2455 2454 -155 0
-2456 2455 161 0
-2456 -2455 -161 0
2456 -2455 161 0
2456 2455 -161 0
-2457 2456 165 0
-2457 -2456 -165 0
2457 -2456 165 0
2457 2456 -165 0
-2458 2457 171 0
-2458 -2457 -171 0
2458 -2457 171 0
2458 2457 -171 0
-2459 2458 172 0
-2459 -2458 -172 0
2459 -2458 172 0
2459 2458 -172 0
-2460 2459 174 0
-2460 -2459 -174 0
2460 -2459 174 0
2460 2459 -174 0
-2461 2460 175 0
-2461 -2460 -175 0
2461 -2460 175 0
2461 2460 -175 0
-2462 2461 177 0
-2462 -2461 -177 0
2462 -2461 177 0
2462 2461 -177 0
-2463 2462 178 0
-2463 -2462 -178 0
2463 -2462 178 0
2463 2462 -178 0
-2464 2463 179 0
-2464 -2463 -179 0
2464 -2463 179 0
2464 2463 -179 0
-2465 2464 180 0
-2465 -2464 -180 0
2465 -2464 180 0
2465 2464 -180 0
-2466 2465 181 0
-2466 -2465 -181 0
2466 -2465 181 0
2466 2465 -181 0
-2467 2466 182 0
-2467 -2466 -182 0
2467 -2466 182 0
2467 2466 -182 0
-2468 2467 184 0
-2468 -2467 -184 0
2468 -2467 184 0
2468 2467 -184 0
-2469 2468 185 0
-2469 -2468 -185 0
2469 -2468 185 0
2469 2468 -185 0
-2470 2469 186 0
-2470 -2469 -186 0
2470 -2469 186 0
2470 2469 -186 0
-2471 2470 187 0
-2471 -2470 -187 0
2471 -2470 187 0
2471 2470 -187 0
-2472 2471 188 0
-2472 -2471 -188 0
2472 -2471 188 0
2472 2471 -188 0
-2473 2472 189 0
-2473 -2472 -189 0
2473 -2472 189 0
2473 2472 -189 0
-2474 2473 191 0
-2474 -2473 -191 0
2474 -2473 191 0
2474 2473 -191 0
-2475 2474 194 0
-2475 -2474 -194 0
2475 -2474 194 0
2475 2474 -194 0
-2476 2475 196 0
-2476 -2475 -196 0
2476 -2475 196 0
2476 2475 -196 0
-2477 2476 198 0
-2477 -2476 -198 0
2477 -2476 198 0
2477 2476 -198 0
-2478 2477 199 0
-2478 -2477 -199 0
2478 -2477 199 0
2478 2477 -199 0
-2479 2478 201 0
-2479 -2478 -201 0
2479 -2478 201 0
2479 2478 -201 0
-2480 2479 203 0
-2480 -2479 -203 0
2480 -2479 203 0
2480 2479 -203 0
-2481 2480 206 0
-2481 -2480 -206 0
2481 -2480 206 0
2481 2480 -206 0
-2482 2481 208 0
-2482 -2481 -208 0
2482 -2481 208 0
2482 2481 -208 0
-2483 2482 215 0
-2483 -2482 -215 0
2483 -2482 215 0
2483 2482 -215 0
-2483 0
-2484 58 67 0
-2484 -58 -67 0
2484 -58 67 0
2484 58 -67 0
-2485 2484 68 0
-2485 -2484 -68 0
2485 -2484 68 0
2485 2484 -68 0
-2486 2485 70 0
-2486 -2485 -70 0
2486 -2485 70 0
2486 2485 -70 0
-2487 2486 71 0
-2487 -2486 -71 0
2487 -2486 71 0
2487 2486 -71 0
-2488 2487 72 0
-2488 -2487 -72 0
2488 -2487 72 0
2488 2487 -72 0
-2489 2488 78 0
-2489 -2488 -78 0
2489 -2488 78 0
2489 2488 -78 0
-2490 2489 81 0
-2490 -2489 -81 0
2490 -2489 81 0
2490 2489 -81 0
-2491 2490 84 0
-2491 -2490 -84 0
2491 -2490 84 0
2491 2490 -84 0
-2492 2491 86 0
-2492 -2491 -86 0
2492 -2491 86 0
2492 2491 -86 0
-2493 2492 87 0
-2493 -2492 -87 0
2493 -2492 87 0
2493 2492 -87 0
-2494 2493 88 0
-2494 -2493 -88 0
2494 -2493 88 0
2494 2493 -88 0
-2495 2494 89 0
-2495 -2494 -89 0
2495 -2494 89 0
2495 2494 -89 0
-2496 2495 91 0
-2496 -2495 -91 0
2496 -2495 91 0
2496 2495 -91 0
-2497 2496 93 0
-2497 -2496 -93 0
2497 -2496 93 0
2497 2496 -93 0
-2498 2497 103 0
-2498 -2497 -103 0
2498 -2497 103 0
2498 2497 -103 0
-2499 2498 104 0
-2499 -2498 -104 0
2499 -2498 104 0
2499 2498 -104 0
-2500 2499 107 0
-2500 -2499 -107 0
2500 -2499 107 0
2500 2499 -107 0
-2501 2500 150 0
-2501 -2500 -150 0
2501 -2500 150 0
2501 2500 -150 0
-2502 2501 156 0
-2502 -2501 -156 0
2502 -2501 156 0
2502 2501 -156 0
-2503 2502 162 0
-2503 -2502 -162 0
2503 -2502 162 0
2503 2502 -162 0
-2504 2503 166 0
-2504 -2503 -166 0
2504 -2503 166 0
2504 2503 -166 0
-2505 2504 169 0
-2505 -2504 -169 0
2505 -2504 169 0
2505 2504 -169 0
-2506 2505 172 0
-2506 -2505 -172 0
2506 -2505 172 0
2506 2505 -172 0
-2507 2506 173 0
-2507 -2506 -173 0
2507 -2506 173 0
2507 2506 -173 0
-2508 2507 175 0
-2508 -2507 -175 0
2508 -2507 175 0
2508 2507 -175 0
-2509 2508 176 0
-2509 -2508 -176 0
2509 -2508 176 0
2509 2508 -176 0
-2510 2509 178 0
-2510 -2509 -178 0
2510 -2509 178 0
2510 2509 -178 0
-2511 2510 179 0
-2511 -2510 -179 0
2511 -2510 179 0
2511 2510 -179 0
-2512 2511 180 0
-2512 -2511 -180 0
2512 -2511 180 0
2512 2511 -180 0
-2513 2512 181 0
-2513 -2512 -181 0
2513 -2512 181 0
2513 2512 -181 0
-2514 2513 182 0
-2514 -2513 -182 0
2514 -2513 182 0
2514 2513 -182 0
-2515 2514 183 0
-2515 -2514 -183 0
2515 -2514 183 0
2515 2514 -183 0
-2516 2515 185 0
-2516 -2515 -185 0
2516 -2515 185 0
2516 2515 -185 0
-2517 2516 186 0
-2517 -2516 -186 0
2517 -2516 186 0
2517 2516 -186 0
-2518 2517 188 0
-2518 -2517 -188 0
2518 -2517 188 0
2518 2517 -188 0
-2519 2518 189 0
-2519 -2518 -189 0
2519 -2518 189 0
2519 2518 -189 0
-2520 2519 190 0
-2520 -2519 -190 0
2520 -2519 190 0
2520 2519 -190 0
-2521 2520 192 0
-2521 -2520 -192 0
2521 -2520 192 0
2521 2520 -192 0
-2522 2521 193 0
-2522 -2521 -193 0
2522 -2521 193 0
2522 2521 -193 0
-2523 2522 195 0
-2523 -2522 -195 0
2523 -2522 195 0
2523 2522 -195 0
-2524 2523 197 0
-2524 -2523 -197 0
2524 -2523 197 0
2524 2523 -197 0
-2525 2524 200 0
-2525 -2524 -200 0
2525 -2524 200 0
2525 2524 -200 0
-2526 2525 202 0
-2526 -2525 -202 0
2526 -2525 202 0
2526 2525 -202 0
-2527 2526 204 0
-2527 -2526 -204 0
2527 -2526 204 0
2527 2526 -204 0
-2528 2527 207 0
-2528 -2527 -207 0
2528 -2527 207 0
2528 2527 -207 0
-2529 2528 209 0
-2529 -2528 -209 0
2529 -2528 209 0
2529 2528 -209 0
-2530 2529 216 0
-2530 -2529 -216 0
2530 -2529 216 0
2530 2529 -216 0
-2530 0
-2531 46 47 0
-2531 -46 -47 0
2531 -46 47 0
2531 46 -47 0
-2532 2531 54 0
-2532 -2531 -54 0
2532 -2531 54 0
2532 2531 -54 0
-2533 2532 59 0
-2533 -2532 -59 0
2533 -2532 59 0
2533 2532 -59 0
-2534 2533 62 0
-2534 -2533 -62 0
2534 -2533 62 0
2534 2533 -62 0
-2535 2534 64 0
-2535 -2534 -64 0
2535 -2534 64 0
2535 2534 -64 0
-2536 2535 67 0
-2536 -2535 -67 0
2536 -2535 67 0
2536 2535 -67 0
-2537 2536 68 0
-2537 -2536 -68 0
2537 -2536 68 0
2537 2536 -68 0
-2538 2537 69 0
-2538 -2537 -69 0
2538 -2537 69 0
2538 2537 -69 0
-2539 2538 71 0
-2539 -2538 -71 0
2539 -2538 71 0
2539 2538 -71 0
-2540 2539 72 0
-2540 -2539 -72 0
2540 -2539 72 0
2540 2539 -72 0
-2541 2540 74 0
-2541 -2540 -74 0
2541 -2540 74 0
2541 2540 -74 0
-2542 2541 77 0
-2542 -2541 -77 0
2542 -2541 77 0
2542 2541 -77 0
-2543 2542 82 0
-2543 -2542 -82 0
2543 -2542 82 0
2543 2542 -82 0
-2544 2543 85 0
-2544 -2543 -85 0
2544 -2543 85 0
2544 2543 -85 0
-2545 2544 87 0
-2545 -2544 -87 0
2545 -2544 87 0
2545 2544 -87 0
-2546 2545 89 0
-2546 -2545 -89 0
2546 -2545 89 0
2546 2545 -89 0
-2547 2546 90 0
-2547 -2546 -90 0
2547 -2546 90 0
2547 2546 -90 0
-2548 2547 91 0
-2548 -2547 -91 0
2548 -2547 91 0
2548 2547 -91 0
-2549 2548 92 0
-2549 -2548 -92 0
2549 -2548 92 0
2549 2548 -92 0
-2550 2549 95 0
-2550 -2549 -95 0
2550 -2549 95 0
2550 2549 -95 0
-2551 2550 100 0
-2551 -2550 -100 0
2551 -2550 100 0
2551 2550 -100 0
-2552 2551 103 0
-2552 -2551 -103 0
2552 -2551 103 0
2552 2551 -103 0
-2553 2552 104 0
-2553 -2552 -104 0
2553 -2552 104 0
2553 2552 -104 0
-2554 2553 105 0
-2554 -2553 -105 0
2554 -2553 105 0
2554 2553 -105 0
-2555 2554 108 0
-2555 -2554 -108 0
2555 -2554 108 0
2555 2554 -108 0
-2556 2555 151 0
-2556 -2555 -151 0
2556 -2555 151 0
2556 2555 -151 0
-2557 2556 154 0
-2557 -2556 -154 0
2557 -2556 154 0
2557 2556 -154 0
-2558 2557 165 0
-2558 -2557 -165 0
2558 -2557 165 0
2558 2557 -165 0
-2559 2558 166 0
-2559 -2558 -166 0
2559 -2558 166 0
2559 2558 -166 0
-2560 2559 167 0
-2560 -2559 -167 0
2560 -2559 167 0
2560 2559 -167 0
-2561 2560 168 0
-2561 -2560 -168 0
2561 -2560 168 0
2561 2560 -168 0
-2562 2561 169 0
-2562 -2561 -169 0
2562 -2561 169 0
2562 2561 -169 0
-2563 2562 172 0
-2563 -2562 -172 0
2563 -2562 172 0
2563 2562 -172 0
-2564 2563 173 0
-2564 -2563 -173 0
2564 -2563 173 0
2564 2563 -173 0
-2565 2564 174 0
-2565 -2564 -174 0
2565 -2564 174 0
2565 2564 -174 0
-2566 2565 175 0
-2566 -2565 -175 0
2566 -2565 175 0
2566 2565 -175 0
-2567 2566 180 0
-2567 -2566 -180 0
2567 -2566 180 0
2567 2566 -180 0
-2568 2567 181 0
-2568 -2567 -181 0
2568 -2567 181 0
2568 2567 -181 0
-2569 2568 185 0
-2569 -2568 -185 0
2569 -2568 185 0
2569 2568 -185 0
-2570 2569 188 0
-2570 -2569 -188 0
2570 -2569 188 0
2570 2569 -188 0
-2571 2570 192 0
-2571 -2570 -192 0
2571 -2570 192 0
2571 2570 -192 0
-2572 2571 193 0
-2572 -2571 -193 0
2572 -2571 193 0
2572 2571 -193 0
-2573 2572 195 0
-2573 -2572 -195 0
2573 -2572 195 0
2573 2572 -195 0
-2574 2573 202 0
-2574 -2573 -202 0
2574 -2573 202 0
2574 2573 -202 0
-2575 2574 203 0
-2575 -2574 -203 0
2575 -2574 203 0
2575 2574 -203 0
-2576 2575 206 0
-2576 -2575 -206 0
2576 -2575 206 0
2576 2575 -206 0
-2577 2576 210 0
-2577 -2576 -210 0
2577 -2576 210 0
2577 2576 -210 0
-2578 2577 211 0
-2578 -2577 -211 0
2578 -2577 211 0
2578 2577 -211 0
-2579 2578 212 0
-2579 -2578 -212 0
2579 -2578 212 0
2579 2578 -212 0
-2580 2579 213 0
-2580 -2579 -213 0
2580 -2579 213 0
2580 2579 -213 0
-2581 2580 215 0
-2581 -2580 -215 0
2581 -2580 215 0
2581 2580 -215 0
-2581 0
-2582 47 48 0
-2582 -47 -48 0
2582 -47 48 0
2582 47 -48 0
-2583 2582 52 0
-2583 -2582 -52 0
2583 -2582 52 0
2583 2582 -52 0
-2584 2583 58 0
-2584 -2583 -58 0
2584 -2583 58 0
2584 2583 -58 0
-2585 2584 59 0
-2585 -2584 -59 0
2585 -2584 59 0
2585 2584 -59 0
-2586 2585 60 0
-2586 -2585 -60 0
2586 -2585 60 0
2586 2585 -60 0
-2587 2586 62 0
-2587 -2586 -62 0
2587 -2586 62 0
2587 2586 -62 0
-2588 2587 64 0
-2588 -2587 -64 0
2588 -2587 64 0
2588 2587 -64 0
-2589 2588 65 0
-2589 -2588 -65 0
2589 -2588 65 0
2589 2588 -65 0
-2590 2589 66 0
-2590 -2589 -66 0
2590 -2589 66 0
2590 2589 -66 0
-2591 2590 67 0
-2591 -2590 -67 0
2591 -2590 67 0
2591 2590 -67 0
-2592 2591 69 0
-2592 -2591 -69 0
2592 -2591 69 0
2592 2591 -69 0
-2593 2592 72 0
-2593 -2592 -72 0
2593 -2592 72 0
2593 2592 -72 0
-2594 2593 74 0
-2594 -2593 -74 0
2594 -2593 74 0
2594 2593 -74 0
-2595 2594 75 0
-2595 -2594 -75 0
2595 -2594 75 0
2595 2594 -75 0
-2596 2595 76 0
-2596 -2595 -76 0
2596 -2595 76 0
2596 2595 -76 0
-2597 2596 78 0
-2597 -2596 -78 0
2597 -2596 78 0
2597 2596 -78 0
-2598 2597 79 0
-2598 -2597 -79 0
2598 -2597 79 0
2598 2597 -79 0
-2599 2598 80 0
-2599 -2598 -80 0
2599 -2598 80 0
2599 2598 -80 0
-2600 2599 81 0
-2600 -2599 -81 0
2600 -2599 81 0
2600 2599 -81 0
-2601 2600 83 0
-2601 -2600 -83 0
2601 -2600 83 0
2601 2600 -83 0
-2602 2601 84 0
-2602 -2601 -84 0
2602 -2601 84 0
2602 2601 -84 0
-2603 2602 85 0
-2603 -2602 -85 0
2603 -2602 85 0
2603 2602 -85 0
-2604 2603 86 0
-2604 -2603 -86 0
2604 -2603 86 0
2604 2603 -86 0
-2605 2604 89 0
-2605 -2604 -89 0
2605 -2604 89 0
2605 2604 -89 0
-2606 2605 90 0
-2606 -2605 -90 0
2606 -2605 90 0
2606 2605 -90 0
-2607 2606 91 0
-2607 -2606 -91 0
2607 -2606 91 0
2607 2606 -91 0
-2608 2607 93 0
-2608 -2607 -93 0
2608 -2607 93 0
2608 2607 -93 0
-2609 2608 96 0
-2609 -2608 -96 0
2609 -2608 96 0
2609 2608 -96 0
-2610 2609 99 0
-2610 -2609 -99 0
2610 -2609 99 0
2610 2609 -99 0
-2611 2610 100 0
-2611 -2610 -100 0
2611 -2610 100 0
2611 2610 -100 0
-2612 2611 102 0
-2612 -2611 -102 0
2612 -2611 102 0
2612 2611 -102 0
-2613 2612 105 0
-2613 -2612 -105 0
2613 -2612 105 0
2613 2612 -105 0
-2614 2613 106 0
-2614 -2613 -106 0
2614 -2613 106 0
2614 2613 -106 0
-2615 2614 152 0
-2615 -2614 -152 0
2615 -2614 152 0
2615 2614 -152 0
-2616 2615 155 0
-2616 -2615 -155 0
2616 -2615 155 0
2616 2615 -155 0
-2617 2616 165 0
-2617 -2616 -165 0
2617 -2616 165 0
2617 2616 -165 0
-2618 2617 167 0
-2618 -2617 -167 0
2618 -2617 167 0
2618 2617 -167 0
-2619 2618 172 0
-2619 -2618 -172 0
2619 -2618 172 0
2619 2618 -172 0
-2620 2619 174 0
-2620 -2619 -174 0
2620 -2619 174 0
2620 2619 -174 0
-2621 2620 175 0
-2621 -2620 -175 0
2621 -2620 175 0
2621 2620 -175 0
-2622 2621 177 0
-2622 -2621 -177 0
2622 -2621 177 0
2622 2621 -177 0
-2623 2622 179 0
-2623 -2622 -179 0
2623 -2622 179 0
2623 2622 -179 0
-2624 2623 180 0
-2624 -2623 -180 0
2624 -2623 180 0
2624 2623 -180 0
-2625 2624 181 0
-2625 -2624 -181 0
2625 -2624 181 0
2625 2624 -181 0
-2626 2625 182 0
-2626 -2625 -182 0
2626 -2625 182 0
2626 2625 -182 0
-2627 2626 183 0
-2627 -2626 -183 0
2627 -2626 183 0
2627 2626 -183 0
-2628 2627 184 0
-2628 -2627 -184 0
2628 -2627 184 0
2628 2627 -184 0
-2629 2628 188 0
-2629 -2628 -188 0
2629 -2628 188 0
2629 2628 -188 0
-2630 2629 189 0
-2630 -2629 -189 0
2630 -2629 189 0
2630 2629 -189 0
-2631 2630 190 0
-2631 -2630 -190 0
2631 -2630 190 0
2631 2630 -190 0
-2632 2631 191 0
-2632 -2631 -191 0
2632 -2631 191 0
2632 2631 -191 0
-2633 2632 195 0
-2633 -2632 -195 0
2633 -2632 195 0
2633 2632 -195 0
-2634 2633 196 0
-2634 -2633 -196 0
2634 -2633 196 0
2634 2633 -196 0
-2635 2634 197 0
-2635 -2634 -197 0
2635 -2634 197 0
2635 2634 -197 0
-2636 2635 198 0
-2636 -2635 -198 0
2636 -2635 198 0
2636 2635 -198 0
-2637 2636 199 0
-2637 -2636 -199 0
2637 -2636 199 0
2637 2636 -199 0
-2638 2637 201 0
-2638 -2637 -201 0
2638 -2637 201 0
2638 2637 -201 0
-2639 2638 202 0
-2639 -2638 -202 0
2639 -2638 202 0
2639 2638 -202 0
-2640 2639 203 0
-2640 -2639 -203 0
2640 -2639 203 0
2640 2639 -203 0
-2641 2640 206 0
-2641 -2640 -206 0
2641 -2640 206 0
2641 2640 -206 0
-2642 2641 207 0
-2642 -2641 -207 0
2642 -2641 207 0
2642 2641 -207 0
-2643 2642 208 0
-2643 -2642 -208 0
2643 -2642 208 0
2643 2642 -208 0
-2644 2643 209 0
-2644 -2643 -209 0
2644 -2643 209 0
2644 2643 -209 0
-2645 2644 214 0
-2645 -2644 -214 0
2645 -2644 214 0
2645 2644 -214 0
-2646 2645 215 0
-2646 -2645 -215 0
2646 -2645 215 0
2646 2645 -215 0
-2646 0
-2647 46 48 0
-2647 -46 -48 0
2647 -46 48 0
2647 46 -48 0
-2648 2647 53 0
-2648 -2647 -53 0
2648 -2647 53 0
2648 2647 -53 0
-2649 2648 60 0
-2649 -2648 -60 0
2649 -2648 60 0
2649 2648 -60 0
-2650 2649 62 0
-2650 -2649 -62 0
2650 -2649 62 0
2650 2649 -62 0
-2651 2650 65 0
-2651 -2650 -65 0
2651 -2650 65 0
2651 2650 -65 0
-2652 2651 70 0
-2652 -2651 -70 0
2652 -2651 70 0
2652 2651 -70 0
-2653 2652 73 0
-2653 -2652 -73 0
2653 -2652 73 0
2653 2652 -73 0
-2654 2653 75 0
-2654 -2653 -75 0
2654 -2653 75 0
2654 2653 -75 0
-2655 2654 80 0
-2655 -2654 -80 0
2655 -2654 80 0
2655 2654 -80 0
-2656 2655 82 0
-2656 -2655 -82 0
2656 -2655 82 0
2656 2655 -82 0
-2657 2656 83 0
-2657 -2656 -83 0
2657 -2656 83 0
2657 2656 -83 0
-2658 2657 85 0
-2658 -2657 -85 0
2658 -2657 85 0
2658 2657 -85 0
-2659 2658 87 0
-2659 -2658 -87 0
2659 -2658 87 0
2659 2658 -87 0
-2660 2659 88 0
-2660 -2659 -88 0
2660 -2659 88 0
2660 2659 -88 0
-2661 2660 90 0
-2661 -2660 -90 0
2661 -2660 90 0
2661 2660 -90 0
-2662 2661 94 0
-2662 -2661 -94 0
2662 -2661 94 0
2662 2661 -94 0
-2663 2662 97 0
-2663 -2662 -97 0
2663 -2662 97 0
2663 2662 -97 0
-2664 2663 98 0
-2664 -2663 -98 0
2664 -2663 98 0
2664 2663 -98 0
-2665 2664 99 0
-2665 -2664 -99 0
2665 -2664 99 0
2665 2664 -99 0
-2666 2665 101 0
-2666 -2665 -101 0
2666 -2665 101 0
2666 2665 -101 0
-2667 2666 102 0
-2667 -2666 -102 0
2667 -2666 102 0
2667 2666 -102 0
-2668 2667 103 0
-2668 -2667 -103 0
2668 -2667 103 0
2668 2667 -103 0
-2669 2668 106 0
-2669 -2668 -106 0
2669 -2668 106 0
2669 2668 -106 0
-2670 2669 153 0
-2670 -2669 -153 0
2670 -2669 153 0
2670 2669 -153 0
-2671 2670 156 0
-2671 -2670 -156 0
2671 -2670 156 0
2671 2670 -156 0
-2672 2671 166 0
-2672 -2671 -166 0
2672 -2671 166 0
2672 2671 -166 0
-2673 2672 168 0
-2673 -2672 -168 0
2673 -2672 168 0
2673 2672 -168 0
-2674 2673 169 0
-2674 -2673 -169 0
2674 -2673 169 0
2674 2673 -169 0
-2675 2674 173 0
-2675 -2674 -173 0
2675 -2674 173 0
2675 2674 -173 0
-2676 2675 175 0
-2676 -2675 -175 0
2676 -2675 175 0
2676 2675 -175 0
-2677 2676 176 0
-2677 -2676 -176 0
2677 -2676 176 0
2677 2676 -176 0
-2678 2677 178 0
-2678 -2677 -178 0
2678 -2677 178 0
2678 2677 -178 0
-2679 2678 180 0
-2679 -2678 -180 0
2679 -2678 180 0
2679 2678 -180 0
-2680 2679 182 0
-2680 -2679 -182 0
2680 -2679 182 0
2680 2679 -182 0
-2681 2680 183 0
-2681 -2680 -183 0
2681 -2680 183 0
2681 2680 -183 0
-2682 2681 184 0
-2682 -2681 -184 0
2682 -2681 184 0
2682 2681 -184 0
-2683 2682 185 0
-2683 -2682 -185 0
2683 -2682 185 0
2683 2682 -185 0
-2684 2683 189 0
-2684 -2683 -189 0
2684 -2683 189 0
2684 2683 -189 0
-2685 2684 190 0
-2685 -2684 -190 0
2685 -2684 190 0
2685 2684 -190 0
-2686 2685 191 0
-2686 -2685 -191 0
2686 -2685 191 0
2686 2685 -191 0
-2687 2686 192 0
-2687 -2686 -192 0
2687 -2686 192 0
2687 2686 -192 0
-2688 2687 193 0
-2688 -2687 -193 0
2688 -2687 193 0
2688 2687 -193 0
-2689 2688 196 0
-2689 -2688 -196 0
2689 -2688 196 0
2689 2688 -196 0
-2690 2689 197 0
-2690 -2689 -197 0
2690 -2689 197 0
2690 2689 -197 0
-2691 2690 198 0
-2691 -2690 -198 0
2691 -2690 198 0
2691 2690 -198 0
-2692 2691 200 0
-2692 -2691 -200 0
2692 -2691 200 0
2692 2691 -200 0
-2693 2692 202 0
-2693 -2692 -202 0
2693 -2692 202 0
2693 2692 -202 0
-2694 2693 203 0
-2694 -2693 -203 0
2694 -2693 203 0
2694 2693 -203 0
-2695 2694 204 0
-2695 -2694 -204 0
2695 -2694 204 0
2695 2694 -204 0
-2696 2695 207 0
-2696 -2695 -207 0
2696 -2695 207 0
2696 2695 -207 0
-2697 2696 208 0
-2697 -2696 -208 0
2697 -2696 208 0
2697 2696 -208 0
-2698 2697 209 0
-2698 -2697 -209 0
2698 -2697 209 0
2698 2697 -209 0
-2699 2698 210 0
-2699 -2698 -210 0
2699 -2698 210 0
2699 2698 -210 0
-2700 2699 215 0
-2700 -2699 -215 0
2700 -2699 215 0
2700 2699 -215 0
-2701 2700 216 0
-2701 -2700 -216 0
2701 -2700 216 0
2701 2700 -216 0
-2701 0
-2702 46 52 0
-2702 -46 -52 0
2702 -46 52 0
2702 46 -52 0
-2703 2702 59 0
-2703 -2702 -59 0
2703 -2702 59 0
2703 2702 -59 0
-2704 2703 63 0
-2704 -2703 -63 0
2704 -2703 63 0
2704 2703 -63 0
-2705 2704 65 0
-2705 -2704 -65 0
2705 -2704 65 0
2705 2704 -65 0
-2706 2705 66 0
-2706 -2705 -66 0
2706 -2705 66 0
2706 2705 -66 0
-2707 2706 69 0
-2707 -2706 -69 0
2707 -2706 69 0
2707 2706 -69 0
-2708 2707 71 0
-2708 -2707 -71 0
2708 -2707 71 0
2708 2707 -71 0
-2709 2708 72 0
-2709 -2708 -72 0
2709 -2708 72 0
2709 2708 -72 0
-2710 2709 73 0
-2710 -2709 -73 0
2710 -2709 73 0
2710 2709 -73 0
-2711 2710 80 0
-2711 -2710 -80 0
2711 -2710 80 0
2711 2710 -80 0
-2712 2711 81 0
-2712 -2711 -81 0
2712 -2711 81 0
2712 2711 -81 0
-2713 2712 82 0
-2713 -2712 -82 0
2713 -2712 82 0
2713 2712 -82 0
-2714 2713 83 0
-2714 -2713 -83 0
2714 -2713 83 0
2714 2713 -83 0
-2715 2714 84 0
-2715 -2714 -84 0
2715 -2714 84 0
2715 2714 -84 0
-2716 2715 85 0
-2716 -2715 -85 0
2716 -2715 85 0
2716 2715 -85 0
-2717 2716 86 0
-2717 -2716 -86 0
2717 -2716 86 0
2717 2716 -86 0
-2718 2717 87 0
-2718 -2717 -87 0
2718 -2717 87 0
2718 2717 -87 0
-2719 2718 89 0
-2719 -2718 -89 0
2719 -2718 89 0
2719 2718 -89 0
-2720 2719 90 0
-2720 -2719 -90 0
2720 -2719 90 0
2720 2719 -90 0
-2721 2720 91 0
-2721 -2720 -91 0
2721 -2720 91 0
2721 2720 -91 0
-2722 2721 92 0
-2722 -2721 -92 0
2722 -2721 92 0
2722 2721 -92 0
-2723 2722 97 0
-2723 -2722 -97 0
2723 -2722 97 0
2723 2722 -97 0
-2724 2723 98 0
-2724 -2723 -98 0
2724 -2723 98 0
2724 2723 -98 0
-2725 2724 99 0
-2725 -2724 -99 0
2725 -2724 99 0
2725 2724 -99 0
-2726 2725 101 0
-2726 -2725 -101 0
2726 -2725 101 0
2726 2725 -101 0
-2727 2726 102 0
-2727 -2726 -102 0
2727 -2726 102 0
2727 2726 -102 0
-2728 2727 103 0
-2728 -2727 -103 0
2728 -2727 103 0
2728 2727 -103 0
-2729 2728 104 0
-2729 -2728 -104 0
2729 -2728 104 0
2729 2728 -104 0
-2730 2729 105 0
-2730 -2729 -105 0
2730 -2729 105 0
2730 2729 -105 0
-2731 2730 107 0
-2731 -2730 -107 0
2731 -2730 107 0
2731 2730 -107 0
-2732 2731 108 0
-2732 -2731 -108 0
2732 -2731 108 0
2732 2731 -108 0
-2733 2732 157 0
-2733 -2732 -157 0
2733 -2732 157 0
2733 2732 -157 0
-2734 2733 160 0
-2734 -2733 -160 0
2734 -2733 160 0
2734 2733 -160 0
-2735 2734 165 0
-2735 -2734 -165 0
2735 -2734 165 0
2735 2734 -165 0
-2736 2735 166 0
-2736 -2735 -166 0
2736 -2735 166 0
2736 2735 -166 0
-2737 2736 170 0
-2737 -2736 -170 0
2737 -2736 170 0
2737 2736 -170 0
-2738 2737 172 0
-2738 -2737 -172 0
2738 -2737 172 0
2738 2737 -172 0
-2739 2738 177 0
-2739 -2738 -177 0
2739 -2738 177 0
2739 2738 -177 0
-2740 2739 179 0
-2740 -2739 -179 0
2740 -2739 179 0
2740 2739 -179 0
-2741 2740 182 0
-2741 -2740 -182 0
2741 -2740 182 0
2741 2740 -182 0
-2742 2741 184 0
-2742 -2741 -184 0
2742 -2741 184 0
2742 2741 -184 0
-2743 2742 185 0
-2743 -2742 -185 0
2743 -2742 185 0
2743 2742 -185 0
-2744 2743 186 0
-2744 -2743 -186 0
2744 -2743 186 0
2744 2743 -186 0
-2745 2744 187 0
-2745 -2744 -187 0
2745 -2744 187 0
2745 2744 -187 0
-2746 2745 188 0
-2746 -2745 -188 0
2746 -2745 188 0
2746 2745 -188 0
-2747 2746 189 0
-2747 -2746 -189 0
2747 -2746 189 0
2747 2746 -189 0
-2748 2747 192 0
-2748 -2747 -192 0
2748 -2747 192 0
2748 2747 -192 0
-2749 2748 193 0
-2749 -2748 -193 0
2749 -2748 193 0
2749 2748 -193 0
-2750 2749 194 0
-2750 -2749 -194 0
2750 -2749 194 0
2750 2749 -194 0
-2751 2750 195 0
-2751 -2750 -195 0
2751 -2750 195 0
2751 2750 -195 0
-2752 2751 196 0
-2752 -2751 -196 0
2752 -2751 196 0
2752 2751 -196 0
-2753 2752 200 0
-2753 -2752 -200 0
2753 -2752 200 0
2753 2752 -200 0
-2754 2753 201 0
-2754 -2753 -201 0
2754 -2753 201 0
2754 2753 -201 0
-2755 2754 202 0
-2755 -2754 -202 0
2755 -2754 202 0
2755 2754 -202 0
-2756 2755 203 0
-2756 -2755 -203 0
2756 -2755 203 0
2756 2755 -203 0
-2757 2756 206 0
-2757 -2756 -206 0
2757 -2756 206 0
2757 2756 -206 0
-2758 2757 207 0
-2758 -2757 -207 0
2758 -2757 207 0
2758 2757 -207 0
-2759 2758 208 0
-2759 -2758 -208 0
2759 -2758 208 0
2759 2758 -208 0
-2760 2759 210 0
-2760 -2759 -210 0
2760 -2759 210 0
2760 2759 -210 0
-2761 2760 211 0
-2761 -2760 -211 0
2761 -2760 211 0
2761 2760 -211 0
-2762 2761 212 0
-2762 -2761 -212 0
2762 -2761 212 0
2762 2761 -212 0
-2763 2762 213 0
-2763 -2762 -213 0
2763 -2762 213 0
2763 2762 -213 0
-2764 2763 214 0
-2764 -2763 -214 0
2764 -2763 214 0
2764 2763 -214 0
-2764 0
-2765 47 53 0
-2765 -47 -53 0
2765 -47 53 0
2765 47 -53 0
-2766 2765 60 0
-2766 -2765 -60 0
2766 -2765 60 0
2766 2765 -60 0
-2767 2766 62 0
-2767 -2766 -62 0
2767 -2766 62 0
2767 2766 -62 0
-2768 2767 63 0
-2768 -2767 -63 0
2768 -2767 63 0
2768 2767 -63 0
-2769 2768 65 0
-2769 -2768 -65 0
2769 -2768 65 0
2769 2768 -65 0
-2770 2769 68 0
-2770 -2769 -68 0
2770 -2769 68 0
2770 2769 -68 0
-2771 2770 69 0
-2771 -2770 -69 0
2771 -2770 69 0
2771 2770 -69 0
-2772 2771 71 0
-2772 -2771 -71 0
2772 -2771 71 0
2772 2771 -71 0
-2773 2772 74 0
-2773 -2772 -74 0
2773 -2772 74 0
2773 2772 -74 0
-2774 2773 80 0
-2774 -2773 -80 0
2774 -2773 80 0
2774 2773 -80 0
-2775 2774 89 0
-2775 -2774 -89 0
2775 -2774 89 0
2775 2774 -89 0
-2776 2775 92 0
-2776 -2775 -92 0
2776 -2775 92 0
2776 2775 -92 0
-2777 2776 93 0
-2777 -2776 -93 0
2777 -2776 93 0
2777 2776 -93 0
-2778 2777 101 0
-2778 -2777 -101 0
2778 -2777 101 0
2778 2777 -101 0
-2779 2778 107 0
-2779 -2778 -107 0
2779 -2778 107 0
2779 2778 -107 0
-2780 2779 158 0
-2780 -2779 -158 0
2780 -2779 158 0
2780 2779 -158 0
-2781 2780 161 0
-2781 -2780 -161 0
2781 -2780 161 0
2781 2780 -161 0
-2782 2781 166 0
-2782 -2781 -166 0
2782 -2781 166 0
2782 2781 -166 0
-2783 2782 167 0
-2783 -2782 -167 0
2783 -2782 167 0
2783 2782 -167 0
-2784 2783 171 0
-2784 -2783 -171 0
2784 -2783 171 0
2784 2783 -171 0
-2785 2784 173 0
-2785 -2784 -173 0
2785 -2784 173 0
2785 2784 -173 0
-2786 2785 178 0
-2786 -2785 -178 0
2786 -2785 178 0
2786 2785 -178 0
-2787 2786 180 0
-2787 -2786 -180 0
2787 -2786 180 0
2787 2786 -180 0
-2788 2787 181 0
-2788 -2787 -181 0
2788 -2787 181 0
2788 2787 -181 0
-2789 2788 183 0
-2789 -2788 -183 0
2789 -2788 183 0
2789 2788 -183 0
-2790 2789 185 0
-2790 -2789 -185 0
2790 -2789 185 0
2790 2789 -185 0
-2791 2790 186 0
-2791 -2790 -186 0
2791 -2790 186 0
2791 2790 -186 0
-2792 2791 187 0
-2792 -2791 -187 0
2792 -2791 187 0
2792 2791 -187 0
-2793 2792 188 0
-2793 -2792 -188 0
2793 -2792 188 0
2793 2792 -188 0
-2794 2793 189 0
-2794 -2793 -189 0
2794 -2793 189 0
2794 2793 -189 0
-2795 2794 190 0
-2795 -2794 -190 0
2795 -2794 190 0
2795 2794 -190 0
-2796 2795 194 0
-2796 -2795 -194 0
2796 -2795 194 0
2796 2795 -194 0
-2797 2796 195 0
-2797 -2796 -195 0
2797 -2796 195 0
2797 2796 -195 0
-2798 2797 196 0
-2798 -2797 -196 0
2798 -2797 196 0
2798 2797 -196 0
-2799 2798 197 0
-2799 -2798 -197 0
2799 -2798 197 0
2799 2798 -197 0
-2800 2799 201 0
-2800 -2799 -201 0
2800 -2799 201 0
2800 2799 -201 0
-2801 2800 202 0
-2801 -2800 -202 0
2801 -2800 202 0
2801 2800 -202 0
-2802 2801 203 0
-2802 -2801 -203 0
2802 -2801 203 0
2802 2801 -203 0
-2803 2802 204 0
-2803 -2802 -204 0
2803 -2802 204 0
2803 2802 -204 0
-2804 2803 205 0
-2804 -2803 -205 0
2804 -2803 205 0
2804 2803 -205 0
-2805 2804 207 0
-2805 -2804 -207 0
2805 -2804 207 0
2805 2804 -207 0
-2806 2805 208 0
-2806 -2805 -208 0
2806 -2805 208 0
2806 2805 -208 0
-2807 2806 209 0
-2807 -2806 -209 0
2807 -2806 209 0
2807 2806 -209 0
-2808 2807 212 0
-2808 -2807 -212 0
2808 -2807 212 0
2808 2807 -212 0
-2809 2808 213 0
-2809 -2808 -213 0
2809 -2808 213 0
2809 2808 -213 0
-2810 2809 214 0
-2810 -2809 -214 0
2810 -2809 214 0
2810 2809 -214 0
-2811 2810 215 0
-2811 -2810 -215 0
2811 -2810 215 0
2811 2810 -215 0
-2811 0
-2812 48 54 0
-2812 -48 -54 0
2812 -48 54 0
2812 48 -54 0
-2813 2812 58 0
-2813 -2812 -58 0
2813 -2812 58 0
2813 2812 -58 0
-2814 2813 62 0
-2814 -2813 -62 0
2814 -2813 62 0
2814 2813 -62 0
-2815 2814 64 0
-2815 -2814 -64 0
2815 -2814 64 0
2815 2814 -64 0
-2816 2815 65 0
-2816 -2815 -65 0
2816 -2815 65 0
2816 2815 -65 0
-2817 2816 67 0
-2817 -2816 -67 0
2817 -2816 67 0
2817 2816 -67 0
-2818 2817 69 0
-2818 -2817 -69 0
2818 -2817 69 0
2818 2817 -69 0
-2819 2818 72 0
-2819 -2818 -72 0
2819 -2818 72 0
2819 2818 -72 0
-2820 2819 73 0
-2820 -2819 -73 0
2820 -2819 73 0
2820 2819 -73 0
-2821 2820 75 0
-2821 -2820 -75 0
2821 -2820 75 0
2821 2820 -75 0
-2822 2821 76 0
-2822 -2821 -76 0
2822 -2821 76 0
2822 2821 -76 0
-2823 2822 80 0
-2823 -2822 -80 0
2823 -2822 80 0
2823 2822 -80 0
-2824 2823 83 0
-2824 -2823 -83 0
2824 -2823 83 0
2824 2823 -83 0
-2825 2824 84 0
-2825 -2824 -84 0
2825 -2824 84 0
2825 2824 -84 0
-2826 2825 85 0
-2826 -2825 -85 0
2826 -2825 85 0
2826 2825 -85 0
-2827 2826 88 0
-2827 -2826 -88 0
2827 -2826 88 0
2827 2826 -88 0
-2828 2827 90 0
-2828 -2827 -90 0
2828 -2827 90 0
2828 2827 -90 0
-2829 2828 91 0
-2829 -2828 -91 0
2829 -2828 91 0
2829 2828 -91 0
-2830 2829 93 0
-2830 -2829 -93 0
2830 -2829 93 0
2830 2829 -93 0
-2831 2830 98 0
-2831 -2830 -98 0
2831 -2830 98 0
2831 2830 -98 0
-2832 2831 99 0
-2832 -2831 -99 0
2832 -2831 99 0
2832 2831 -99 0
-2833 2832 101 0
-2833 -2832 -101 0
2833 -2832 101 0
2833 2832 -101 0
-2834 2833 103 0
-2834 -2833 -103 0
2834 -2833 103 0
2834 2833 -103 0
-2835 2834 106 0
-2835 -2834 -106 0
2835 -2834 106 0
2835 2834 -106 0
-2836 2835 108 0
-2836 -2835 -108 0
2836 -2835 108 0
2836 2835 -108 0
-2837 2836 159 0
-2837 -2836 -159 0
2837 -2836 159 0
2837 2836 -159 0
-2838 2837 162 0
-2838 -2837 -162 0
2838 -2837 162 0
2838 2837 -162 0
-2839 2838 167 0
-2839 -2838 -167 0
2839 -2838 167 0
2839 2838 -167 0
-2840 2839 168 0
-2840 -2839 -168 0
2840 -2839 168 0
2840 2839 -168 0
-2841 2840 172 0
-2841 -2840 -172 0
2841 -2840 172 0
2841 2840 -172 0
-2842 2841 174 0
-2842 -2841 -174 0
2842 -2841 174 0
2842 2841 -174 0
-2843 2842 175 0
-2843 -2842 -175 0
2843 -2842 175 0
2843 2842 -175 0
-2844 2843 179 0
-2844 -2843 -179 0
2844 -2843 179 0
2844 2843 -179 0
-2845 2844 181 0
-2845 -2844 -181 0
2845 -2844 181 0
2845 2844 -181 0
-2846 2845 182 0
-2846 -2845 -182 0
2846 -2845 182 0
2846 2845 -182 0
-2847 2846 184 0
-2847 -2846 -184 0
2847 -2846 184 0
2847 2846 -184 0
-2848 2847 186 0
-2848 -2847 -186 0
2848 -2847 186 0
2848 2847 -186 0
-2849 2848 188 0
-2849 -2848 -188 0
2849 -2848 188 0
2849 2848 -188 0
-2850 2849 189 0
-2850 -2849 -189 0
2850 -2849 189 0
2850 2849 -189 0
-2851 2850 190 0
-2851 -2850 -190 0
2851 -2850 190 0
2851 2850 -190 0
-2852 2851 191 0
-2852 -2851 -191 0
2852 -2851 191 0
2852 2851 -191 0
-2853 2852 195 0
-2853 -2852 -195 0
2853 -2852 195 0
2853 2852 -195 0
-2854 2853 196 0
-2854 -2853 -196 0
2854 -2853 196 0
2854 2853 -196 0
-2855 2854 197 0
-2855 -2854 -197 0
2855 -2854 197 0
2855 2854 -197 0
-2856 2855 198 0
-2856 -2855 -198 0
2856 -2855 198 0
2856 2855 -198 0
-2857 2856 199 0
-2857 -2856 -199 0
2857 -2856 199 0
2857 2856 -199 0
-2858 2857 202 0
-2858 -2857 -202 0
2858 -2857 202 0
2858 2857 -202 0
-2859 2858 203 0
-2859 -2858 -203 0
2859 -2858 203 0
2859 2858 -203 0
-2860 2859 204 0
-2860 -2859 -204 0
2860 -2859 204 0
2860 2859 -204 0
-2861 2860 206 0
-2861 -2860 -206 0
2861 -2860 206 0
2861 2860 -206 0
-2862 2861 208 0
-2862 -2861 -208 0
2862 -2861 208 0
2862 2861 -208 0
-2863 2862 209 0
-2863 -2862 -209 0
2863 -2862 209 0
2863 2862 -209 0
-2864 2863 210 0
-2864 -2863 -210 0
2864 -2863 210 0
2864 2863 -210 0
-2865 2864 213 0
-2865 -2864 -213 0
2865 -2864 213 0
2865 2864 -213 0
-2866 2865 214 0
-2866 -2865 -214 0
2866 -2865 214 0
2866 2865 -214 0
-2867 2866 215 0
-2867 -2866 -215 0
2867 -2866 215 0
2867 2866 -215 0
-2868 2867 216 0
-2868 -2867 -216 0
2868 -2867 216 0
2868 2867 -216 0
-2868 0
-2869 62 63 0
-2869 -62 -63 0
2869 -62 63 0
2869 62 -63 0
-2870 2869 65 0
-2870 -2869 -65 0
2870 -2869 65 0
2870 2869 -65 0
-2871 2870 66 0
-2871 -2870 -66 0
2871 -2870 66 0
2871 2870 -66 0
-2872 2871 67 0
-2872 -2871 -67 0
2872 -2871 67 0
2872 2871 -67 0
-2873 2872 68 0
-2873 -2872 -68 0
2873 -2872 68 0
2873 2872 -68 0
-2874 2873 70 0
-2874 -2873 -70 0
2874 -2873 70 0
2874 2873 -70 0
-2875 2874 71 0
-2875 -2874 -71 0
2875 -2874 71 0
2875 2874 -71 0
-2876 2875 80 0
-2876 -2875 -80 0
2876 -2875 80 0
2876 2875 -80 0
-2877 2876 81 0
-2877 -2876 -81 0
2877 -2876 81 0
2877 2876 -81 0
-2878 2877 83 0
-2878 -2877 -83 0
2878 -2877 83 0
2878 2877 -83 0
-2879 2878 84 0
-2879 -2878 -84 0
2879 -2878 84 0
2879 2878 -84 0
-2880 2879 85 0
-2880 -2879 -85 0
2880 -2879 85 0
2880 2879 -85 0
-2881 2880 86 0
-2881 -2880 -86 0
2881 -2880 86 0
2881 2880 -86 0
-2882 2881 88 0
-2882 -2881 -88 0
2882 -2881 88 0
2882 2881 -88 0
-2883 2882 89 0
-2883 -2882 -89 0
2883 -2882 89 0
2883 2882 -89 0
-2884 2883 98 0
-2884 -2883 -98 0
2884 -2883 98 0
2884 2883 -98 0
-2885 2884 99 0
-2885 -2884 -99 0
2885 -2884 99 0
2885 2884 -99 0
-2886 2885 101 0
-2886 -2885 -101 0
2886 -2885 101 0
2886 2885 -101 0
-2887 2886 102 0
-2887 -2886 -102 0
2887 -2886 102 0
2887 2886 -102 0
-2888 2887 103 0
-2888 -2887 -103 0
2888 -2887 103 0
2888 2887 -103 0
-2889 2888 104 0
-2889 -2888 -104 0
2889 -2888 104 0
2889 2888 -104 0
-2890 2889 106 0
-2890 -2889 -106 0
2890 -2889 106 0
2890 2889 -106 0
-2891 2890 107 0
-2891 -2890 -107 0
2891 -2890 107 0
2891 2890 -107 0
-2892 2891 163 0
-2892 -2891 -163 0
2892 -2891 163 0
2892 2891 -163 0
-2893 2892 165 0
-2893 -2892 -165 0
2893 -2892 165 0
2893 2892 -165 0
-2894 2893 166 0
-2894 -2893 -166 0
2894 -2893 166 0
2894 2893 -166 0
-2895 2894 168 0
-2895 -2894 -168 0
2895 -2894 168 0
2895 2894 -168 0
-2896 2895 169 0
-2896 -2895 -169 0
2896 -2895 169 0
2896 2895 -169 0
-2897 2896 170 0
-2897 -2896 -170 0
2897 -2896 170 0
2897 2896 -170 0
-2898 2897 172 0
-2898 -2897 -172 0
2898 -2897 172 0
2898 2897 -172 0
-2899 2898 173 0
-2899 -2898 -173 0
2899 -2898 173 0
2899 2898 -173 0
-2900 2899 176 0
-2900 -2899 -176 0
2900 -2899 176 0
2900 2899 -176 0
-2901 2900 177 0
-2901 -2900 -177 0
2901 -2900 177 0
2901 2900 -177 0
-2902 2901 179 0
-2902 -2901 -179 0
2902 -2901 179 0
2902 2901 -179 0
-2903 2902 180 0
-2903 -2902 -180 0
2903 -2902 180 0
2903 2902 -180 0
-2904 2903 181 0
-2904 -2903 -181 0
2904 -2903 181 0
2904 2903 -181 0
-2905 2904 183 0
-2905 -2904 -183 0
2905 -2904 183 0
2905 2904 -183 0
-2906 2905 184 0
-2906 -2905 -184 0
2906 -2905 184 0
2906 2905 -184 0
-2907 2906 186 0
-2907 -2906 -186 0
2907 -2906 186 0
2907 2906 -186 0
-2908 2907 187 0
-2908 -2907 -187 0
2908 -2907 187 0
2908 2907 -187 0
-2909 2908 188 0
-2909 -2908 -188 0
2909 -2908 188 0
2909 2908 -188 0
-2910 2909 190 0
-2910 -2909 -190 0
2910 -2909 190 0
2910 2909 -190 0
-2911 2910 191 0
-2911 -2910 -191 0
2911 -2910 191 0
2911 2910 -191 0
-2912 2911 194 0
-2912 -2911 -194 0
2912 -2911 194 0
2912 2911 -194 0
-2913 2912 195 0
-2913 -2912 -195 0
2913 -2912 195 0
2913 2912 -195 0
-2914 2913 197 0
-2914 -2913 -197 0
2914 -2913 197 0
2914 2913 -197 0
-2915 2914 198 0
-2915 -2914 -198 0
2915 -2914 198 0
2915 2914 -198 0
-2916 2915 199 0
-2916 -2915 -199 0
2916 -2915 199 0
2916 2915 -199 0
-2917 2916 201 0
-2917 -2916 -201 0
2917 -2916 201 0
2917 2916 -201 0
-2918 2917 202 0
-2918 -2917 -202 0
2918 -2917 202 0
2918 2917 -202 0
-2919 2918 204 0
-2919 -2918 -204 0
2919 -2918 204 0
2919 2918 -204 0
-2920 2919 205 0
-2920 -2919 -205 0
2920 -2919 205 0
2920 2919 -205 0
-2921 2920 206 0
-2921 -2920 -206 0
2921 -2920 206 0
2921 2920 -206 0
-2922 2921 208 0
-2922 -2921 -208 0
2922 -2921 208 0
2922 2921 -208 0
-2923 2922 209 0
-2923 -2922 -209 0
2923 -2922 209 0
2923 2922 -209 0
-2924 2923 212 0
-2924 -2923 -212 0
2924 -2923 212 0
2924 2923 -212 0
-2925 2924 213 0
-2925 -2924 -213 0
2925 -2924 213 0
2925 2924 -213 0
-2926 2925 215 0
-2926 -2925 -215 0
2926 -2925 215 0
2926 2925 -215 0
-2927 2926 216 0
-2927 -2926 -216 0
2927 -2926 216 0
2927 2926 -216 0
-2927 0
-2928 63 66 0
-2928 -63 -66 0
2928 -63 66 0
2928 63 -66 0
-2929 2928 68 0
-2929 -2928 -68 0
2929 -2928 68 0
2929 2928 -68 0
-2930 2929 71 0
-2930 -2929 -71 0
2930 -2929 71 0
2930 2929 -71 0
-2931 2930 81 0
-2931 -2930 -81 0
2931 -2930 81 0
2931 2930 -81 0
-2932 2931 84 0
-2932 -2931 -84 0
2932 -2931 84 0
2932 2931 -84 0
-2933 2932 86 0
-2933 -2932 -86 0
2933 -2932 86 0
2933 2932 -86 0
-2934 2933 89 0
-2934 -2933 -89 0
2934 -2933 89 0
2934 2933 -89 0
-2935 2934 99 0
-2935 -2934 -99 0
2935 -2934 99 0
2935 2934 -99 0
-2936 2935 102 0
-2936 -2935 -102 0
2936 -2935 102 0
2936 2935 -102 0
-2937 2936 104 0
-2937 -2936 -104 0
2937 -2936 104 0
2937 2936 -104 0
-2938 2937 107 0
-2938 -2937 -107 0
2938 -2937 107 0
2938 2937 -107 0
-2939 2938 164 0
-2939 -2938 -164 0
2939 -2938 164 0
2939 2938 -164 0
-2940 2939 165 0
-2940 -2939 -165 0
2940 -2939 165 0
2940 2939 -165 0
-2941 2940 167 0
-2941 -2940 -167 0
2941 -2940 167 0
2941 2940 -167 0
-2942 2941 168 0
-2942 -2941 -168 0
2942 -2941 168 0
2942 2941 -168 0
-2943 2942 169 0
-2943 -2942 -169 0
2943 -2942 169 0
2943 2942 -169 0
-2944 2943 171 0
-2944 -2943 -171 0
2944 -2943 171 0
2944 2943 -171 0
-2945 2944 172 0
-2945 -2944 -172 0
2945 -2944 172 0
2945 2944 -172 0
-2946 2945 174 0
-2946 -2945 -174 0
2946 -2945 174 0
2946 2945 -174 0
-2947 2946 175 0
-2947 -2946 -175 0
2947 -2946 175 0
2947 2946 -175 0
-2948 2947 176 0
-2948 -2947 -176 0
2948 -2947 176 0
2948 2947 -176 0
-2949 2948 178 0
-2949 -2948 -178 0
2949 -2948 178 0
2949 2948 -178 0
-2950 2949 179 0
-2950 -2949 -179 0
2950 -2949 179 0
2950 2949 -179 0
-2951 2950 182 0
-2951 -2950 -182 0
2951 -2950 182 0
2951 2950 -182 0
-2952 2951 183 0
-2952 -2951 -183 0
2952 -2951 183 0
2952 2951 -183 0
-2953 2952 185 0
-2953 -2952 -185 0
2953 -2952 185 0
2953 2952 -185 0
-2954 2953 186 0
-2954 -2953 -186 0
2954 -2953 186 0
2954 2953 -186 0
-2955 2954 187 0
-2955 -2954 -187 0
2955 -2954 187 0
2955 2954 -187 0
-2956 2955 189 0
-2956 -2955 -189 0
2956 -2955 189 0
2956 2955 -189 0
-2957 2956 190 0
-2957 -2956 -190 0
2957 -2956 190 0
2957 2956 -190 0
-2958 2957 192 0
-2958 -2957 -192 0
2958 -2957 192 0
2958 2957 -192 0
-2959 2958 193 0
-2959 -2958 -193 0
2959 -2958 193 0
2959 2958 -193 0
-2960 2959 194 0
-2960 -2959 -194 0
2960 -2959 194 0
2960 2959 -194 0
-2961 2960 196 0
-2961 -2960 -196 0
2961 -2960 196 0
2961 2960 -196 0
-2962 2961 197 0
-2962 -2961 -197 0
2962 -2961 197 0
2962 2961 -197 0
-2963 2962 200 0
-2963 -2962 -200 0
2963 -2962 200 0
2963 2962 -200 0
-2964 2963 201 0
-2964 -2963 -201 0
2964 -2963 201 0
2964 2963 -201 0
-2965 2964 203 0
-2965 -2964 -203 0
2965 -2964 203 0
2965 2964 -203 0
-2966 2965 204 0
-2966 -2965 -204 0
2966 -2965 204 0
2966 2965 -204 0
-2967 2966 205 0
-2967 -2966 -205 0
2967 -2966 205 0
2967 2966 -205 0
-2968 2967 207 0
-2968 -2967 -207 0
2968 -2967 207 0
2968 2967 -207 0
-2969 2968 208 0
-2969 -2968 -208 0
2969 -2968 208 0
2969 2968 -208 0
-2970 2969 210 0
-2970 -2969 -210 0
2970 -2969 210 0
2970 2969 -210 0
-2971 2970 211 0
-2971 -2970 -211 0
2971 -2970 211 0
2971 2970 -211 0
-2972 2971 212 0
-2972 -2971 -212 0
2972 -2971 212 0
2972 2971 -212 0
-2973 2972 214 0
-2973 -2972 -214 0
2973 -2972 214 0
2973 2972 -214 0
-2974 2973 215 0
-2974 -2973 -215 0
2974 -2973 215 0
2974 2973 -215 0
-2974 0
-2975 1 47 0
-2975 -1 -47 0
2975 -1 47 0
2975 1 -47 0
-2976 2975 54 0
-2976 -2975 -54 0
2976 -2975 54 0
2976 2975 -54 0
-2977 2976 59 0
-2977 -2976 -59 0
2977 -2976 59 0
2977 2976 -59 0
-2978 2977 62 0
-2978 -2977 -62 0
2978 -2977 62 0
2978 2977 -62 0
-2979 2978 65 0
-2979 -2978 -65 0
2979 -2978 65 0
2979 2978 -65 0
-2980 2979 67 0
-2980 -2979 -67 0
2980 -2979 67 0
2980 2979 -67 0
-2981 2980 68 0
-2981 -2980 -68 0
2981 -2980 68 0
2981 2980 -68 0
-2982 2981 69 0
-2982 -2981 -69 0
2982 -2981 69 0
2982 2981 -69 0
-2983 2982 70 0
-2983 -2982 -70 0
2983 -2982 70 0
2983 2982 -70 0
-2984 2983 72 0
-2984 -2983 -72 0
2984 -2983 72 0
2984 2983 -72 0
-2985 2984 74 0
-2985 -2984 -74 0
2985 -2984 74 0
2985 2984 -74 0
-2986 2985 77 0
-2986 -2985 -77 0
2986 -2985 77 0
2986 2985 -77 0
-2987 2986 80 0
-2987 -2986 -80 0
2987 -2986 80 0
2987 2986 -80 0
-2988 2987 85 0
-2988 -2987 -85 0
2988 -2987 85 0
2988 2987 -85 0
-2989 2988 87 0
-2989 -2988 -87 0
2989 -2988 87 0
2989 2988 -87 0
-2990 2989 88 0
-2990 -2989 -88 0
2990 -2989 88 0
2990 2989 -88 0
-2991 2990 90 0
-2991 -2990 -90 0
2991 -2990 90 0
2991 2990 -90 0
-2992 2991 92 0
-2992 -2991 -92 0
2992 -2991 92 0
2992 2991 -92 0
-2993 2992 95 0
-2993 -2992 -95 0
2993 -2992 95 0
2993 2992 -95 0
-2994 2993 98 0
-2994 -2993 -98 0
2994 -2993 98 0
2994 2993 -98 0
-2995 2994 101 0
-2995 -2994 -101 0
2995 -2994 101 0
2995 2994 -101 0
-2996 2995 103 0
-2996 -2995 -103 0
2996 -2995 103 0
2996 2995 -103 0
-2997 2996 105 0
-2997 -2996 -105 0
2997 -2996 105 0
2997 2996 -105 0
-2998 2997 106 0
-2998 -2997 -106 0
2998 -2997 106 0
2998 2997 -106 0
-2999 2998 108 0
-2999 -2998 -108 0
2999 -2998 108 0
2999 2998 -108 0
-2999 0
-3000 2 48 0
-3000 -2 -48 0
3000 -2 48 0
3000 2 -48 0
-3001 3000 52 0
-3001 -3000 -52 0
3001 -3000 52 0
3001 3000 -52 0
-3002 3001 58 0
-3002 -3001 -58 0
3002 -3001 58 0
3002 3001 -58 0
-3003 3002 59 0
-3003 -3002 -59 0
3003 -3002 59 0
3003 3002 -59 0
-3004 3003 60 0
-3004 -3003 -60 0
3004 -3003 60 0
3004 3003 -60 0
-3005 3004 63 0
-3005 -3004 -63 0
3005 -3004 63 0
3005 3004 -63 0
-3006 3005 64 0
-3006 -3005 -64 0
3006 -3005 64 0
3006 3005 -64 0
-3007 3006 65 0
-3007 -3006 -65 0
3007 -3006 65 0
3007 3006 -65 0
-3008 3007 66 0
-3008 -3007 -66 0
3008 -3007 66 0
3008 3007 -66 0
-3009 3008 68 0
-3009 -3008 -68 0
3009 -3008 68 0
3009 3008 -68 0
-3010 3009 69 0
-3010 -3009 -69 0
3010 -3009 69 0
3010 3009 -69 0
-3011 3010 70 0
-3011 -3010 -70 0
3011 -3010 70 0
3011 3010 -70 0
-3012 3011 74 0
-3012 -3011 -74 0
3012 -3011 74 0
3012 3011 -74 0
-3013 3012 75 0
-3013 -3012 -75 0
3013 -3012 75 0
3013 3012 -75 0
-3014 3013 76 0
-3014 -3013 -76 0
3014 -3013 76 0
3014 3013 -76 0
-3015 3014 78 0
-3015 -3014 -78 0
3015 -3014 78 0
3015 3014 -78 0
-3016 3015 79 0
-3016 -3015 -79 0
3016 -3015 79 0
3016 3015 -79 0
-3017 3016 81 0
-3017 -3016 -81 0
3017 -3016 81 0
3017 3016 -81 0
-3018 3017 83 0
-3018 -3017 -83 0
3018 -3017 83 0
3018 3017 -83 0
-3019 3018 88 0
-3019 -3018 -88 0
3019 -3018 88 0
3019 3018 -88 0
-3020 3019 89 0
-3020 -3019 -89 0
3020 -3019 89 0
3020 3019 -89 0
-3021 3020 91 0
-3021 -3020 -91 0
3021 -3020 91 0
3021 3020 -91 0
-3022 3021 92 0
-3022 -3021 -92 0
3022 -3021 92 0
3022 3021 -92 0
-3023 3022 93 0
-3023 -3022 -93 0
3023 -3022 93 0
3023 3022 -93 0
-3024 3023 96 0
-3024 -3023 -96 0
3024 -3023 96 0
3024 3023 -96 0
-3025 3024 98 0
-3025 -3024 -98 0
3025 -3024 98 0
3025 3024 -98 0
-3026 3025 99 0
-3026 -3025 -99 0
3026 -3025 99 0
3026 3025 -99 0
-3027 3026 100 0
-3027 -3026 -100 0
3027 -3026 100 0
3027 3026 -100 0
-3028 3027 102 0
-3028 -3027 -102 0
3028 -3027 102 0
3028 3027 -102 0
-3029 3028 103 0
-3029 -3028 -103 0
3029 -3028 103 0
3029 3028 -103 0
-3030 3029 104 0
-3030 -3029 -104 0
3030 -3029 104 0
3030 3029 -104 0
-3030 0
-3031 3 46 0
-3031 -3 -46 0
3031 -3 46 0
3031 3 -46 0
-3032 3031 53 0
-3032 -3031 -53 0
3032 -3031 53 0
3032 3031 -53 0
-3033 3032 60 0
-3033 -3032 -60 0
3033 -3032 60 0
3033 3032 -60 0
-3034 3033 62 0
-3034 -3033 -62 0
3034 -3033 62 0
3034 3033 -62 0
-3035 3034 63 0
-3035 -3034 -63 0
3035 -3034 63 0
3035 3034 -63 0
-3036 3035 64 0
-3036 -3035 -64 0
3036 -3035 64 0
3036 3035 -64 0
-3037 3036 65 0
-3037 -3036 -65 0
3037 -3036 65 0
3037 3036 -65 0
-3038 3037 67 0
-3038 -3037 -67 0
3038 -3037 67 0
3038 3037 -67 0
-3039 3038 68 0
-3039 -3038 -68 0
3039 -3038 68 0
3039 3038 -68 0
-3040 3039 69 0
-3040 -3039 -69 0
3040 -3039 69 0
3040 3039 -69 0
-3041 3040 70 0
-3041 -3040 -70 0
3041 -3040 70 0
3041 3040 -70 0
-3042 3041 71 0
-3042 -3041 -71 0
3042 -3041 71 0
3042 3041 -71 0
-3043 3042 73 0
-3043 -3042 -73 0
3043 -3042 73 0
3043 3042 -73 0
-3044 3043 75 0
-3044 -3043 -75 0
3044 -3043 75 0
3044 3043 -75 0
-3045 3044 79 0
-3045 -3044 -79 0
3045 -3044 79 0
3045 3044 -79 0
-3046 3045 80 0
-3046 -3045 -80 0
3046 -3045 80 0
3046 3045 -80 0
-3047 3046 81 0
-3047 -3046 -81 0
3047 -3046 81 0
3047 3046 -81 0
-3048 3047 82 0
-3048 -3047 -82 0
3048 -3047 82 0
3048 3047 -82 0
-3049 3048 83 0
-3049 -3048 -83 0
3049 -3048 83 0
3049 3048 -83 0
-3050 3049 86 0
-3050 -3049 -86 0
3050 -3049 86 0
3050 3049 -86 0
-3051 3050 88 0
-3051 -3050 -88 0
3051 -3050 88 0
3051 3050 -88 0
-3052 3051 89 0
-3052 -3051 -89 0
3052 -3051 89 0
3052 3051 -89 0
-3053 3052 90 0
-3053 -3052 -90 0
3053 -3052 90 0
3053 3052 -90 0
-3054 3053 93 0
-3054 -3053 -93 0
3054 -3053 93 0
3054 3053 -93 0
-3055 3054 94 0
-3055 -3054 -94 0
3055 -3054 94 0
3055 3054 -94 0
-3056 3055 97 0
-3056 -3055 -97 0
3056 -3055 97 0
3056 3055 -97 0
-3057 3056 98 0
-3057 -3056 -98 0
3057 -3056 98 0
3057 3056 -98 0
-3058 3057 101 0
-3058 -3057 -101 0
3058 -3057 101 0
3058 3057 -101 0
-3059 3058 102 0
-3059 -3058 -102 0
3059 -3058 102 0
3059 3058 -102 0
-3060 3059 103 0
-3060 -3059 -103 0
3060 -3059 103 0
3060 3059 -103 0
-3061 3060 104 0
-3061 -3060 -104 0
3061 -3060 104 0
3061 3060 -104 0
-3062 3061 105 0
-3062 -3061 -105 0
3062 -3061 105 0
3062 3061 -105 0
-3063 3062 107 0
-3063 -3062 -107 0
3063 -3062 107 0
3063 3062 -107 0
-3063 0
-3064 4 47 0
-3064 -4 -47 0
3064 -4 47 0
3064 4 -47 0
-3065 3064 54 0
-3065 -3064 -54 0
3065 -3064 54 0
3065 3064 -54 0
-3066 3065 58 0
-3066 -3065 -58 0
3066 -3065 58 0
3066 3065 -58 0
-3067 3066 62 0
-3067 -3066 -62 0
3067 -3066 62 0
3067 3066 -62 0
-3068 3067 64 0
-3068 -3067 -64 0
3068 -3067 64 0
3068 3067 -64 0
-3069 3068 67 0
-3069 -3068 -67 0
3069 -3068 67 0
3069 3068 -67 0
-3070 3069 68 0
-3070 -3069 -68 0
3070 -3069 68 0
3070 3069 -68 0
-3071 3070 69 0
-3071 -3070 -69 0
3071 -3070 69 0
3071 3070 -69 0
-3072 3071 71 0
-3072 -3071 -71 0
3072 -3071 71 0
3072 3071 -71 0
-3073 3072 72 0
-3073 -3072 -72 0
3073 -3072 72 0
3073 3072 -72 0
-3074 3073 73 0
-3074 -3073 -73 0
3074 -3073 73 0
3074 3073 -73 0
-3075 3074 74 0
-3075 -3074 -74 0
3075 -3074 74 0
3075 3074 -74 0
-3076 3075 82 0
-3076 -3075 -82 0
3076 -3075 82 0
3076 3075 -82 0
-3077 3076 87 0
-3077 -3076 -87 0
3077 -3076 87 0
3077 3076 -87 0
-3078 3077 88 0
-3078 -3077 -88 0
3078 -3077 88 0
3078 3077 -88 0
-3079 3078 89 0
-3079 -3078 -89 0
3079 -3078 89 0
3079 3078 -89 0
-3080 3079 90 0
-3080 -3079 -90 0
3080 -3079 90 0
3080 3079 -90 0
-3081 3080 91 0
-3081 -3080 -91 0
3081 -3080 91 0
3081 3080 -91 0
-3082 3081 95 0
-3082 -3081 -95 0
3082 -3081 95 0
3082 3081 -95 0
-3083 3082 97 0
-3083 -3082 -97 0
3083 -3082 97 0
3083 3082 -97 0
-3084 3083 101 0
-3084 -3083 -101 0
3084 -3083 101 0
3084 3083 -101 0
-3085 3084 103 0
-3085 -3084 -103 0
3085 -3084 103 0
3085 3084 -103 0
-3086 3085 104 0
-3086 -3085 -104 0
3086 -3085 104 0
3086 3085 -104 0
-3087 3086 105 0
-3087 -3086 -105 0
3087 -3086 105 0
3087 3086 -105 0
-3088 3087 108 0
-3088 -3087 -108 0
3088 -3087 108 0
3088 3087 -108 0
-3088 0
-3089 5 48 0
-3089 -5 -48 0
3089 -5 48 0
3089 5 -48 0
-3090 3089 52 0
-3090 -3089 -52 0
3090 -3089 52 0
3090 3089 -52 0
-3091 3090 58 0
-3091 -3090 -58 0
3091 -3090 58 0
3091 3090 -58 0
-3092 3091 63 0
-3092 -3091 -63 0
3092 -3091 63 0
3092 3091 -63 0
-3093 3092 64 0
-3093 -3092 -64 0
3093 -3092 64 0
3093 3092 -64 0
-3094 3093 68 0
-3094 -3093 -68 0
3094 -3093 68 0
3094 3093 -68 0
-3095 3094 69 0
-3095 -3094 -69 0
3095 -3094 69 0
3095 3094 -69 0
-3096 3095 70 0
-3096 -3095 -70 0
3096 -3095 70 0
3096 3095 -70 0
-3097 3096 71 0
-3097 -3096 -71 0
3097 -3096 71 0
3097 3096 -71 0
-3098 3097 72 0
-3098 -3097 -72 0
3098 -3097 72 0
3098 3097 -72 0
-3099 3098 75 0
-3099 -3098 -75 0
3099 -3098 75 0
3099 3098 -75 0
-3100 3099 76 0
-3100 -3099 -76 0
3100 -3099 76 0
3100 3099 -76 0
-3101 3100 79 0
-3101 -3100 -79 0
3101 -3100 79 0
3101 3100 -79 0
-3102 3101 86 0
-3102 -3101 -86 0
3102 -3101 86 0
3102 3101 -86 0
-3103 3102 88 0
-3103 -3102 -88 0
3103 -3102 88 0
3103 3102 -88 0
-3104 3103 89 0
-3104 -3103 -89 0
3104 -3103 89 0
3104 3103 -89 0
-3105 3104 90 0
-3105 -3104 -90 0
3105 -3104 90 0
3105 3104 -90 0
-3106 3105 91 0
-3106 -3105 -91 0
3106 -3105 91 0
3106 3105 -91 0
-3107 3106 96 0
-3107 -3106 -96 0
3107 -3106 96 0
3107 3106 -96 0
-3108 3107 100 0
-3108 -3107 -100 0
3108 -3107 100 0
3108 3107 -100 0
-3109 3108 102 0
-3109 -3108 -102 0
3109 -3108 102 0
3109 3108 -102 0
-3110 3109 103 0
-3110 -3109 -103 0
3110 -3109 103 0
3110 3109 -103 0
-3111 3110 104 0
-3111 -3110 -104 0
3111 -3110 104 0
3111 3110 -104 0
-3112 3111 105 0
-3112 -3111 -105 0
3112 -3111 105 0
3112 3111 -105 0
-3113 3112 107 0
-3113 -3112 -107 0
3113 -3112 107 0
3113 3112 -107 0
-3113 0
-3114 6 46 0
-3114 -6 -46 0
3114 -6 46 0
3114 6 -46 0
-3115 3114 53 0
-3115 -3114 -53 0
3115 -3114 53 0
3115 3114 -53 0
-3116 3115 58 0
-3116 -3115 -58 0
3116 -3115 58 0
3116 3115 -58 0
-3117 3116 62 0
-3117 -3116 -62 0
3117 -3116 62 0
3117 3116 -62 0
-3118 3117 63 0
-3118 -3117 -63 0
3118 -3117 63 0
3118 3117 -63 0
-3119 3118 65 0
-3119 -3118 -65 0
3119 -3118 65 0
3119 3118 -65 0
-3120 3119 66 0
-3120 -3119 -66 0
3120 -3119 66 0
3120 3119 -66 0
-3121 3120 70 0
-3121 -3120 -70 0
3121 -3120 70 0
3121 3120 -70 0
-3122 3121 73 0
-3122 -3121 -73 0
3122 -3121 73 0
3122 3121 -73 0
-3123 3122 76 0
-3123 -3122 -76 0
3123 -3122 76 0
3123 3122 -76 0
-3124 3123 80 0
-3124 -3123 -80 0
3124 -3123 80 0
3124 3123 -80 0
-3125 3124 81 0
-3125 -3124 -81 0
3125 -3124 81 0
3125 3124 -81 0
-3126 3125 82 0
-3126 -3125 -82 0
3126 -3125 82 0
3126 3125 -82 0
-3127 3126 83 0
-3127 -3126 -83 0
3127 -3126 83 0
3127 3126 -83 0
-3128 3127 84 0
-3128 -3127 -84 0
3128 -3127 84 0
3128 3127 -84 0
-3129 3128 85 0
-3129 -3128 -85 0
3129 -3128 85 0
3129 3128 -85 0
-3130 3129 88 0
-3130 -3129 -88 0
3130 -3129 88 0
3130 3129 -88 0
-3131 3130 91 0
-3131 -3130 -91 0
3131 -3130 91 0
3131 3130 -91 0
-3132 3131 94 0
-3132 -3131 -94 0
3132 -3131 94 0
3132 3131 -94 0
-3133 3132 98 0
-3133 -3132 -98 0
3133 -3132 98 0
3133 3132 -98 0
-3134 3133 99 0
-3134 -3133 -99 0
3134 -3133 99 0
3134 3133 -99 0
-3135 3134 101 0
-3135 -3134 -101 0
3135 -3134 101 0
3135 3134 -101 0
-3136 3135 102 0
-3136 -3135 -102 0
3136 -3135 102 0
3136 3135 -102 0
-3137 3136 103 0
-3137 -3136 -103 0
3137 -3136 103 0
3137 3136 -103 0
-3138 3137 106 0
-3138 -3137 -106 0
3138 -3137 106 0
3138 3137 -106 0
-3138 0
-3139 7 46 0
-3139 -7 -46 0
3139 -7 46 0
3139 7 -46 0
-3140 3139 58 0
-3140 -3139 -58 0
3140 -3139 58 0
3140 3139 -58 0
-3141 3140 63 0
-3141 -3140 -63 0
3141 -3140 63 0
3141 3140 -63 0
-3142 3141 65 0
-3142 -3141 -65 0
3142 -3141 65 0
3142 3141 -65 0
-3143 3142 66 0
-3143 -3142 -66 0
3143 -3142 66 0
3143 3142 -66 0
-3144 3143 70 0
-3144 -3143 -70 0
3144 -3143 70 0
3144 3143 -70 0
-3145 3144 73 0
-3145 -3144 -73 0
3145 -3144 73 0
3145 3144 -73 0
-3146 3145 74 0
-3146 -3145 -74 0
3146 -3145 74 0
3146 3145 -74 0
-3147 3146 76 0
-3147 -3146 -76 0
3147 -3146 76 0
3147 3146 -76 0
-3148 3147 80 0
-3148 -3147 -80 0
3148 -3147 80 0
3148 3147 -80 0
-3149 3148 81 0
-3149 -3148 -81 0
3149 -3148 81 0
3149 3148 -81 0
-3150 3149 82 0
-3150 -3149 -82 0
3150 -3149 82 0
3150 3149 -82 0
-3151 3150 83 0
-3151 -3150 -83 0
3151 -3150 83 0
3151 3150 -83 0
-3152 3151 84 0
-3152 -3151 -84 0
3152 -3151 84 0
3152 3151 -84 0
-3153 3152 85 0
-3153 -3152 -85 0
3153 -3152 85 0
3153 3152 -85 0
-3154 3153 88 0
-3154 -3153 -88 0
3154 -3153 88 0
3154 3153 -88 0
-3155 3154 89 0
-3155 -3154 -89 0
3155 -3154 89 0
3155 3154 -89 0
-3156 3155 91 0
-3156 -3155 -91 0
3156 -3155 91 0
3156 3155 -91 0
-3157 3156 94 0
-3157 -3156 -94 0
3157 -3156 94 0
3157 3156 -94 0
-3158 3157 98 0
-3158 -3157 -98 0
3158 -3157 98 0
3158 3157 -98 0
-3159 3158 99 0
-3159 -3158 -99 0
3159 -3158 99 0
3159 3158 -99 0
-3160 3159 101 0
-3160 -3159 -101 0
3160 -3159 101 0
3160 3159 -101 0
-3161 3160 102 0
-3161 -3160 -102 0
3161 -3160 102 0
3161 3160 -102 0
-3162 3161 103 0
-3162 -3161 -103 0
3162 -3161 103 0
3162 3161 -103 0
-3163 3162 106 0
-3163 -3162 -106 0
3163 -3162 106 0
3163 3162 -106 0
-3163 0
-3164 8 47 0
-3164 -8 -47 0
3164 -8 47 0
3164 8 -47 0
-3165 3164 59 0
-3165 -3164 -59 0
3165 -3164 59 0
3165 3164 -59 0
-3166 3165 62 0
-3166 -3165 -62 0
3166 -3165 62 0
3166 3165 -62 0
-3167 3166 63 0
-3167 -3166 -63 0
3167 -3166 63 0
3167 3166 -63 0
-3168 3167 65 0
-3168 -3167 -65 0
3168 -3167 65 0
3168 3167 -65 0
-3169 3168 67 0
-3169 -3168 -67 0
3169 -3168 67 0
3169 3168 -67 0
-3170 3169 68 0
-3170 -3169 -68 0
3170 -3169 68 0
3170 3169 -68 0
-3171 3170 69 0
-3171 -3170 -69 0
3171 -3170 69 0
3171 3170 -69 0
-3172 3171 70 0
-3172 -3171 -70 0
3172 -3171 70 0
3172 3171 -70 0
-3173 3172 72 0
-3173 -3172 -72 0
3173 -3172 72 0
3173 3172 -72 0
-3174 3173 74 0
-3174 -3173 -74 0
3174 -3173 74 0
3174 3173 -74 0
-3175 3174 75 0
-3175 -3174 -75 0
3175 -3174 75 0
3175 3174 -75 0
-3176 3175 77 0
-3176 -3175 -77 0
3176 -3175 77 0
3176 3175 -77 0
-3177 3176 80 0
-3177 -3176 -80 0
3177 -3176 80 0
3177 3176 -80 0
-3178 3177 85 0
-3178 -3177 -85 0
3178 -3177 85 0
3178 3177 -85 0
-3179 3178 87 0
-3179 -3178 -87 0
3179 -3178 87 0
3179 3178 -87 0
-3180 3179 88 0
-3180 -3179 -88 0
3180 -3179 88 0
3180 3179 -88 0
-3181 3180 92 0
-3181 -3180 -92 0
3181 -3180 92 0
3181 3180 -92 0
-3182 3181 95 0
-3182 -3181 -95 0
3182 -3181 95 0
3182 3181 -95 0
-3183 3182 98 0
-3183 -3182 -98 0
3183 -3182 98 0
3183 3182 -98 0
-3184 3183 101 0
-3184 -3183 -101 0
3184 -3183 101 0
3184 3183 -101 0
-3185 3184 103 0
-3185 -3184 -103 0
3185 -3184 103 0
3185 3184 -103 0
-3186 3185 105 0
-3186 -3185 -105 0
3186 -3185 105 0
3186 3185 -105 0
-3187 3186 106 0
-3187 -3186 -106 0
3187 -3186 106 0
3187 3186 -106 0
-3188 3187 108 0
-3188 -3187 -108 0
3188 -3187 108 0
3188 3187 -108 0
-3188 0
-3189 9 48 0
-3189 -9 -48 0
3189 -9 48 0
3189 9 -48 0
-3190 3189 60 0
-3190 -3189 -60 0
3190 -3189 60 0
3190 3189 -60 0
-3191 3190 63 0
-3191 -3190 -63 0
3191 -3190 63 0
3191 3190 -63 0
-3192 3191 64 0
-3192 -3191 -64 0
3192 -3191 64 0
3192 3191 -64 0
-3193 3192 66 0
-3193 -3192 -66 0
3193 -3192 66 0
3193 3192 -66 0
-3194 3193 67 0
-3194 -3193 -67 0
3194 -3193 67 0
3194 3193 -67 0
-3195 3194 68 0
-3195 -3194 -68 0
3195 -3194 68 0
3195 3194 -68 0
-3196 3195 69 0
-3196 -3195 -69 0
3196 -3195 69 0
3196 3195 -69 0
-3197 3196 70 0
-3197 -3196 -70 0
3197 -3196 70 0
3197 3196 -70 0
-3198 3197 71 0
-3198 -3197 -71 0
3198 -3197 71 0
3198 3197 -71 0
-3199 3198 75 0
-3199 -3198 -75 0
3199 -3198 75 0
3199 3198 -75 0
-3200 3199 76 0
-3200 -3199 -76 0
3200 -3199 76 0
3200 3199 -76 0
-3201 3200 78 0
-3201 -3200 -78 0
3201 -3200 78 0
3201 3200 -78 0
-3202 3201 81 0
-3202 -3201 -81 0
3202 -3201 81 0
3202 3201 -81 0
-3203 3202 86 0
-3203 -3202 -86 0
3203 -3202 86 0
3203 3202 -86 0
-3204 3203 88 0
-3204 -3203 -88 0
3204 -3203 88 0
3204 3203 -88 0
-3205 3204 89 0
-3205 -3204 -89 0
3205 -3204 89 0
3205 3204 -89 0
-3206 3205 93 0
-3206 -3205 -93 0
3206 -3205 93 0
3206 3205 -93 0
-3207 3206 96 0
-3207 -3206 -96 0
3207 -3206 96 0
3207 3206 -96 0
-3208 3207 99 0
-3208 -3207 -99 0
3208 -3207 99 0
3208 3207 -99 0
-3209 3208 102 0
-3209 -3208 -102 0
3209 -3208 102 0
3209 3208 -102 0
-3210 3209 103 0
-3210 -3209 -103 0
3210 -3209 103 0
3210 3209 -103 0
-3211 3210 104 0
-3211 -3210 -104 0
3211 -3210 104 0
3211 3210 -104 0
-3212 3211 106 0
-3212 -3211 -106 0
3212 -3211 106 0
3212 3211 -106 0
-3213 3212 107 0
-3213 -3212 -107 0
3213 -3212 107 0
3213 3212 -107 0
-3213 0
-3214 10 46 0
-3214 -10 -46 0
3214 -10 46 0
3214 10 -46 0
-3215 3214 59 0
-3215 -3214 -59 0
3215 -3214 59 0
3215 3214 -59 0
-3216 3215 62 0
-3216 -3215 -62 0
3216 -3215 62 0
3216 3215 -62 0
-3217 3216 63 0
-3217 -3216 -63 0
3217 -3216 63 0
3217 3216 -63 0
-3218 3217 64 0
-3218 -3217 -64 0
3218 -3217 64 0
3218 3217 -64 0
-3219 3218 65 0
-3219 -3218 -65 0
3219 -3218 65 0
3219 3218 -65 0
-3220 3219 66 0
-3220 -3219 -66 0
3220 -3219 66 0
3220 3219 -66 0
-3221 3220 67 0
-3221 -3220 -67 0
3221 -3220 67 0
3221 3220 -67 0
-3222 3221 69 0
-3222 -3221 -69 0
3222 -3221 69 0
3222 3221 -69 0
-3223 3222 70 0
-3223 -3222 -70 0
3223 -3222 70 0
3223 3222 -70 0
-3224 3223 71 0
-3224 -3223 -71 0
3224 -3223 71 0
3224 3223 -71 0
-3225 3224 72 0
-3225 -3224 -72 0
3225 -3224 72 0
3225 3224 -72 0
-3226 3225 73 0
-3226 -3225 -73 0
3226 -3225 73 0
3226 3225 -73 0
-3227 3226 79 0
-3227 -3226 -79 0
3227 -3226 79 0
3227 3226 -79 0
-3228 3227 81 0
-3228 -3227 -81 0
3228 -3227 81 0
3228 3227 -81 0
-3229 3228 82 0
-3229 -3228 -82 0
3229 -3228 82 0
3229 3228 -82 0
-3230 3229 83 0
-3230 -3229 -83 0
3230 -3229 83 0
3230 3229 -83 0
-3231 3230 84 0
-3231 -3230 -84 0
3231 -3230 84 0
3231 3230 -84 0
-3232 3231 86 0
-3232 -3231 -86 0
3232 -3231 86 0
3232 3231 -86 0
-3233 3232 87 0
-3233 -3232 -87 0
3233 -3232 87 0
3233 3232 -87 0
-3234 3233 88 0
-3234 -3233 -88 0
3234 -3233 88 0
3234 3233 -88 0
-3235 3234 89 0
-3235 -3234 -89 0
3235 -3234 89 0
3235 3234 -89 0
-3236 3235 90 0
-3236 -3235 -90 0
3236 -3235 90 0
3236 3235 -90 0
-3237 3236 92 0
-3237 -3236 -92 0
3237 -3236 92 0
3237 3236 -92 0
-3238 3237 94 0
-3238 -3237 -94 0
3238 -3237 94 0
3238 3237 -94 0
-3239 3238 97 0
-3239 -3238 -97 0
3239 -3238 97 0
3239 3238 -97 0
-3240 3239 98 0
-3240 -3239 -98 0
3240 -3239 98 0
3240 3239 -98 0
-3241 3240 99 0
-3241 -3240 -99 0
3241 -3240 99 0
3241 3240 -99 0
-3242 3241 102 0
-3242 -3241 -102 0
3242 -3241 102 0
3242 3241 -102 0
-3243 3242 103 0
-3243 -3242 -103 0
3243 -3242 103 0
3243 3242 -103 0
-3244 3243 104 0
-3244 -3243 -104 0
3244 -3243 104 0
3244 3243 -104 0
-3245 3244 105 0
-3245 -3244 -105 0
3245 -3244 105 0
3245 3244 -105 0
-3246 3245 108 0
-3246 -3245 -108 0
3246 -3245 108 0
3246 3245 -108 0
-3246 0
-3247 11 47 0
-3247 -11 -47 0
3247 -11 47 0
3247 11 -47 0
-3248 3247 60 0
-3248 -3247 -60 0
3248 -3247 60 0
3248 3247 -60 0
-3249 3248 62 0
-3249 -3248 -62 0
3249 -3248 62 0
3249 3248 -62 0
-3250 3249 69 0
-3250 -3249 -69 0
3250 -3249 69 0
3250 3249 -69 0
-3251 3250 74 0
-3251 -3250 -74 0
3251 -3250 74 0
3251 3250 -74 0
-3252 3251 81 0
-3252 -3251 -81 0
3252 -3251 81 0
3252 3251 -81 0
-3253 3252 86 0
-3253 -3252 -86 0
3253 -3252 86 0
3253 3252 -86 0
-3254 3253 93 0
-3254 -3253 -93 0
3254 -3253 93 0
3254 3253 -93 0
-3255 3254 95 0
-3255 -3254 -95 0
3255 -3254 95 0
3255 3254 -95 0
-3256 3255 101 0
-3256 -3255 -101 0
3256 -3255 101 0
3256 3255 -101 0
-3257 3256 102 0
-3257 -3256 -102 0
3257 -3256 102 0
3257 3256 -102 0
-3258 3257 107 0
-3258 -3257 -107 0
3258 -3257 107 0
3258 3257 -107 0
-3259 3258 108 0
-3259 -3258 -108 0
3259 -3258 108 0
3259 3258 -108 0
-3259 0
-3260 12 48 0
-3260 -12 -48 0
3260 -12 48 0
3260 12 -48 0
-3261 3260 58 0
-3261 -3260 -58 0
3261 -3260 58 0
3261 3260 -58 0
-3262 3261 62 0
-3262 -3261 -62 0
3262 -3261 62 0
3262 3261 -62 0
-3263 3262 65 0
-3263 -3262 -65 0
3263 -3262 65 0
3263 3262 -65 0
-3264 3263 66 0
-3264 -3263 -66 0
3264 -3263 66 0
3264 3263 -66 0
-3265 3264 67 0
-3265 -3264 -67 0
3265 -3264 67 0
3265 3264 -67 0
-3266 3265 73 0
-3266 -3265 -73 0
3266 -3265 73 0
3266 3265 -73 0
-3267 3266 75 0
-3267 -3266 -75 0
3267 -3266 75 0
3267 3266 -75 0
-3268 3267 76 0
-3268 -3267 -76 0
3268 -3267 76 0
3268 3267 -76 0
-3269 3268 80 0
-3269 -3268 -80 0
3269 -3268 80 0
3269 3268 -80 0
-3270 3269 81 0
-3270 -3269 -81 0
3270 -3269 81 0
3270 3269 -81 0
-3271 3270 82 0
-3271 -3270 -82 0
3271 -3270 82 0
3271 3270 -82 0
-3272 3271 83 0
-3272 -3271 -83 0
3272 -3271 83 0
3272 3271 -83 0
-3273 3272 84 0
-3273 -3272 -84 0
3273 -3272 84 0
3273 3272 -84 0
-3274 3273 85 0
-3274 -3273 -85 0
3274 -3273 85 0
3274 3273 -85 0
-3275 3274 87 0
-3275 -3274 -87 0
3275 -3274 87 0
3275 3274 -87 0
-3276 3275 88 0
-3276 -3275 -88 0
3276 -3275 88 0
3276 3275 -88 0
-3277 3276 91 0
-3277 -3276 -91 0
3277 -3276 91 0
3277 3276 -91 0
-3278 3277 96 0
-3278 -3277 -96 0
3278 -3277 96 0
3278 3277 -96 0
-3279 3278 97 0
-3279 -3278 -97 0
3279 -3278 97 0
3279 3278 -97 0
-3280 3279 98 0
-3280 -3279 -98 0
3280 -3279 98 0
3280 3279 -98 0
-3281 3280 99 0
-3281 -3280 -99 0
3281 -3280 99 0
3281 3280 -99 0
-3282 3281 101 0
-3282 -3281 -101 0
3282 -3281 101 0
3282 3281 -101 0
-3283 3282 106 0
-3283 -3282 -106 0
3283 -3282 106 0
3283 3282 -106 0
-3284 3283 108 0
-3284 -3283 -108 0
3284 -3283 108 0
3284 3283 -108 0
-3284 0
-3285 13 52 0
-3285 -13 -52 0
3285 -13 52 0
3285 13 -52 0
-3286 3285 62 0
-3286 -3285 -62 0
3286 -3285 62 0
3286 3285 -62 0
-3287 3286 63 0
-3287 -3286 -63 0
3287 -3286 63 0
3287 3286 -63 0
-3288 3287 64 0
-3288 -3287 -64 0
3288 -3287 64 0
3288 3287 -64 0
-3289 3288 65 0
-3289 -3288 -65 0
3289 -3288 65 0
3289 3288 -65 0
-3290 3289 66 0
-3290 -3289 -66 0
3290 -3289 66 0
3290 3289 -66 0
-3291 3290 67 0
-3291 -3290 -67 0
3291 -3290 67 0
3291 3290 -67 0
-3292 3291 69 0
-3292 -3291 -69 0
3292 -3291 69 0
3292 3291 -69 0
-3293 3292 70 0
-3293 -3292 -70 0
3293 -3292 70 0
3293 3292 -70 0
-3294 3293 71 0
-3294 -3293 -71 0
3294 -3293 71 0
3294 3293 -71 0
-3295 3294 72 0
-3295 -3294 -72 0
3295 -3294 72 0
3295 3294 -72 0
-3296 3295 73 0
-3296 -3295 -73 0
3296 -3295 73 0
3296 3295 -73 0
-3297 3296 79 0
-3297 -3296 -79 0
3297 -3296 79 0
3297 3296 -79 0
-3298 3297 81 0
-3298 -3297 -81 0
3298 -3297 81 0
3298 3297 -81 0
-3299 3298 82 0
-3299 -3298 -82 0
3299 -3298 82 0
3299 3298 -82 0
-3300 3299 83 0
-3300 -3299 -83 0
3300 -3299 83 0
3300 3299 -83 0
-3301 3300 84 0
-3301 -3300 -84 0
3301 -3300 84 0
3301 3300 -84 0
-3302 3301 85 0
-3302 -3301 -85 0
3302 -3301 85 0
3302 3301 -85 0
-3303 3302 86 0
-3303 -3302 -86 0
3303 -3302 86 0
3303 3302 -86 0
-3304 3303 87 0
-3304 -3303 -87 0
3304 -3303 87 0
3304 3303 -87 0
-3305 3304 89 0
-3305 -3304 -89 0
3305 -3304 89 0
3305 3304 -89 0
-3306 3305 90 0
-3306 -3305 -90 0
3306 -3305 90 0
3306 3305 -90 0
-3307 3306 95 0
-3307 -3306 -95 0
3307 -3306 95 0
3307 3306 -95 0
-3308 3307 97 0
-3308 -3307 -97 0
3308 -3307 97 0
3308 3307 -97 0
-3309 3308 98 0
-3309 -3308 -98 0
3309 -3308 98 0
3309 3308 -98 0
-3310 3309 99 0
-3310 -3309 -99 0
3310 -3309 99 0
3310 3309 -99 0
-3311 3310 100 0
-3311 -3310 -100 0
3311 -3310 100 0
3311 3310 -100 0
-3312 3311 101 0
-3312 -3311 -101 0
3312 -3311 101 0
3312 3311 -101 0
-3313 3312 102 0
-3313 -3312 -102 0
3313 -3312 102 0
3313 3312 -102 0
-3314 3313 103 0
-3314 -3313 -103 0
3314 -3313 103 0
3314 3313 -103 0
-3315 3314 104 0
-3315 -3314 -104 0
3315 -3314 104 0
3315 3314 -104 0
-3316 3315 105 0
-3316 -3315 -105 0
3316 -3315 105 0
3316 3315 -105 0
-3317 3316 106 0
-3317 -3316 -106 0
3317 -3316 106 0
3317 3316 -106 0
-3318 3317 107 0
-3318 -3317 -107 0
3318 -3317 107 0
3318 3317 -107 0
-3319 3318 108 0
-3319 -3318 -108 0
3319 -3318 108 0
3319 3318 -108 0
-3319 0
-3320 14 53 0
-3320 -14 -53 0
3320 -14 53 0
3320 14 -53 0
-3321 3320 62 0
-3321 -3320 -62 0
3321 -3320 62 0
3321 3320 -62 0
-3322 3321 69 0
-3322 -3321 -69 0
3322 -3321 69 0
3322 3321 -69 0
-3323 3322 74 0
-3323 -3322 -74 0
3323 -3322 74 0
3323 3322 -74 0
-3324 3323 81 0
-3324 -3323 -81 0
3324 -3323 81 0
3324 3323 -81 0
-3325 3324 89 0
-3325 -3324 -89 0
3325 -3324 89 0
3325 3324 -89 0
-3326 3325 96 0
-3326 -3325 -96 0
3326 -3325 96 0
3326 3325 -96 0
-3326 0
-3327 15 54 0
-3327 -15 -54 0
3327 -15 54 0
3327 15 -54 0
-3328 3327 63 0
-3328 -3327 -63 0
3328 -3327 63 0
3328 3327 -63 0
-3329 3328 70 0
-3329 -3328 -70 0
3329 -3328 70 0
3329 3328 -70 0
-3330 3329 75 0
-3330 -3329 -75 0
3330 -3329 75 0
3330 3329 -75 0
-3331 3330 82 0
-3331 -3330 -82 0
3331 -3330 82 0
3331 3330 -82 0
-3332 3331 90 0
-3332 -3331 -90 0
3332 -3331 90 0
3332 3331 -90 0
-3333 3332 91 0
-3333 -3332 -91 0
3333 -3332 91 0
3333 3332 -91 0
-3333 0
-3334 16 52 0
-3334 -16 -52 0
3334 -16 52 0
3334 16 -52 0
-3335 3334 58 0
-3335 -3334 -58 0
3335 -3334 58 0
3335 3334 -58 0
-3336 3335 59 0
-3336 -3335 -59 0
3336 -3335 59 0
3336 3335 -59 0
-3337 3336 65 0
-3337 -3336 -65 0
3337 -3336 65 0
3337 3336 -65 0
-3338 3337 67 0
-3338 -3337 -67 0
3338 -3337 67 0
3338 3337 -67 0
-3339 3338 74 0
-3339 -3338 -74 0
3339 -3338 74 0
3339 3338 -74 0
-3340 3339 79 0
-3340 -3339 -79 0
3340 -3339 79 0
3340 3339 -79 0
-3341 3340 86 0
-3341 -3340 -86 0
3341 -3340 86 0
3341 3340 -86 0
-3342 3341 91 0
-3342 -3341 -91 0
3342 -3341 91 0
3342 3341 -91 0
-3343 3342 98 0
-3343 -3342 -98 0
3343 -3342 98 0
3343 3342 -98 0
-3344 3343 100 0
-3344 -3343 -100 0
3344 -3343 100 0
3344 3343 -100 0
-3345 3344 106 0
-3345 -3344 -106 0
3345 -3344 106 0
3345 3344 -106 0
-3346 3345 107 0
-3346 -3345 -107 0
3346 -3345 107 0
3346 3345 -107 0
-3346 0
-3347 17 53 0
-3347 -17 -53 0
3347 -17 53 0
3347 17 -53 0
-3348 3347 59 0
-3348 -3347 -59 0
3348 -3347 59 0
3348 3347 -59 0
-3349 3348 60 0
-3349 -3348 -60 0
3349 -3348 60 0
3349 3348 -60 0
-3350 3349 66 0
-3350 -3349 -66 0
3350 -3349 66 0
3350 3349 -66 0
-3351 3350 68 0
-3351 -3350 -68 0
3351 -3350 68 0
3351 3350 -68 0
-3352 3351 75 0
-3352 -3351 -75 0
3352 -3351 75 0
3352 3351 -75 0
-3353 3352 80 0
-3353 -3352 -80 0
3353 -3352 80 0
3353 3352 -80 0
-3354 3353 87 0
-3354 -3353 -87 0
3354 -3353 87 0
3354 3353 -87 0
-3355 3354 92 0
-3355 -3354 -92 0
3355 -3354 92 0
3355 3354 -92 0
-3356 3355 99 0
-3356 -3355 -99 0
3356 -3355 99 0
3356 3355 -99 0
-3357 3356 101 0
-3357 -3356 -101 0
3357 -3356 101 0
3357 3356 -101 0
-3358 3357 107 0
-3358 -3357 -107 0
3358 -3357 107 0
3358 3357 -107 0
-3359 3358 108 0
-3359 -3358 -108 0
3359 -3358 108 0
3359 3358 -108 0
-3359 0
-3360 18 54 0
-3360 -18 -54 0
3360 -18 54 0
3360 18 -54 0
-3361 3360 58 0
-3361 -3360 -58 0
3361 -3360 58 0
3361 3360 -58 0
-3362 3361 60 0
-3362 -3361 -60 0
3362 -3361 60 0
3362 3361 -60 0
-3363 3362 64 0
-3363 -3362 -64 0
3363 -3362 64 0
3363 3362 -64 0
-3364 3363 68 0
-3364 -3363 -68 0
3364 -3363 68 0
3364 3363 -68 0
-3365 3364 71 0
-3365 -3364 -71 0
3365 -3364 71 0
3365 3364 -71 0
-3366 3365 72 0
-3366 -3365 -72 0
3366 -3365 72 0
3366 3365 -72 0
-3367 3366 73 0
-3367 -3366 -73 0
3367 -3366 73 0
3367 3366 -73 0
-3368 3367 79 0
-3368 -3367 -79 0
3368 -3367 79 0
3368 3367 -79 0
-3369 3368 81 0
-3369 -3368 -81 0
3369 -3368 81 0
3369 3368 -81 0
-3370 3369 82 0
-3370 -3369 -82 0
3370 -3369 82 0
3370 3369 -82 0
-3371 3370 86 0
-3371 -3370 -86 0
3371 -3370 86 0
3371 3370 -86 0
-3372 3371 87 0
-3372 -3371 -87 0
3372 -3371 87 0
3372 3371 -87 0
-3373 3372 88 0
-3373 -3372 -88 0
3373 -3372 88 0
3373 3372 -88 0
-3374 3373 89 0
-3374 -3373 -89 0
3374 -3373 89 0
3374 3373 -89 0
-3375 3374 90 0
-3375 -3374 -90 0
3375 -3374 90 0
3375 3374 -90 0
-3376 3375 91 0
-3376 -3375 -91 0
3376 -3375 91 0
3376 3375 -91 0
-3377 3376 93 0
-3377 -3376 -93 0
3377 -3376 93 0
3377 3376 -93 0
-3378 3377 94 0
-3378 -3377 -94 0
3378 -3377 94 0
3378 3377 -94 0
-3379 3378 97 0
-3379 -3378 -97 0
3379 -3378 97 0
3379 3378 -97 0
-3380 3379 102 0
-3380 -3379 -102 0
3380 -3379 102 0
3380 3379 -102 0
-3381 3380 103 0
-3381 -3380 -103 0
3381 -3380 103 0
3381 3380 -103 0
-3382 3381 104 0
-3382 -3381 -104 0
3382 -3381 104 0
3382 3381 -104 0
-3383 3382 105 0
-3383 -3382 -105 0
3383 -3382 105 0
3383 3382 -105 0
-3384 3383 107 0
-3384 -3383 -107 0
3384 -3383 107 0
3384 3383 -107 0
-3384 0
-3385 19 47 0
-3385 -19 -47 0
3385 -19 47 0
3385 19 -47 0
-3386 3385 54 0
-3386 -3385 -54 0
3386 -3385 54 0
3386 3385 -54 0
-3387 3386 58 0
-3387 -3386 -58 0
3387 -3386 58 0
3387 3386 -58 0
-3388 3387 62 0
-3388 -3387 -62 0
3388 -3387 62 0
3388 3387 -62 0
-3389 3388 64 0
-3389 -3388 -64 0
3389 -3388 64 0
3389 3388 -64 0
-3390 3389 68 0
-3390 -3389 -68 0
3390 -3389 68 0
3390 3389 -68 0
-3391 3390 69 0
-3391 -3390 -69 0
3391 -3390 69 0
3391 3390 -69 0
-3392 3391 71 0
-3392 -3391 -71 0
3392 -3391 71 0
3392 3391 -71 0
-3393 3392 72 0
-3393 -3392 -72 0
3393 -3392 72 0
3393 3392 -72 0
-3394 3393 73 0
-3394 -3393 -73 0
3394 -3393 73 0
3394 3393 -73 0
-3395 3394 79 0
-3395 -3394 -79 0
3395 -3394 79 0
3395 3394 -79 0
-3396 3395 82 0
-3396 -3395 -82 0
3396 -3395 82 0
3396 3395 -82 0
-3397 3396 86 0
-3397 -3396 -86 0
3397 -3396 86 0
3397 3396 -86 0
-3398 3397 87 0
-3398 -3397 -87 0
3398 -3397 87 0
3398 3397 -87 0
-3399 3398 88 0
-3399 -3398 -88 0
3399 -3398 88 0
3399 3398 -88 0
-3400 3399 89 0
-3400 -3399 -89 0
3400 -3399 89 0
3400 3399 -89 0
-3401 3400 90 0
-3401 -3400 -90 0
3401 -3400 90 0
3401 3400 -90 0
-3402 3401 91 0
-3402 -3401 -91 0
3402 -3401 91 0
3402 3401 -91 0
-3403 3402 94 0
-3403 -3402 -94 0
3403 -3402 94 0
3403 3402 -94 0
-3404 3403 95 0
-3404 -3403 -95 0
3404 -3403 95 0
3404 3403 -95 0
-3405 3404 97 0
-3405 -3404 -97 0
3405 -3404 97 0
3405 3404 -97 0
-3406 3405 103 0
-3406 -3405 -103 0
3406 -3405 103 0
3406 3405 -103 0
-3407 3406 104 0
-3407 -3406 -104 0
3407 -3406 104 0
3407 3406 -104 0
-3408 3407 105 0
-3408 -3407 -105 0
3408 -3407 105 0
3408 3407 -105 0
-3409 3408 108 0
-3409 -3408 -108 0
3409 -3408 108 0
3409 3408 -108 0
-3409 0
-3410 20 48 0
-3410 -20 -48 0
3410 -20 48 0
3410 20 -48 0
-3411 3410 52 0
-3411 -3410 -52 0
3411 -3410 52 0
3411 3410 -52 0
-3412 3411 58 0
-3412 -3411 -58 0
3412 -3411 58 0
3412 3411 -58 0
-3413 3412 63 0
-3413 -3412 -63 0
3413 -3412 63 0
3413 3412 -63 0
-3414 3413 64 0
-3414 -3413 -64 0
3414 -3413 64 0
3414 3413 -64 0
-3415 3414 69 0
-3415 -3414 -69 0
3415 -3414 69 0
3415 3414 -69 0
-3416 3415 70 0
-3416 -3415 -70 0
3416 -3415 70 0
3416 3415 -70 0
-3417 3416 71 0
-3417 -3416 -71 0
3417 -3416 71 0
3417 3416 -71 0
-3418 3417 72 0
-3418 -3417 -72 0
3418 -3417 72 0
3418 3417 -72 0
-3419 3418 76 0
-3419 -3418 -76 0
3419 -3418 76 0
3419 3418 -76 0
-3420 3419 79 0
-3420 -3419 -79 0
3420 -3419 79 0
3420 3419 -79 0
-3421 3420 80 0
-3421 -3420 -80 0
3421 -3420 80 0
3421 3420 -80 0
-3422 3421 86 0
-3422 -3421 -86 0
3422 -3421 86 0
3422 3421 -86 0
-3423 3422 87 0
-3423 -3422 -87 0
3423 -3422 87 0
3423 3422 -87 0
-3424 3423 88 0
-3424 -3423 -88 0
3424 -3423 88 0
3424 3423 -88 0
-3425 3424 89 0
-3425 -3424 -89 0
3425 -3424 89 0
3425 3424 -89 0
-3426 3425 90 0
-3426 -3425 -90 0
3426 -3425 90 0
3426 3425 -90 0
-3427 3426 91 0
-3427 -3426 -91 0
3427 -3426 91 0
3427 3426 -91 0
-3428 3427 95 0
-3428 -3427 -95 0
3428 -3427 95 0
3428 3427 -95 0
-3429 3428 96 0
-3429 -3428 -96 0
3429 -3428 96 0
3429 3428 -96 0
-3430 3429 100 0
-3430 -3429 -100 0
3430 -3429 100 0
3430 3429 -100 0
-3431 3430 103 0
-3431 -3430 -103 0
3431 -3430 103 0
3431 3430 -103 0
-3432 3431 104 0
-3432 -3431 -104 0
3432 -3431 104 0
3432 3431 -104 0
-3433 3432 105 0
-3433 -3432 -105 0
3433 -3432 105 0
3433 3432 -105 0
-3434 3433 107 0
-3434 -3433 -107 0
3434 -3433 107 0
3434 3433 -107 0
-3434 0
-3435 21 46 0
-3435 -21 -46 0
3435 -21 46 0
3435 21 -46 0
-3436 3435 53 0
-3436 -3435 -53 0
3436 -3435 53 0
3436 3435 -53 0
-3437 3436 58 0
-3437 -3436 -58 0
3437 -3436 58 0
3437 3436 -58 0
-3438 3437 62 0
-3438 -3437 -62 0
3438 -3437 62 0
3438 3437 -62 0
-3439 3438 63 0
-3439 -3438 -63 0
3439 -3438 63 0
3439 3438 -63 0
-3440 3439 65 0
-3440 -3439 -65 0
3440 -3439 65 0
3440 3439 -65 0
-3441 3440 66 0
-3441 -3440 -66 0
3441 -3440 66 0
3441 3440 -66 0
-3442 3441 69 0
-3442 -3441 -69 0
3442 -3441 69 0
3442 3441 -69 0
-3443 3442 70 0
-3443 -3442 -70 0
3443 -3442 70 0
3443 3442 -70 0
-3444 3443 73 0
-3444 -3443 -73 0
3444 -3443 73 0
3444 3443 -73 0
-3445 3444 80 0
-3445 -3444 -80 0
3445 -3444 80 0
3445 3444 -80 0
-3446 3445 82 0
-3446 -3445 -82 0
3446 -3445 82 0
3446 3445 -82 0
-3447 3446 83 0
-3447 -3446 -83 0
3447 -3446 83 0
3447 3446 -83 0
-3448 3447 84 0
-3448 -3447 -84 0
3448 -3447 84 0
3448 3447 -84 0
-3449 3448 85 0
-3449 -3448 -85 0
3449 -3448 85 0
3449 3448 -85 0
-3450 3449 91 0
-3450 -3449 -91 0
3450 -3449 91 0
3450 3449 -91 0
-3451 3450 94 0
-3451 -3450 -94 0
3451 -3450 94 0
3451 3450 -94 0
-3452 3451 96 0
-3452 -3451 -96 0
3452 -3451 96 0
3452 3451 -96 0
-3453 3452 97 0
-3453 -3452 -97 0
3453 -3452 97 0
3453 3452 -97 0
-3454 3453 98 0
-3454 -3453 -98 0
3454 -3453 98 0
3454 3453 -98 0
-3455 3454 99 0
-3455 -3454 -99 0
3455 -3454 99 0
3455 3454 -99 0
-3456 3455 101 0
-3456 -3455 -101 0
3456 -3455 101 0
3456 3455 -101 0
-3457 3456 102 0
-3457 -3456 -102 0
3457 -3456 102 0
3457 3456 -102 0
-3458 3457 103 0
-3458 -3457 -103 0
3458 -3457 103 0
3458 3457 -103 0
-3459 3458 106 0
-3459 -3458 -106 0
3459 -3458 106 0
3459 3458 -106 0
-3459 0
-3460 22 47 0
-3460 -22 -47 0
3460 -22 47 0
3460 22 -47 0
-3461 3460 54 0
-3461 -3460 -54 0
3461 -3460 54 0
3461 3460 -54 0
-3462 3461 59 0
-3462 -3461 -59 0
3462 -3461 59 0
3462 3461 -59 0
-3463 3462 62 0
-3463 -3462 -62 0
3463 -3462 62 0
3463 3462 -62 0
-3464 3463 65 0
-3464 -3463 -65 0
3464 -3463 65 0
3464 3463 -65 0
-3465 3464 67 0
-3465 -3464 -67 0
3465 -3464 67 0
3465 3464 -67 0
-3466 3465 68 0
-3466 -3465 -68 0
3466 -3465 68 0
3466 3465 -68 0
-3467 3466 69 0
-3467 -3466 -69 0
3467 -3466 69 0
3467 3466 -69 0
-3468 3467 72 0
-3468 -3467 -72 0
3468 -3467 72 0
3468 3467 -72 0
-3469 3468 74 0
-3469 -3468 -74 0
3469 -3468 74 0
3469 3468 -74 0
-3470 3469 80 0
-3470 -3469 -80 0
3470 -3469 80 0
3470 3469 -80 0
-3471 3470 82 0
-3471 -3470 -82 0
3471 -3470 82 0
3471 3470 -82 0
-3472 3471 85 0
-3472 -3471 -85 0
3472 -3471 85 0
3472 3471 -85 0
-3473 3472 87 0
-3473 -3472 -87 0
3473 -3472 87 0
3473 3472 -87 0
-3474 3473 88 0
-3474 -3473 -88 0
3474 -3473 88 0
3474 3473 -88 0
-3475 3474 89 0
-3475 -3474 -89 0
3475 -3474 89 0
3475 3474 -89 0
-3476 3475 90 0
-3476 -3475 -90 0
3476 -3475 90 0
3476 3475 -90 0
-3477 3476 91 0
-3477 -3476 -91 0
3477 -3476 91 0
3477 3476 -91 0
-3478 3477 92 0
-3478 -3477 -92 0
3478 -3477 92 0
3478 3477 -92 0
-3479 3478 95 0
-3479 -3478 -95 0
3479 -3478 95 0
3479 3478 -95 0
-3480 3479 101 0
-3480 -3479 -101 0
3480 -3479 101 0
3480 3479 -101 0
-3481 3480 103 0
-3481 -3480 -103 0
3481 -3480 103 0
3481 3480 -103 0
-3482 3481 105 0
-3482 -3481 -105 0
3482 -3481 105 0
3482 3481 -105 0
-3483 3482 106 0
-3483 -3482 -106 0
3483 -3482 106 0
3483 3482 -106 0
-3484 3483 108 0
-3484 -3483 -108 0
3484 -3483 108 0
3484 3483 -108 0
-3484 0
-3485 23 48 0
-3485 -23 -48 0
3485 -23 48 0
3485 23 -48 0
-3486 3485 52 0
-3486 -3485 -52 0
3486 -3485 52 0
3486 3485 -52 0
-3487 3486 58 0
-3487 -3486 -58 0
3487 -3486 58 0
3487 3486 -58 0
-3488 3487 59 0
-3488 -3487 -59 0
3488 -3487 59 0
3488 3487 -59 0
-3489 3488 60 0
-3489 -3488 -60 0
3489 -3488 60 0
3489 3488 -60 0
-3490 3489 63 0
-3490 -3489 -63 0
3490 -3489 63 0
3490 3489 -63 0
-3491 3490 64 0
-3491 -3490 -64 0
3491 -3490 64 0
3491 3490 -64 0
-3492 3491 65 0
-3492 -3491 -65 0
3492 -3491 65 0
3492 3491 -65 0
-3493 3492 66 0
-3493 -3492 -66 0
3493 -3492 66 0
3493 3492 -66 0
-3494 3493 68 0
-3494 -3493 -68 0
3494 -3493 68 0
3494 3493 -68 0
-3495 3494 69 0
-3495 -3494 -69 0
3495 -3494 69 0
3495 3494 -69 0
-3496 3495 70 0
-3496 -3495 -70 0
3496 -3495 70 0
3496 3495 -70 0
-3497 3496 71 0
-3497 -3496 -71 0
3497 -3496 71 0
3497 3496 -71 0
-3498 3497 74 0
-3498 -3497 -74 0
3498 -3497 74 0
3498 3497 -74 0
-3499 3498 75 0
-3499 -3498 -75 0
3499 -3498 75 0
3499 3498 -75 0
-3500 3499 76 0
-3500 -3499 -76 0
3500 -3499 76 0
3500 3499 -76 0
-3501 3500 79 0
-3501 -3500 -79 0
3501 -3500 79 0
3501 3500 -79 0
-3502 3501 81 0
-3502 -3501 -81 0
3502 -3501 81 0
3502 3501 -81 0
-3503 3502 88 0
-3503 -3502 -88 0
3503 -3502 88 0
3503 3502 -88 0
-3504 3503 89 0
-3504 -3503 -89 0
3504 -3503 89 0
3504 3503 -89 0
-3505 3504 90 0
-3505 -3504 -90 0
3505 -3504 90 0
3505 3504 -90 0
-3506 3505 91 0
-3506 -3505 -91 0
3506 -3505 91 0
3506 3505 -91 0
-3507 3506 93 0
-3507 -3506 -93 0
3507 -3506 93 0
3507 3506 -93 0
-3508 3507 96 0
-3508 -3507 -96 0
3508 -3507 96 0
3508 3507 -96 0
-3509 3508 98 0
-3509 -3508 -98 0
3509 -3508 98 0
3509 3508 -98 0
-3510 3509 100 0
-3510 -3509 -100 0
3510 -3509 100 0
3510 3509 -100 0
-3511 3510 102 0
-3511 -3510 -102 0
3511 -3510 102 0
3511 3510 -102 0
-3512 3511 103 0
-3512 -3511 -103 0
3512 -3511 103 0
3512 3511 -103 0
-3513 3512 104 0
-3513 -3512 -104 0
3513 -3512 104 0
3513 3512 -104 0
-3513 0
-3514 24 46 0
-3514 -24 -46 0
3514 -24 46 0
3514 24 -46 0
-3515 3514 53 0
-3515 -3514 -53 0
3515 -3514 53 0
3515 3514 -53 0
-3516 3515 60 0
-3516 -3515 -60 0
3516 -3515 60 0
3516 3515 -60 0
-3517 3516 62 0
-3517 -3516 -62 0
3517 -3516 62 0
3517 3516 -62 0
-3518 3517 63 0
-3518 -3517 -63 0
3518 -3517 63 0
3518 3517 -63 0
-3519 3518 64 0
-3519 -3518 -64 0
3519 -3518 64 0
3519 3518 -64 0
-3520 3519 65 0
-3520 -3519 -65 0
3520 -3519 65 0
3520 3519 -65 0
-3521 3520 67 0
-3521 -3520 -67 0
3521 -3520 67 0
3521 3520 -67 0
-3522 3521 68 0
-3522 -3521 -68 0
3522 -3521 68 0
3522 3521 -68 0
-3523 3522 69 0
-3523 -3522 -69 0
3523 -3522 69 0
3523 3522 -69 0
-3524 3523 70 0
-3524 -3523 -70 0
3524 -3523 70 0
3524 3523 -70 0
-3525 3524 71 0
-3525 -3524 -71 0
3525 -3524 71 0
3525 3524 -71 0
-3526 3525 72 0
-3526 -3525 -72 0
3526 -3525 72 0
3526 3525 -72 0
-3527 3526 75 0
-3527 -3526 -75 0
3527 -3526 75 0
3527 3526 -75 0
-3528 3527 79 0
-3528 -3527 -79 0
3528 -3527 79 0
3528 3527 -79 0
-3529 3528 80 0
-3529 -3528 -80 0
3529 -3528 80 0
3529 3528 -80 0
-3530 3529 81 0
-3530 -3529 -81 0
3530 -3529 81 0
3530 3529 -81 0
-3531 3530 82 0
-3531 -3530 -82 0
3531 -3530 82 0
3531 3530 -82 0
-3532 3531 83 0
-3532 -3531 -83 0
3532 -3531 83 0
3532 3531 -83 0
-3533 3532 84 0
-3533 -3532 -84 0
3533 -3532 84 0
3533 3532 -84 0
-3534 3533 85 0
-3534 -3533 -85 0
3534 -3533 85 0
3534 3533 -85 0
-3535 3534 86 0
-3535 -3534 -86 0
3535 -3534 86 0
3535 3534 -86 0
-3536 3535 88 0
-3536 -3535 -88 0
3536 -3535 88 0
3536 3535 -88 0
-3537 3536 89 0
-3537 -3536 -89 0
3537 -3536 89 0
3537 3536 -89 0
-3538 3537 90 0
-3538 -3537 -90 0
3538 -3537 90 0
3538 3537 -90 0
-3539 3538 94 0
-3539 -3538 -94 0
3539 -3538 94 0
3539 3538 -94 0
-3540 3539 97 0
-3540 -3539 -97 0
3540 -3539 97 0
3540 3539 -97 0
-3541 3540 98 0
-3541 -3540 -98 0
3541 -3540 98 0
3541 3540 -98 0
-3542 3541 100 0
-3542 -3541 -100 0
3542 -3541 100 0
3542 3541 -100 0
-3543 3542 101 0
-3543 -3542 -101 0
3543 -3542 101 0
3543 3542 -101 0
-3544 3543 102 0
-3544 -3543 -102 0
3544 -3543 102 0
3544 3543 -102 0
-3545 3544 103 0
-3545 -3544 -103 0
3545 -3544 103 0
3545 3544 -103 0
-3546 3545 104 0
-3546 -3545 -104 0
3546 -3545 104 0
3546 3545 -104 0
-3547 3546 105 0
-3547 -3546 -105 0
3547 -3546 105 0
3547 3546 -105 0
-3548 3547 107 0
-3548 -3547 -107 0
3548 -3547 107 0
3548 3547 -107 0
-3548 0
-3549 25 46 0
-3549 -25 -46 0
3549 -25 46 0
3549 25 -46 0
-3550 3549 59 0
-3550 -3549 -59 0
3550 -3549 59 0
3550 3549 -59 0
-3551 3550 62 0
-3551 -3550 -62 0
3551 -3550 62 0
3551 3550 -62 0
-3552 3551 63 0
-3552 -3551 -63 0
3552 -3551 63 0
3552 3551 -63 0
-3553 3552 64 0
-3553 -3552 -64 0
3553 -3552 64 0
3553 3552 -64 0
-3554 3553 65 0
-3554 -3553 -65 0
3554 -3553 65 0
3554 3553 -65 0
-3555 3554 66 0
-3555 -3554 -66 0
3555 -3554 66 0
3555 3554 -66 0
-3556 3555 67 0
-3556 -3555 -67 0
3556 -3555 67 0
3556 3555 -67 0
-3557 3556 69 0
-3557 -3556 -69 0
3557 -3556 69 0
3557 3556 -69 0
-3558 3557 70 0
-3558 -3557 -70 0
3558 -3557 70 0
3558 3557 -70 0
-3559 3558 71 0
-3559 -3558 -71 0
3559 -3558 71 0
3559 3558 -71 0
-3560 3559 72 0
-3560 -3559 -72 0
3560 -3559 72 0
3560 3559 -72 0
-3561 3560 79 0
-3561 -3560 -79 0
3561 -3560 79 0
3561 3560 -79 0
-3562 3561 80 0
-3562 -3561 -80 0
3562 -3561 80 0
3562 3561 -80 0
-3563 3562 81 0
-3563 -3562 -81 0
3563 -3562 81 0
3563 3562 -81 0
-3564 3563 82 0
-3564 -3563 -82 0
3564 -3563 82 0
3564 3563 -82 0
-3565 3564 83 0
-3565 -3564 -83 0
3565 -3564 83 0
3565 3564 -83 0
-3566 3565 84 0
-3566 -3565 -84 0
3566 -3565 84 0
3566 3565 -84 0
-3567 3566 85 0
-3567 -3566 -85 0
3567 -3566 85 0
3567 3566 -85 0
-3568 3567 86 0
-3568 -3567 -86 0
3568 -3567 86 0
3568 3567 -86 0
-3569 3568 87 0
-3569 -3568 -87 0
3569 -3568 87 0
3569 3568 -87 0
-3570 3569 88 0
-3570 -3569 -88 0
3570 -3569 88 0
3570 3569 -88 0
-3571 3570 89 0
-3571 -3570 -89 0
3571 -3570 89 0
3571 3570 -89 0
-3572 3571 90 0
-3572 -3571 -90 0
3572 -3571 90 0
3572 3571 -90 0
-3573 3572 94 0
-3573 -3572 -94 0
3573 -3572 94 0
3573 3572 -94 0
-3574 3573 97 0
-3574 -3573 -97 0
3574 -3573 97 0
3574 3573 -97 0
-3575 3574 98 0
-3575 -3574 -98 0
3575 -3574 98 0
3575 3574 -98 0
-3576 3575 99 0
-3576 -3575 -99 0
3576 -3575 99 0
3576 3575 -99 0
-3577 3576 100 0
-3577 -3576 -100 0
3577 -3576 100 0
3577 3576 -100 0
-3578 3577 102 0
-3578 -3577 -102 0
3578 -3577 102 0
3578 3577 -102 0
-3579 3578 103 0
-3579 -3578 -103 0
3579 -3578 103 0
3579 3578 -103 0
-3580 3579 104 0
-3580 -3579 -104 0
3580 -3579 104 0
3580 3579 -104 0
-3581 3580 105 0
-3581 -3580 -105 0
3581 -3580 105 0
3581 3580 -105 0
-3582 3581 107 0
-3582 -3581 -107 0
3582 -3581 107 0
3582 3581 -107 0
-3583 3582 108 0
-3583 -3582 -108 0
3583 -3582 108 0
3583 3582 -108 0
-3583 0
-3584 26 47 0
-3584 -26 -47 0
3584 -26 47 0
3584 26 -47 0
-3585 3584 60 0
-3585 -3584 -60 0
3585 -3584 60 0
3585 3584 -60 0
-3586 3585 62 0
-3586 -3585 -62 0
3586 -3585 62 0
3586 3585 -62 0
-3587 3586 69 0
-3587 -3586 -69 0
3587 -3586 69 0
3587 3586 -69 0
-3588 3587 95 0
-3588 -3587 -95 0
3588 -3587 95 0
3588 3587 -95 0
-3589 3588 102 0
-3589 -3588 -102 0
3589 -3588 102 0
3589 3588 -102 0
-3590 3589 107 0
-3590 -3589 -107 0
3590 -3589 107 0
3590 3589 -107 0
-3590 0
-3591 27 48 0
-3591 -27 -48 0
3591 -27 48 0
3591 27 -48 0
-3592 3591 58 0
-3592 -3591 -58 0
3592 -3591 58 0
3592 3591 -58 0
-3593 3592 62 0
-3593 -3592 -62 0
3593 -3592 62 0
3593 3592 -62 0
-3594 3593 65 0
-3594 -3593 -65 0
3594 -3593 65 0
3594 3593 -65 0
-3595 3594 66 0
-3595 -3594 -66 0
3595 -3594 66 0
3595 3594 -66 0
-3596 3595 67 0
-3596 -3595 -67 0
3596 -3595 67 0
3596 3595 -67 0
-3597 3596 73 0
-3597 -3596 -73 0
3597 -3596 73 0
3597 3596 -73 0
-3598 3597 76 0
-3598 -3597 -76 0
3598 -3597 76 0
3598 3597 -76 0
-3599 3598 80 0
-3599 -3598 -80 0
3599 -3598 80 0
3599 3598 -80 0
-3600 3599 81 0
-3600 -3599 -81 0
3600 -3599 81 0
3600 3599 -81 0
-3601 3600 83 0
-3601 -3600 -83 0
3601 -3600 83 0
3601 3600 -83 0
-3602 3601 84 0
-3602 -3601 -84 0
3602 -3601 84 0
3602 3601 -84 0
-3603 3602 85 0
-3603 -3602 -85 0
3603 -3602 85 0
3603 3602 -85 0
-3604 3603 88 0
-3604 -3603 -88 0
3604 -3603 88 0
3604 3603 -88 0
-3605 3604 91 0
-3605 -3604 -91 0
3605 -3604 91 0
3605 3604 -91 0
-3606 3605 94 0
-3606 -3605 -94 0
3606 -3605 94 0
3606 3605 -94 0
-3607 3606 96 0
-3607 -3606 -96 0
3607 -3606 96 0
3607 3606 -96 0
-3608 3607 97 0
-3608 -3607 -97 0
3608 -3607 97 0
3608 3607 -97 0
-3609 3608 98 0
-3609 -3608 -98 0
3609 -3608 98 0
3609 3608 -98 0
-3610 3609 99 0
-3610 -3609 -99 0
3610 -3609 99 0
3610 3609 -99 0
-3611 3610 101 0
-3611 -3610 -101 0
3611 -3610 101 0
3611 3610 -101 0
-3612 3611 102 0
-3612 -3611 -102 0
3612 -3611 102 0
3612 3611 -102 0
-3613 3612 103 0
-3613 -3612 -103 0
3613 -3612 103 0
3613 3612 -103 0
-3614 3613 106 0
-3614 -3613 -106 0
3614 -3613 106 0
3614 3613 -106 0
-3615 3614 108 0
-3615 -3614 -108 0
3615 -3614 108 0
3615 3614 -108 0
-3615 0
-3616 28 46 0
-3616 -28 -46 0
3616 -28 46 0
3616 28 -46 0
-3617 3616 58 0
-3617 -3616 -58 0
3617 -3616 58 0
3617 3616 -58 0
-3618 3617 63 0
-3618 -3617 -63 0
3618 -3617 63 0
3618 3617 -63 0
-3619 3618 65 0
-3619 -3618 -65 0
3619 -3618 65 0
3619 3618 -65 0
-3620 3619 66 0
-3620 -3619 -66 0
3620 -3619 66 0
3620 3619 -66 0
-3621 3620 70 0
-3621 -3620 -70 0
3621 -3620 70 0
3621 3620 -70 0
-3622 3621 73 0
-3622 -3621 -73 0
3622 -3621 73 0
3622 3621 -73 0
-3623 3622 74 0
-3623 -3622 -74 0
3623 -3622 74 0
3623 3622 -74 0
-3624 3623 80 0
-3624 -3623 -80 0
3624 -3623 80 0
3624 3623 -80 0
-3625 3624 81 0
-3625 -3624 -81 0
3625 -3624 81 0
3625 3624 -81 0
-3626 3625 82 0
-3626 -3625 -82 0
3626 -3625 82 0
3626 3625 -82 0
-3627 3626 84 0
-3627 -3626 -84 0
3627 -3626 84 0
3627 3626 -84 0
-3628 3627 85 0
-3628 -3627 -85 0
3628 -3627 85 0
3628 3627 -85 0
-3629 3628 89 0
-3629 -3628 -89 0
3629 -3628 89 0
3629 3628 -89 0
-3630 3629 91 0
-3630 -3629 -91 0
3630 -3629 91 0
3630 3629 -91 0
-3631 3630 94 0
-3631 -3630 -94 0
3631 -3630 94 0
3631 3630 -94 0
-3632 3631 95 0
-3632 -3631 -95 0
3632 -3631 95 0
3632 3631 -95 0
-3633 3632 97 0
-3633 -3632 -97 0
3633 -3632 97 0
3633 3632 -97 0
-3634 3633 98 0
-3634 -3633 -98 0
3634 -3633 98 0
3634 3633 -98 0
-3635 3634 99 0
-3635 -3634 -99 0
3635 -3634 99 0
3635 3634 -99 0
-3636 3635 101 0
-3636 -3635 -101 0
3636 -3635 101 0
3636 3635 -101 0
-3637 3636 102 0
-3637 -3636 -102 0
3637 -3636 102 0
3637 3636 -102 0
-3638 3637 103 0
-3638 -3637 -103 0
3638 -3637 103 0
3638 3637 -103 0
-3639 3638 104 0
-3639 -3638 -104 0
3639 -3638 104 0
3639 3638 -104 0
-3640 3639 106 0
-3640 -3639 -106 0
3640 -3639 106 0
3640 3639 -106 0
-3640 0
-3641 29 47 0
-3641 -29 -47 0
3641 -29 47 0
3641 29 -47 0
-3642 3641 59 0
-3642 -3641 -59 0
3642 -3641 59 0
3642 3641 -59 0
-3643 3642 62 0
-3643 -3642 -62 0
3643 -3642 62 0
3643 3642 -62 0
-3644 3643 63 0
-3644 -3643 -63 0
3644 -3643 63 0
3644 3643 -63 0
-3645 3644 65 0
-3645 -3644 -65 0
3645 -3644 65 0
3645 3644 -65 0
-3646 3645 67 0
-3646 -3645 -67 0
3646 -3645 67 0
3646 3645 -67 0
-3647 3646 68 0
-3647 -3646 -68 0
3647 -3646 68 0
3647 3646 -68 0
-3648 3647 69 0
-3648 -3647 -69 0
3648 -3647 69 0
3648 3647 -69 0
-3649 3648 70 0
-3649 -3648 -70 0
3649 -3648 70 0
3649 3648 -70 0
-3650 3649 72 0
-3650 -3649 -72 0
3650 -3649 72 0
3650 3649 -72 0
-3651 3650 74 0
-3651 -3650 -74 0
3651 -3650 74 0
3651 3650 -74 0
-3652 3651 75 0
-3652 -3651 -75 0
3652 -3651 75 0
3652 3651 -75 0
-3653 3652 80 0
-3653 -3652 -80 0
3653 -3652 80 0
3653 3652 -80 0
-3654 3653 84 0
-3654 -3653 -84 0
3654 -3653 84 0
3654 3653 -84 0
-3655 3654 85 0
-3655 -3654 -85 0
3655 -3654 85 0
3655 3654 -85 0
-3656 3655 87 0
-3656 -3655 -87 0
3656 -3655 87 0
3656 3655 -87 0
-3657 3656 88 0
-3657 -3656 -88 0
3657 -3656 88 0
3657 3656 -88 0
-3658 3657 89 0
-3658 -3657 -89 0
3658 -3657 89 0
3658 3657 -89 0
-3659 3658 92 0
-3659 -3658 -92 0
3659 -3658 92 0
3659 3658 -92 0
-3660 3659 95 0
-3660 -3659 -95 0
3660 -3659 95 0
3660 3659 -95 0
-3661 3660 96 0
-3661 -3660 -96 0
3661 -3660 96 0
3661 3660 -96 0
-3662 3661 101 0
-3662 -3661 -101 0
3662 -3661 101 0
3662 3661 -101 0
-3663 3662 103 0
-3663 -3662 -103 0
3663 -3662 103 0
3663 3662 -103 0
-3664 3663 106 0
-3664 -3663 -106 0
3664 -3663 106 0
3664 3663 -106 0
-3665 3664 108 0
-3665 -3664 -108 0
3665 -3664 108 0
3665 3664 -108 0
-3665 0
-3666 30 48 0
-3666 -30 -48 0
3666 -30 48 0
3666 30 -48 0
-3667 3666 60 0
-3667 -3666 -60 0
3667 -3666 60 0
3667 3666 -60 0
-3668 3667 63 0
-3668 -3667 -63 0
3668 -3667 63 0
3668 3667 -63 0
-3669 3668 64 0
-3669 -3668 -64 0
3669 -3668 64 0
3669 3668 -64 0
-3670 3669 66 0
-3670 -3669 -66 0
3670 -3669 66 0
3670 3669 -66 0
-3671 3670 67 0
-3671 -3670 -67 0
3671 -3670 67 0
3671 3670 -67 0
-3672 3671 68 0
-3672 -3671 -68 0
3672 -3671 68 0
3672 3671 -68 0
-3673 3672 69 0
-3673 -3672 -69 0
3673 -3672 69 0
3673 3672 -69 0
-3674 3673 70 0
-3674 -3673 -70 0
3674 -3673 70 0
3674 3673 -70 0
-3675 3674 71 0
-3675 -3674 -71 0
3675 -3674 71 0
3675 3674 -71 0
-3676 3675 75 0
-3676 -3675 -75 0
3676 -3675 75 0
3676 3675 -75 0
-3677 3676 76 0
-3677 -3676 -76 0
3677 -3676 76 0
3677 3676 -76 0
-3678 3677 79 0
-3678 -3677 -79 0
3678 -3677 79 0
3678 3677 -79 0
-3679 3678 81 0
-3679 -3678 -81 0
3679 -3678 81 0
3679 3678 -81 0
-3680 3679 86 0
-3680 -3679 -86 0
3680 -3679 86 0
3680 3679 -86 0
-3681 3680 88 0
-3681 -3680 -88 0
3681 -3680 88 0
3681 3680 -88 0
-3682 3681 89 0
-3682 -3681 -89 0
3682 -3681 89 0
3682 3681 -89 0
-3683 3682 90 0
-3683 -3682 -90 0
3683 -3682 90 0
3683 3682 -90 0
-3684 3683 91 0
-3684 -3683 -91 0
3684 -3683 91 0
3684 3683 -91 0
-3685 3684 93 0
-3685 -3684 -93 0
3685 -3684 93 0
3685 3684 -93 0
-3686 3685 96 0
-3686 -3685 -96 0
3686 -3685 96 0
3686 3685 -96 0
-3687 3686 102 0
-3687 -3686 -102 0
3687 -3686 102 0
3687 3686 -102 0
-3688 3687 103 0
-3688 -3687 -103 0
3688 -3687 103 0
3688 3687 -103 0
-3689 3688 104 0
-3689 -3688 -104 0
3689 -3688 104 0
3689 3688 -104 0
-3690 3689 107 0
-3690 -3689 -107 0
3690 -3689 107 0
3690 3689 -107 0
-3690 0
-3691 31 52 0
-3691 -31 -52 0
3691 -31 52 0
3691 31 -52 0
-3692 3691 58 0
-3692 -3691 -58 0
3692 -3691 58 0
3692 3691 -58 0
-3693 3692 65 0
-3693 -3692 -65 0
3693 -3692 65 0
3693 3692 -65 0
-3694 3693 67 0
-3694 -3693 -67 0
3694 -3693 67 0
3694 3693 -67 0
-3695 3694 74 0
-3695 -3694 -74 0
3695 -3694 74 0
3695 3694 -74 0
-3696 3695 100 0
-3696 -3695 -100 0
3696 -3695 100 0
3696 3695 -100 0
-3697 3696 107 0
-3697 -3696 -107 0
3697 -3696 107 0
3697 3696 -107 0
-3697 0
-3698 32 53 0
-3698 -32 -53 0
3698 -32 53 0
3698 32 -53 0
-3699 3698 59 0
-3699 -3698 -59 0
3699 -3698 59 0
3699 3698 -59 0
-3700 3699 66 0
-3700 -3699 -66 0
3700 -3699 66 0
3700 3699 -66 0
-3701 3700 68 0
-3701 -3700 -68 0
3701 -3700 68 0
3701 3700 -68 0
-3702 3701 75 0
-3702 -3701 -75 0
3702 -3701 75 0
3702 3701 -75 0
-3703 3702 101 0
-3703 -3702 -101 0
3703 -3702 101 0
3703 3702 -101 0
-3704 3703 108 0
-3704 -3703 -108 0
3704 -3703 108 0
3704 3703 -108 0
-3704 0
-3705 33 54 0
-3705 -33 -54 0
3705 -33 54 0
3705 33 -54 0
-3706 3705 60 0
-3706 -3705 -60 0
3706 -3705 60 0
3706 3705 -60 0
-3707 3706 62 0
-3707 -3706 -62 0
3707 -3706 62 0
3707 3706 -62 0
-3708 3707 63 0
-3708 -3707 -63 0
3708 -3707 63 0
3708 3707 -63 0
-3709 3708 64 0
-3709 -3708 -64 0
3709 -3708 64 0
3709 3708 -64 0
-3710 3709 65 0
-3710 -3709 -65 0
3710 -3709 65 0
3710 3709 -65 0
-3711 3710 66 0
-3711 -3710 -66 0
3711 -3710 66 0
3711 3710 -66 0
-3712 3711 67 0
-3712 -3711 -67 0
3712 -3711 67 0
3712 3711 -67 0
-3713 3712 68 0
-3713 -3712 -68 0
3713 -3712 68 0
3713 3712 -68 0
-3714 3713 70 0
-3714 -3713 -70 0
3714 -3713 70 0
3714 3713 -70 0
-3715 3714 71 0
-3715 -3714 -71 0
3715 -3714 71 0
3715 3714 -71 0
-3716 3715 72 0
-3716 -3715 -72 0
3716 -3715 72 0
3716 3715 -72 0
-3717 3716 76 0
-3717 -3716 -76 0
3717 -3716 76 0
3717 3716 -76 0
-3718 3717 79 0
-3718 -3717 -79 0
3718 -3717 79 0
3718 3717 -79 0
-3719 3718 80 0
-3719 -3718 -80 0
3719 -3718 80 0
3719 3718 -80 0
-3720 3719 81 0
-3720 -3719 -81 0
3720 -3719 81 0
3720 3719 -81 0
-3721 3720 82 0
-3721 -3720 -82 0
3721 -3720 82 0
3721 3720 -82 0
-3722 3721 83 0
-3722 -3721 -83 0
3722 -3721 83 0
3722 3721 -83 0
-3723 3722 84 0
-3723 -3722 -84 0
3723 -3722 84 0
3723 3722 -84 0
-3724 3723 85 0
-3724 -3723 -85 0
3724 -3723 85 0
3724 3723 -85 0
-3725 3724 86 0
-3725 -3724 -86 0
3725 -3724 86 0
3725 3724 -86 0
-3726 3725 87 0
-3726 -3725 -87 0
3726 -3725 87 0
3726 3725 -87 0
-3727 3726 88 0
-3727 -3726 -88 0
3727 -3726 88 0
3727 3726 -88 0
-3728 3727 89 0
-3728 -3727 -89 0
3728 -3727 89 0
3728 3727 -89 0
-3729 3728 90 0
-3729 -3728 -90 0
3729 -3728 90 0
3729 3728 -90 0
-3730 3729 97 0
-3730 -3729 -97 0
3730 -3729 97 0
3730 3729 -97 0
-3731 3730 98 0
-3731 -3730 -98 0
3731 -3730 98 0
3731 3730 -98 0
-3732 3731 99 0
-3732 -3731 -99 0
3732 -3731 99 0
3732 3731 -99 0
-3733 3732 100 0
-3733 -3732 -100 0
3733 -3732 100 0
3733 3732 -100 0
-3734 3733 101 0
-3734 -3733 -101 0
3734 -3733 101 0
3734 3733 -101 0
-3735 3734 104 0
-3735 -3734 -104 0
3735 -3734 104 0
3735 3734 -104 0
-3736 3735 105 0
-3736 -3735 -105 0
3736 -3735 105 0
3736 3735 -105 0
-3737 3736 106 0
-3737 -3736 -106 0
3737 -3736 106 0
3737 3736 -106 0
-3738 3737 107 0
-3738 -3737 -107 0
3738 -3737 107 0
3738 3737 -107 0
-3739 3738 108 0
-3739 -3738 -108 0
3739 -3738 108 0
3739 3738 -108 0
-3739 0
-3740 34 52 0
-3740 -34 -52 0
3740 -34 52 0
3740 34 -52 0
-3741 3740 59 0
-3741 -3740 -59 0
3741 -3740 59 0
3741 3740 -59 0
-3742 3741 63 0
-3742 -3741 -63 0
3742 -3741 63 0
3742 3741 -63 0
-3743 3742 64 0
-3743 -3742 -64 0
3743 -3742 64 0
3743 3742 -64 0
-3744 3743 66 0
-3744 -3743 -66 0
3744 -3743 66 0
3744 3743 -66 0
-3745 3744 71 0
-3745 -3744 -71 0
3745 -3744 71 0
3745 3744 -71 0
-3746 3745 73 0
-3746 -3745 -73 0
3746 -3745 73 0
3746 3745 -73 0
-3747 3746 74 0
-3747 -3746 -74 0
3747 -3746 74 0
3747 3746 -74 0
-3748 3747 77 0
-3748 -3747 -77 0
3748 -3747 77 0
3748 3747 -77 0
-3749 3748 79 0
-3749 -3748 -79 0
3749 -3748 79 0
3749 3748 -79 0
-3750 3749 80 0
-3750 -3749 -80 0
3750 -3749 80 0
3750 3749 -80 0
-3751 3750 81 0
-3751 -3750 -81 0
3751 -3750 81 0
3751 3750 -81 0
-3752 3751 84 0
-3752 -3751 -84 0
3752 -3751 84 0
3752 3751 -84 0
-3753 3752 86 0
-3753 -3752 -86 0
3753 -3752 86 0
3753 3752 -86 0
-3754 3753 88 0
-3754 -3753 -88 0
3754 -3753 88 0
3754 3753 -88 0
-3755 3754 92 0
-3755 -3754 -92 0
3755 -3754 92 0
3755 3754 -92 0
-3756 3755 94 0
-3756 -3755 -94 0
3756 -3755 94 0
3756 3755 -94 0
-3757 3756 97 0
-3757 -3756 -97 0
3757 -3756 97 0
3757 3756 -97 0
-3758 3757 99 0
-3758 -3757 -99 0
3758 -3757 99 0
3758 3757 -99 0
-3759 3758 100 0
-3759 -3758 -100 0
3759 -3758 100 0
3759 3758 -100 0
-3760 3759 101 0
-3760 -3759 -101 0
3760 -3759 101 0
3760 3759 -101 0
-3761 3760 102 0
-3761 -3760 -102 0
3761 -3760 102 0
3761 3760 -102 0
-3762 3761 103 0
-3762 -3761 -103 0
3762 -3761 103 0
3762 3761 -103 0
-3763 3762 104 0
-3763 -3762 -104 0
3763 -3762 104 0
3763 3762 -104 0
-3764 3763 107 0
-3764 -3763 -107 0
3764 -3763 107 0
3764 3763 -107 0
-3764 0
-3765 35 53 0
-3765 -35 -53 0
3765 -35 53 0
3765 35 -53 0
-3766 3765 60 0
-3766 -3765 -60 0
3766 -3765 60 0
3766 3765 -60 0
-3767 3766 62 0
-3767 -3766 -62 0
3767 -3766 62 0
3767 3766 -62 0
-3768 3767 63 0
-3768 -3767 -63 0
3768 -3767 63 0
3768 3767 -63 0
-3769 3768 66 0
-3769 -3768 -66 0
3769 -3768 66 0
3769 3768 -66 0
-3770 3769 67 0
-3770 -3769 -67 0
3770 -3769 67 0
3770 3769 -67 0
-3771 3770 68 0
-3771 -3770 -68 0
3771 -3770 68 0
3771 3770 -68 0
-3772 3771 69 0
-3772 -3771 -69 0
3772 -3771 69 0
3772 3771 -69 0
-3773 3772 70 0
-3773 -3772 -70 0
3773 -3772 70 0
3773 3772 -70 0
-3774 3773 71 0
-3774 -3773 -71 0
3774 -3773 71 0
3774 3773 -71 0
-3775 3774 74 0
-3775 -3774 -74 0
3775 -3774 74 0
3775 3774 -74 0
-3776 3775 75 0
-3776 -3775 -75 0
3776 -3775 75 0
3776 3775 -75 0
-3777 3776 78 0
-3777 -3776 -78 0
3777 -3776 78 0
3777 3776 -78 0
-3778 3777 83 0
-3778 -3777 -83 0
3778 -3777 83 0
3778 3777 -83 0
-3779 3778 84 0
-3779 -3778 -84 0
3779 -3778 84 0
3779 3778 -84 0
-3780 3779 85 0
-3780 -3779 -85 0
3780 -3779 85 0
3780 3779 -85 0
-3781 3780 86 0
-3781 -3780 -86 0
3781 -3780 86 0
3781 3780 -86 0
-3782 3781 88 0
-3782 -3781 -88 0
3782 -3781 88 0
3782 3781 -88 0
-3783 3782 90 0
-3783 -3782 -90 0
3783 -3782 90 0
3783 3782 -90 0
-3784 3783 93 0
-3784 -3783 -93 0
3784 -3783 93 0
3784 3783 -93 0
-3785 3784 95 0
-3785 -3784 -95 0
3785 -3784 95 0
3785 3784 -95 0
-3786 3785 99 0
-3786 -3785 -99 0
3786 -3785 99 0
3786 3785 -99 0
-3787 3786 103 0
-3787 -3786 -103 0
3787 -3786 103 0
3787 3786 -103 0
-3788 3787 106 0
-3788 -3787 -106 0
3788 -3787 106 0
3788 3787 -106 0
-3789 3788 107 0
-3789 -3788 -107 0
3789 -3788 107 0
3789 3788 -107 0
-3789 0
-3790 36 54 0
-3790 -36 -54 0
3790 -36 54 0
3790 36 -54 0
-3791 3790 58 0
-3791 -3790 -58 0
3791 -3790 58 0
3791 3790 -58 0
-3792 3791 63 0
-3792 -3791 -63 0
3792 -3791 63 0
3792 3791 -63 0
-3793 3792 70 0
-3793 -3792 -70 0
3793 -3792 70 0
3793 3792 -70 0
-3794 3793 75 0
-3794 -3793 -75 0
3794 -3793 75 0
3794 3793 -75 0
-3795 3794 82 0
-3795 -3794 -82 0
3795 -3794 82 0
3795 3794 -82 0
-3796 3795 84 0
-3796 -3795 -84 0
3796 -3795 84 0
3796 3795 -84 0
-3797 3796 85 0
-3797 -3796 -85 0
3797 -3796 85 0
3797 3796 -85 0
-3798 3797 90 0
-3798 -3797 -90 0
3798 -3797 90 0
3798 3797 -90 0
-3799 3798 91 0
-3799 -3798 -91 0
3799 -3798 91 0
3799 3798 -91 0
-3800 3799 96 0
-3800 -3799 -96 0
3800 -3799 96 0
3800 3799 -96 0
-3801 3800 97 0
-3801 -3800 -97 0
3801 -3800 97 0
3801 3800 -97 0
-3802 3801 105 0
-3802 -3801 -105 0
3802 -3801 105 0
3802 3801 -105 0
-3802 0
-3803 37 47 0
-3803 -37 -47 0
3803 -37 47 0
3803 37 -47 0
-3804 3803 54 0
-3804 -3803 -54 0
3804 -3803 54 0
3804 3803 -54 0
-3805 3804 58 0
-3805 -3804 -58 0
3805 -3804 58 0
3805 3804 -58 0
-3806 3805 59 0
-3806 -3805 -59 0
3806 -3805 59 0
3806 3805 -59 0
-3807 3806 62 0
-3807 -3806 -62 0
3807 -3806 62 0
3807 3806 -62 0
-3808 3807 67 0
-3808 -3807 -67 0
3808 -3807 67 0
3808 3807 -67 0
-3809 3808 68 0
-3809 -3808 -68 0
3809 -3808 68 0
3809 3808 -68 0
-3810 3809 69 0
-3810 -3809 -69 0
3810 -3809 69 0
3810 3809 -69 0
-3811 3810 72 0
-3811 -3810 -72 0
3811 -3810 72 0
3811 3810 -72 0
-3812 3811 74 0
-3812 -3811 -74 0
3812 -3811 74 0
3812 3811 -74 0
-3813 3812 80 0
-3813 -3812 -80 0
3813 -3812 80 0
3813 3812 -80 0
-3814 3813 82 0
-3814 -3813 -82 0
3814 -3813 82 0
3814 3813 -82 0
-3815 3814 87 0
-3815 -3814 -87 0
3815 -3814 87 0
3815 3814 -87 0
-3816 3815 88 0
-3816 -3815 -88 0
3816 -3815 88 0
3816 3815 -88 0
-3817 3816 89 0
-3817 -3816 -89 0
3817 -3816 89 0
3817 3816 -89 0
-3818 3817 90 0
-3818 -3817 -90 0
3818 -3817 90 0
3818 3817 -90 0
-3819 3818 91 0
-3819 -3818 -91 0
3819 -3818 91 0
3819 3818 -91 0
-3820 3819 95 0
-3820 -3819 -95 0
3820 -3819 95 0
3820 3819 -95 0
-3821 3820 97 0
-3821 -3820 -97 0
3821 -3820 97 0
3821 3820 -97 0
-3822 3821 101 0
-3822 -3821 -101 0
3822 -3821 101 0
3822 3821 -101 0
-3823 3822 103 0
-3823 -3822 -103 0
3823 -3822 103 0
3823 3822 -103 0
-3824 3823 104 0
-3824 -3823 -104 0
3824 -3823 104 0
3824 3823 -104 0
-3825 3824 105 0
-3825 -3824 -105 0
3825 -3824 105 0
3825 3824 -105 0
-3826 3825 106 0
-3826 -3825 -106 0
3826 -3825 106 0
3826 3825 -106 0
-3827 3826 108 0
-3827 -3826 -108 0
3827 -3826 108 0
3827 3826 -108 0
-3827 0
-3828 38 48 0
-3828 -38 -48 0
3828 -38 48 0
3828 38 -48 0
-3829 3828 52 0
-3829 -3828 -52 0
3829 -3828 52 0
3829 3828 -52 0
-3830 3829 58 0
-3830 -3829 -58 0
3830 -3829 58 0
3830 3829 -58 0
-3831 3830 60 0
-3831 -3830 -60 0
3831 -3830 60 0
3831 3830 -60 0
-3832 3831 63 0
-3832 -3831 -63 0
3832 -3831 63 0
3832 3831 -63 0
-3833 3832 64 0
-3833 -3832 -64 0
3833 -3832 64 0
3833 3832 -64 0
-3834 3833 65 0
-3834 -3833 -65 0
3834 -3833 65 0
3834 3833 -65 0
-3835 3834 68 0
-3835 -3834 -68 0
3835 -3834 68 0
3835 3834 -68 0
-3836 3835 69 0
-3836 -3835 -69 0
3836 -3835 69 0
3836 3835 -69 0
-3837 3836 70 0
-3837 -3836 -70 0
3837 -3836 70 0
3837 3836 -70 0
-3838 3837 71 0
-3838 -3837 -71 0
3838 -3837 71 0
3838 3837 -71 0
-3839 3838 74 0
-3839 -3838 -74 0
3839 -3838 74 0
3839 3838 -74 0
-3840 3839 75 0
-3840 -3839 -75 0
3840 -3839 75 0
3840 3839 -75 0
-3841 3840 76 0
-3841 -3840 -76 0
3841 -3840 76 0
3841 3840 -76 0
-3842 3841 79 0
-3842 -3841 -79 0
3842 -3841 79 0
3842 3841 -79 0
-3843 3842 81 0
-3843 -3842 -81 0
3843 -3842 81 0
3843 3842 -81 0
-3844 3843 86 0
-3844 -3843 -86 0
3844 -3843 86 0
3844 3843 -86 0
-3845 3844 88 0
-3845 -3844 -88 0
3845 -3844 88 0
3845 3844 -88 0
-3846 3845 89 0
-3846 -3845 -89 0
3846 -3845 89 0
3846 3845 -89 0
-3847 3846 90 0
-3847 -3846 -90 0
3847 -3846 90 0
3847 3846 -90 0
-3848 3847 91 0
-3848 -3847 -91 0
3848 -3847 91 0
3848 3847 -91 0
-3849 3848 96 0
-3849 -3848 -96 0
3849 -3848 96 0
3849 3848 -96 0
-3850 3849 100 0
-3850 -3849 -100 0
3850 -3849 100 0
3850 3849 -100 0
-3851 3850 102 0
-3851 -3850 -102 0
3851 -3850 102 0
3851 3850 -102 0
-3852 3851 103 0
-3852 -3851 -103 0
3852 -3851 103 0
3852 3851 -103 0
-3853 3852 104 0
-3853 -3852 -104 0
3853 -3852 104 0
3853 3852 -104 0
-3854 3853 105 0
-3854 -3853 -105 0
3854 -3853 105 0
3854 3853 -105 0
-3854 0
-3855 39 46 0
-3855 -39 -46 0
3855 -39 46 0
3855 39 -46 0
-3856 3855 53 0
-3856 -3855 -53 0
3856 -3855 53 0
3856 3855 -53 0
-3857 3856 66 0
-3857 -3856 -66 0
3857 -3856 66 0
3857 3856 -66 0
-3858 3857 75 0
-3858 -3857 -75 0
3858 -3857 75 0
3858 3857 -75 0
-3859 3858 108 0
-3859 -3858 -108 0
3859 -3858 108 0
3859 3858 -108 0
-3859 0
-3860 40 47 0
-3860 -40 -47 0
3860 -40 47 0
3860 40 -47 0
-3861 3860 54 0
-3861 -3860 -54 0
3861 -3860 54 0
3861 3860 -54 0
-3862 3861 62 0
-3862 -3861 -62 0
3862 -3861 62 0
3862 3861 -62 0
-3863 3862 63 0
-3863 -3862 -63 0
3863 -3862 63 0
3863 3862 -63 0
-3864 3863 64 0
-3864 -3863 -64 0
3864 -3863 64 0
3864 3863 -64 0
-3865 3864 65 0
-3865 -3864 -65 0
3865 -3864 65 0
3865 3864 -65 0
-3866 3865 66 0
-3866 -3865 -66 0
3866 -3865 66 0
3866 3865 -66 0
-3867 3866 67 0
-3867 -3866 -67 0
3867 -3866 67 0
3867 3866 -67 0
-3868 3867 68 0
-3868 -3867 -68 0
3868 -3867 68 0
3868 3867 -68 0
-3869 3868 69 0
-3869 -3868 -69 0
3869 -3868 69 0
3869 3868 -69 0
-3870 3869 70 0
-3870 -3869 -70 0
3870 -3869 70 0
3870 3869 -70 0
-3871 3870 71 0
-3871 -3870 -71 0
3871 -3870 71 0
3871 3870 -71 0
-3872 3871 72 0
-3872 -3871 -72 0
3872 -3871 72 0
3872 3871 -72 0
-3873 3872 76 0
-3873 -3872 -76 0
3873 -3872 76 0
3873 3872 -76 0
-3874 3873 79 0
-3874 -3873 -79 0
3874 -3873 79 0
3874 3873 -79 0
-3875 3874 80 0
-3875 -3874 -80 0
3875 -3874 80 0
3875 3874 -80 0
-3876 3875 81 0
-3876 -3875 -81 0
3876 -3875 81 0
3876 3875 -81 0
-3877 3876 82 0
-3877 -3876 -82 0
3877 -3876 82 0
3877 3876 -82 0
-3878 3877 83 0
-3878 -3877 -83 0
3878 -3877 83 0
3878 3877 -83 0
-3879 3878 84 0
-3879 -3878 -84 0
3879 -3878 84 0
3879 3878 -84 0
-3880 3879 85 0
-3880 -3879 -85 0
3880 -3879 85 0
3880 3879 -85 0
-3881 3880 86 0
-3881 -3880 -86 0
3881 -3880 86 0
3881 3880 -86 0
-3882 3881 87 0
-3882 -3881 -87 0
3882 -3881 87 0
3882 3881 -87 0
-3883 3882 88 0
-3883 -3882 -88 0
3883 -3882 88 0
3883 3882 -88 0
-3884 3883 89 0
-3884 -3883 -89 0
3884 -3883 89 0
3884 3883 -89 0
-3885 3884 90 0
-3885 -3884 -90 0
3885 -3884 90 0
3885 3884 -90 0
-3886 3885 97 0
-3886 -3885 -97 0
3886 -3885 97 0
3886 3885 -97 0
-3887 3886 98 0
-3887 -3886 -98 0
3887 -3886 98 0
3887 3886 -98 0
-3888 3887 99 0
-3888 -3887 -99 0
3888 -3887 99 0
3888 3887 -99 0
-3889 3888 100 0
-3889 -3888 -100 0
3889 -3888 100 0
3889 3888 -100 0
-3890 3889 101 0
-3890 -3889 -101 0
3890 -3889 101 0
3890 3889 -101 0
-3891 3890 102 0
-3891 -3890 -102 0
3891 -3890 102 0
3891 3890 -102 0
-3892 3891 104 0
-3892 -3891 -104 0
3892 -3891 104 0
3892 3891 -104 0
-3893 3892 105 0
-3893 -3892 -105 0
3893 -3892 105 0
3893 3892 -105 0
-3894 3893 106 0
-3894 -3893 -106 0
3894 -3893 106 0
3894 3893 -106 0
-3895 3894 107 0
-3895 -3894 -107 0
3895 -3894 107 0
3895 3894 -107 0
-3896 3895 108 0
-3896 -3895 -108 0
3896 -3895 108 0
3896 3895 -108 0
-3896 0
-3897 41 48 0
-3897 -41 -48 0
3897 -41 48 0
3897 41 -48 0
-3898 3897 52 0
-3898 -3897 -52 0
3898 -3897 52 0
3898 3897 -52 0
-3899 3898 58 0
-3899 -3898 -58 0
3899 -3898 58 0
3899 3898 -58 0
-3900 3899 59 0
-3900 -3899 -59 0
3900 -3899 59 0
3900 3899 -59 0
-3901 3900 62 0
-3901 -3900 -62 0
3901 -3900 62 0
3901 3900 -62 0
-3902 3901 64 0
-3902 -3901 -64 0
3902 -3901 64 0
3902 3901 -64 0
-3903 3902 65 0
-3903 -3902 -65 0
3903 -3902 65 0
3903 3902 -65 0
-3904 3903 67 0
-3904 -3903 -67 0
3904 -3903 67 0
3904 3903 -67 0
-3905 3904 71 0
-3905 -3904 -71 0
3905 -3904 71 0
3905 3904 -71 0
-3906 3905 74 0
-3906 -3905 -74 0
3906 -3905 74 0
3906 3905 -74 0
-3907 3906 76 0
-3907 -3906 -76 0
3907 -3906 76 0
3907 3906 -76 0
-3908 3907 77 0
-3908 -3907 -77 0
3908 -3907 77 0
3908 3907 -77 0
-3909 3908 79 0
-3909 -3908 -79 0
3909 -3908 79 0
3909 3908 -79 0
-3910 3909 83 0
-3910 -3909 -83 0
3910 -3909 83 0
3910 3909 -83 0
-3911 3910 85 0
-3911 -3910 -85 0
3911 -3910 85 0
3911 3910 -85 0
-3912 3911 86 0
-3912 -3911 -86 0
3912 -3911 86 0
3912 3911 -86 0
-3913 3912 91 0
-3913 -3912 -91 0
3913 -3912 91 0
3913 3912 -91 0
-3914 3913 92 0
-3914 -3913 -92 0
3914 -3913 92 0
3914 3913 -92 0
-3915 3914 98 0
-3915 -3914 -98 0
3915 -3914 98 0
3915 3914 -98 0
-3916 3915 100 0
-3916 -3915 -100 0
3916 -3915 100 0
3916 3915 -100 0
-3917 3916 104 0
-3917 -3916 -104 0
3917 -3916 104 0
3917 3916 -104 0
-3918 3917 106 0
-3918 -3917 -106 0
3918 -3917 106 0
3918 3917 -106 0
-3919 3918 107 0
-3919 -3918 -107 0
3919 -3918 107 0
3919 3918 -107 0
-3919 0
-3920 42 46 0
-3920 -42 -46 0
3920 -42 46 0
3920 42 -46 0
-3921 3920 53 0
-3921 -3920 -53 0
3921 -3920 53 0
3921 3920 -53 0
-3922 3921 58 0
-3922 -3921 -58 0
3922 -3921 58 0
3922 3921 -58 0
-3923 3922 60 0
-3923 -3922 -60 0
3923 -3922 60 0
3923 3922 -60 0
-3924 3923 62 0
-3924 -3923 -62 0
3924 -3923 62 0
3924 3923 -62 0
-3925 3924 64 0
-3925 -3924 -64 0
3925 -3924 64 0
3925 3924 -64 0
-3926 3925 65 0
-3926 -3925 -65 0
3926 -3925 65 0
3926 3925 -65 0
-3927 3926 67 0
-3927 -3926 -67 0
3927 -3926 67 0
3927 3926 -67 0
-3928 3927 68 0
-3928 -3927 -68 0
3928 -3927 68 0
3928 3927 -68 0
-3929 3928 69 0
-3929 -3928 -69 0
3929 -3928 69 0
3929 3928 -69 0
-3930 3929 71 0
-3930 -3929 -71 0
3930 -3929 71 0
3930 3929 -71 0
-3931 3930 73 0
-3931 -3930 -73 0
3931 -3930 73 0
3931 3930 -73 0
-3932 3931 75 0
-3932 -3931 -75 0
3932 -3931 75 0
3932 3931 -75 0
-3933 3932 78 0
-3933 -3932 -78 0
3933 -3932 78 0
3933 3932 -78 0
-3934 3933 80 0
-3934 -3933 -80 0
3934 -3933 80 0
3934 3933 -80 0
-3935 3934 81 0
-3935 -3934 -81 0
3935 -3934 81 0
3935 3934 -81 0
-3936 3935 82 0
-3936 -3935 -82 0
3936 -3935 82 0
3936 3935 -82 0
-3937 3936 83 0
-3937 -3936 -83 0
3937 -3936 83 0
3937 3936 -83 0
-3938 3937 86 0
-3938 -3937 -86 0
3938 -3937 86 0
3938 3937 -86 0
-3939 3938 88 0
-3939 -3938 -88 0
3939 -3938 88 0
3939 3938 -88 0
-3940 3939 89 0
-3940 -3939 -89 0
3940 -3939 89 0
3940 3939 -89 0
-3941 3940 90 0
-3941 -3940 -90 0
3941 -3940 90 0
3941 3940 -90 0
-3942 3941 93 0
-3942 -3941 -93 0
3942 -3941 93 0
3942 3941 -93 0
-3943 3942 94 0
-3943 -3942 -94 0
3943 -3942 94 0
3943 3942 -94 0
-3944 3943 97 0
-3944 -3943 -97 0
3944 -3943 97 0
3944 3943 -97 0
-3945 3944 98 0
-3945 -3944 -98 0
3945 -3944 98 0
3945 3944 -98 0
-3946 3945 101 0
-3946 -3945 -101 0
3946 -3945 101 0
3946 3945 -101 0
-3947 3946 102 0
-3947 -3946 -102 0
3947 -3946 102 0
3947 3946 -102 0
-3948 3947 103 0
-3948 -3947 -103 0
3948 -3947 103 0
3948 3947 -103 0
-3949 3948 104 0
-3949 -3948 -104 0
3949 -3948 104 0
3949 3948 -104 0
-3950 3949 107 0
-3950 -3949 -107 0
3950 -3949 107 0
3950 3949 -107 0
-3950 0
-3951 43 46 0
-3951 -43 -46 0
3951 -43 46 0
3951 43 -46 0
-3952 3951 58 0
-3952 -3951 -58 0
3952 -3951 58 0
3952 3951 -58 0
-3953 3952 59 0
-3953 -3952 -59 0
3953 -3952 59 0
3953 3952 -59 0
-3954 3953 62 0
-3954 -3953 -62 0
3954 -3953 62 0
3954 3953 -62 0
-3955 3954 63 0
-3955 -3954 -63 0
3955 -3954 63 0
3955 3954 -63 0
-3956 3955 64 0
-3956 -3955 -64 0
3956 -3955 64 0
3956 3955 -64 0
-3957 3956 66 0
-3957 -3956 -66 0
3957 -3956 66 0
3957 3956 -66 0
-3958 3957 67 0
-3958 -3957 -67 0
3958 -3957 67 0
3958 3957 -67 0
-3959 3958 69 0
-3959 -3958 -69 0
3959 -3958 69 0
3959 3958 -69 0
-3960 3959 71 0
-3960 -3959 -71 0
3960 -3959 71 0
3960 3959 -71 0
-3961 3960 72 0
-3961 -3960 -72 0
3961 -3960 72 0
3961 3960 -72 0
-3962 3961 73 0
-3962 -3961 -73 0
3962 -3961 73 0
3962 3961 -73 0
-3963 3962 77 0
-3963 -3962 -77 0
3963 -3962 77 0
3963 3962 -77 0
-3964 3963 81 0
-3964 -3963 -81 0
3964 -3963 81 0
3964 3963 -81 0
-3965 3964 82 0
-3965 -3964 -82 0
3965 -3964 82 0
3965 3964 -82 0
-3966 3965 83 0
-3966 -3965 -83 0
3966 -3965 83 0
3966 3965 -83 0
-3967 3966 84 0
-3967 -3966 -84 0
3967 -3966 84 0
3967 3966 -84 0
-3968 3967 87 0
-3968 -3967 -87 0
3968 -3967 87 0
3968 3967 -87 0
-3969 3968 88 0
-3969 -3968 -88 0
3969 -3968 88 0
3969 3968 -88 0
-3970 3969 89 0
-3970 -3969 -89 0
3970 -3969 89 0
3970 3969 -89 0
-3971 3970 90 0
-3971 -3970 -90 0
3971 -3970 90 0
3971 3970 -90 0
-3972 3971 92 0
-3972 -3971 -92 0
3972 -3971 92 0
3972 3971 -92 0
-3973 3972 94 0
-3973 -3972 -94 0
3973 -3972 94 0
3973 3972 -94 0
-3974 3973 97 0
-3974 -3973 -97 0
3974 -3973 97 0
3974 3973 -97 0
-3975 3974 98 0
-3975 -3974 -98 0
3975 -3974 98 0
3975 3974 -98 0
-3976 3975 99 0
-3976 -3975 -99 0
3976 -3975 99 0
3976 3975 -99 0
-3977 3976 102 0
-3977 -3976 -102 0
3977 -3976 102 0
3977 3976 -102 0
-3978 3977 103 0
-3978 -3977 -103 0
3978 -3977 103 0
3978 3977 -103 0
-3979 3978 104 0
-3979 -3978 -104 0
3979 -3978 104 0
3979 3978 -104 0
-3980 3979 105 0
-3980 -3979 -105 0
3980 -3979 105 0
3980 3979 -105 0
-3981 3980 108 0
-3981 -3980 -108 0
3981 -3980 108 0
3981 3980 -108 0
-3981 0
-3982 44 47 0
-3982 -44 -47 0
3982 -44 47 0
3982 44 -47 0
-3983 3982 59 0
-3983 -3982 -59 0
3983 -3982 59 0
3983 3982 -59 0
-3984 3983 60 0
-3984 -3983 -60 0
3984 -3983 60 0
3984 3983 -60 0
-3985 3984 62 0
-3985 -3984 -62 0
3985 -3984 62 0
3985 3984 -62 0
-3986 3985 66 0
-3986 -3985 -66 0
3986 -3985 66 0
3986 3985 -66 0
-3987 3986 69 0
-3987 -3986 -69 0
3987 -3986 69 0
3987 3986 -69 0
-3988 3987 71 0
-3988 -3987 -71 0
3988 -3987 71 0
3988 3987 -71 0
-3989 3988 74 0
-3989 -3988 -74 0
3989 -3988 74 0
3989 3988 -74 0
-3990 3989 78 0
-3990 -3989 -78 0
3990 -3989 78 0
3990 3989 -78 0
-3991 3990 80 0
-3991 -3990 -80 0
3991 -3990 80 0
3991 3990 -80 0
-3992 3991 81 0
-3992 -3991 -81 0
3992 -3991 81 0
3992 3991 -81 0
-3993 3992 86 0
-3993 -3992 -86 0
3993 -3992 86 0
3993 3992 -86 0
-3994 3993 87 0
-3994 -3993 -87 0
3994 -3993 87 0
3994 3993 -87 0
-3995 3994 93 0
-3995 -3994 -93 0
3995 -3994 93 0
3995 3994 -93 0
-3996 3995 95 0
-3996 -3995 -95 0
3996 -3995 95 0
3996 3995 -95 0
-3997 3996 101 0
-3997 -3996 -101 0
3997 -3996 101 0
3997 3996 -101 0
-3998 3997 102 0
-3998 -3997 -102 0
3998 -3997 102 0
3998 3997 -102 0
-3999 3998 107 0
-3999 -3998 -107 0
3999 -3998 107 0
3999 3998 -107 0
-4000 3999 108 0
-4000 -3999 -108 0
4000 -3999 108 0
4000 3999 -108 0
-4000 0
-4001 45 48 0
-4001 -45 -48 0
4001 -45 48 0
4001 45 -48 0
-4002 4001 58 0
-4002 -4001 -58 0
4002 -4001 58 0
4002 4001 -58 0
-4003 4002 60 0
-4003 -4002 -60 0
4003 -4002 60 0
4003 4002 -60 0
-4004 4003 63 0
-4004 -4003 -63 0
4004 -4003 63 0
4004 4003 -63 0
-4005 4004 64 0
-4005 -4004 -64 0
4005 -4004 64 0
4005 4004 -64 0
-4006 4005 68 0
-4006 -4005 -68 0
4006 -4005 68 0
4006 4005 -68 0
-4007 4006 69 0
-4007 -4006 -69 0
4007 -4006 69 0
4007 4006 -69 0
-4008 4007 70 0
-4008 -4007 -70 0
4008 -4007 70 0
4008 4007 -70 0
-4009 4008 71 0
-4009 -4008 -71 0
4009 -4008 71 0
4009 4008 -71 0
-4010 4009 75 0
-4010 -4009 -75 0
4010 -4009 75 0
4010 4009 -75 0
-4011 4010 76 0
-4011 -4010 -76 0
4011 -4010 76 0
4011 4010 -76 0
-4012 4011 79 0
-4012 -4011 -79 0
4012 -4011 79 0
4012 4011 -79 0
-4013 4012 81 0
-4013 -4012 -81 0
4013 -4012 81 0
4013 4012 -81 0
-4014 4013 86 0
-4014 -4013 -86 0
4014 -4013 86 0
4014 4013 -86 0
-4015 4014 88 0
-4015 -4014 -88 0
4015 -4014 88 0
4015 4014 -88 0
-4016 4015 89 0
-4016 -4015 -89 0
4016 -4015 89 0
4016 4015 -89 0
-4017 4016 90 0
-4017 -4016 -90 0
4017 -4016 90 0
4017 4016 -90 0
-4018 4017 91 0
-4018 -4017 -91 0
4018 -4017 91 0
4018 4017 -91 0
-4019 4018 96 0
-4019 -4018 -96 0
4019 -4018 96 0
4019 4018 -96 0
-4020 4019 100 0
-4020 -4019 -100 0
4020 -4019 100 0
4020 4019 -100 0
-4021 4020 102 0
-4021 -4020 -102 0
4021 -4020 102 0
4021 4020 -102 0
-4022 4021 103 0
-4022 -4021 -103 0
4022 -4021 103 0
4022 4021 -103 0
-4023 4022 104 0
-4023 -4022 -104 0
4023 -4022 104 0
4023 4022 -104 0
-4024 4023 105 0
-4024 -4023 -105 0
4024 -4023 105 0
4024 4023 -105 0
-4025 4024 107 0
-4025 -4024 -107 0
4025 -4024 107 0
4025 4024 -107 0
-4025 0
-4026 49 52 0
-4026 -49 -52 0
4026 -49 52 0
4026 49 -52 0
-4027 4026 58 0
-4027 -4026 -58 0
4027 -4026 58 0
4027 4026 -58 0
-4028 4027 59 0
-4028 -4027 -59 0
4028 -4027 59 0
4028 4027 -59 0
-4029 4028 64 0
-4029 -4028 -64 0
4029 -4028 64 0
4029 4028 -64 0
-4030 4029 65 0
-4030 -4029 -65 0
4030 -4029 65 0
4030 4029 -65 0
-4031 4030 67 0
-4031 -4030 -67 0
4031 -4030 67 0
4031 4030 -67 0
-4032 4031 71 0
-4032 -4031 -71 0
4032 -4031 71 0
4032 4031 -71 0
-4033 4032 74 0
-4033 -4032 -74 0
4033 -4032 74 0
4033 4032 -74 0
-4034 4033 76 0
-4034 -4033 -76 0
4034 -4033 76 0
4034 4033 -76 0
-4035 4034 79 0
-4035 -4034 -79 0
4035 -4034 79 0
4035 4034 -79 0
-4036 4035 83 0
-4036 -4035 -83 0
4036 -4035 83 0
4036 4035 -83 0
-4037 4036 85 0
-4037 -4036 -85 0
4037 -4036 85 0
4037 4036 -85 0
-4038 4037 86 0
-4038 -4037 -86 0
4038 -4037 86 0
4038 4037 -86 0
-4039 4038 91 0
-4039 -4038 -91 0
4039 -4038 91 0
4039 4038 -91 0
-4040 4039 92 0
-4040 -4039 -92 0
4040 -4039 92 0
4040 4039 -92 0
-4041 4040 98 0
-4041 -4040 -98 0
4041 -4040 98 0
4041 4040 -98 0
-4042 4041 100 0
-4042 -4041 -100 0
4042 -4041 100 0
4042 4041 -100 0
-4043 4042 106 0
-4043 -4042 -106 0
4043 -4042 106 0
4043 4042 -106 0
-4044 4043 107 0
-4044 -4043 -107 0
4044 -4043 107 0
4044 4043 -107 0
-4044 0
-4045 50 53 0
-4045 -50 -53 0
4045 -50 53 0
4045 50 -53 0
-4046 4045 59 0
-4046 -4045 -59 0
4046 -4045 59 0
4046 4045 -59 0
-4047 4046 60 0
-4047 -4046 -60 0
4047 -4046 60 0
4047 4046 -60 0
-4048 4047 65 0
-4048 -4047 -65 0
4048 -4047 65 0
4048 4047 -65 0
-4049 4048 66 0
-4049 -4048 -66 0
4049 -4048 66 0
4049 4048 -66 0
-4050 4049 68 0
-4050 -4049 -68 0
4050 -4049 68 0
4050 4049 -68 0
-4051 4050 72 0
-4051 -4050 -72 0
4051 -4050 72 0
4051 4050 -72 0
-4052 4051 75 0
-4052 -4051 -75 0
4052 -4051 75 0
4052 4051 -75 0
-4053 4052 77 0
-4053 -4052 -77 0
4053 -4052 77 0
4053 4052 -77 0
-4054 4053 80 0
-4054 -4053 -80 0
4054 -4053 80 0
4054 4053 -80 0
-4055 4054 84 0
-4055 -4054 -84 0
4055 -4054 84 0
4055 4054 -84 0
-4056 4055 86 0
-4056 -4055 -86 0
4056 -4055 86 0
4056 4055 -86 0
-4057 4056 87 0
-4057 -4056 -87 0
4057 -4056 87 0
4057 4056 -87 0
-4058 4057 92 0
-4058 -4057 -92 0
4058 -4057 92 0
4058 4057 -92 0
-4059 4058 93 0
-4059 -4058 -93 0
4059 -4058 93 0
4059 4058 -93 0
-4060 4059 99 0
-4060 -4059 -99 0
4060 -4059 99 0
4060 4059 -99 0
-4061 4060 101 0
-4061 -4060 -101 0
4061 -4060 101 0
4061 4060 -101 0
-4062 4061 107 0
-4062 -4061 -107 0
4062 -4061 107 0
4062 4061 -107 0
-4063 4062 108 0
-4063 -4062 -108 0
4063 -4062 108 0
4063 4062 -108 0
-4063 0
-4064 51 54 0
-4064 -51 -54 0
4064 -51 54 0
4064 51 -54 0
-4065 4064 58 0
-4065 -4064 -58 0
4065 -4064 58 0
4065 4064 -58 0
-4066 4065 60 0
-4066 -4065 -60 0
4066 -4065 60 0
4066 4065 -60 0
-4067 4066 64 0
-4067 -4066 -64 0
4067 -4066 64 0
4067 4066 -64 0
-4068 4067 66 0
-4068 -4067 -66 0
4068 -4067 66 0
4068 4067 -66 0
-4069 4068 67 0
-4069 -4068 -67 0
4069 -4068 67 0
4069 4068 -67 0
-4070 4069 68 0
-4070 -4069 -68 0
4070 -4069 68 0
4070 4069 -68 0
-4071 4070 71 0
-4071 -4070 -71 0
4071 -4070 71 0
4071 4070 -71 0
-4072 4071 72 0
-4072 -4071 -72 0
4072 -4071 72 0
4072 4071 -72 0
-4073 4072 73 0
-4073 -4072 -73 0
4073 -4072 73 0
4073 4072 -73 0
-4074 4073 78 0
-4074 -4073 -78 0
4074 -4073 78 0
4074 4073 -78 0
-4075 4074 81 0
-4075 -4074 -81 0
4075 -4074 81 0
4075 4074 -81 0
-4076 4075 82 0
-4076 -4075 -82 0
4076 -4075 82 0
4076 4075 -82 0
-4077 4076 86 0
-4077 -4076 -86 0
4077 -4076 86 0
4077 4076 -86 0
-4078 4077 88 0
-4078 -4077 -88 0
4078 -4077 88 0
4078 4077 -88 0
-4079 4078 89 0
-4079 -4078 -89 0
4079 -4078 89 0
4079 4078 -89 0
-4080 4079 90 0
-4080 -4079 -90 0
4080 -4079 90 0
4080 4079 -90 0
-4081 4080 91 0
-4081 -4080 -91 0
4081 -4080 91 0
4081 4080 -91 0
-4082 4081 93 0
-4082 -4081 -93 0
4082 -4081 93 0
4082 4081 -93 0
-4083 4082 97 0
-4083 -4082 -97 0
4083 -4082 97 0
4083 4082 -97 0
-4084 4083 102 0
-4084 -4083 -102 0
4084 -4083 102 0
4084 4083 -102 0
-4085 4084 103 0
-4085 -4084 -103 0
4085 -4084 103 0
4085 4084 -103 0
-4086 4085 104 0
-4086 -4085 -104 0
4086 -4085 104 0
4086 4085 -104 0
-4087 4086 105 0
-4087 -4086 -105 0
4087 -4086 105 0
4087 4086 -105 0
-4088 4087 107 0
-4088 -4087 -107 0
4088 -4087 107 0
4088 4087 -107 0
-4088 0
-4089 55 58 0
-4089 -55 -58 0
4089 -55 58 0
4089 55 -58 0
-4090 4089 62 0
-4090 -4089 -62 0
4090 -4089 62 0
4090 4089 -62 0
-4091 4090 63 0
-4091 -4090 -63 0
4091 -4090 63 0
4091 4090 -63 0
-4092 4091 65 0
-4092 -4091 -65 0
4092 -4091 65 0
4092 4091 -65 0
-4093 4092 66 0
-4093 -4092 -66 0
4093 -4092 66 0
4093 4092 -66 0
-4094 4093 67 0
-4094 -4093 -67 0
4094 -4093 67 0
4094 4093 -67 0
-4095 4094 70 0
-4095 -4094 -70 0
4095 -4094 70 0
4095 4094 -70 0
-4096 4095 73 0
-4096 -4095 -73 0
4096 -4095 73 0
4096 4095 -73 0
-4097 4096 76 0
-4097 -4096 -76 0
4097 -4096 76 0
4097 4096 -76 0
-4098 4097 80 0
-4098 -4097 -80 0
4098 -4097 80 0
4098 4097 -80 0
-4099 4098 81 0
-4099 -4098 -81 0
4099 -4098 81 0
4099 4098 -81 0
-4100 4099 83 0
-4100 -4099 -83 0
4100 -4099 83 0
4100 4099 -83 0
-4101 4100 84 0
-4101 -4100 -84 0
4101 -4100 84 0
4101 4100 -84 0
-4102 4101 85 0
-4102 -4101 -85 0
4102 -4101 85 0
4102 4101 -85 0
-4103 4102 88 0
-4103 -4102 -88 0
4103 -4102 88 0
4103 4102 -88 0
-4104 4103 91 0
-4104 -4103 -91 0
4104 -4103 91 0
4104 4103 -91 0
-4105 4104 94 0
-4105 -4104 -94 0
4105 -4104 94 0
4105 4104 -94 0
-4106 4105 98 0
-4106 -4105 -98 0
4106 -4105 98 0
4106 4105 -98 0
-4107 4106 99 0
-4107 -4106 -99 0
4107 -4106 99 0
4107 4106 -99 0
-4108 4107 101 0
-4108 -4107 -101 0
4108 -4107 101 0
4108 4107 -101 0
-4109 4108 102 0
-4109 -4108 -102 0
4109 -4108 102 0
4109 4108 -102 0
-4110 4109 103 0
-4110 -4109 -103 0
4110 -4109 103 0
4110 4109 -103 0
-4111 4110 106 0
-4111 -4110 -106 0
4111 -4110 106 0
4111 4110 -106 0
-4111 0
-4112 56 59 0
-4112 -56 -59 0
4112 -56 59 0
4112 56 -59 0
-4113 4112 62 0
-4113 -4112 -62 0
4113 -4112 62 0
4113 4112 -62 0
-4114 4113 65 0
-4114 -4113 -65 0
4114 -4113 65 0
4114 4113 -65 0
-4115 4114 67 0
-4115 -4114 -67 0
4115 -4114 67 0
4115 4114 -67 0
-4116 4115 69 0
-4116 -4115 -69 0
4116 -4115 69 0
4116 4115 -69 0
-4117 4116 70 0
-4117 -4116 -70 0
4117 -4116 70 0
4117 4116 -70 0
-4118 4117 72 0
-4118 -4117 -72 0
4118 -4117 72 0
4118 4117 -72 0
-4119 4118 74 0
-4119 -4118 -74 0
4119 -4118 74 0
4119 4118 -74 0
-4120 4119 77 0
-4120 -4119 -77 0
4120 -4119 77 0
4120 4119 -77 0
-4121 4120 80 0
-4121 -4120 -80 0
4121 -4120 80 0
4121 4120 -80 0
-4122 4121 83 0
-4122 -4121 -83 0
4122 -4121 83 0
4122 4121 -83 0
-4123 4122 85 0
-4123 -4122 -85 0
4123 -4122 85 0
4123 4122 -85 0
-4124 4123 87 0
-4124 -4123 -87 0
4124 -4123 87 0
4124 4123 -87 0
-4125 4124 88 0
-4125 -4124 -88 0
4125 -4124 88 0
4125 4124 -88 0
-4126 4125 90 0
-4126 -4125 -90 0
4126 -4125 90 0
4126 4125 -90 0
-4127 4126 92 0
-4127 -4126 -92 0
4127 -4126 92 0
4127 4126 -92 0
-4128 4127 95 0
-4128 -4127 -95 0
4128 -4127 95 0
4128 4127 -95 0
-4129 4128 98 0
-4129 -4128 -98 0
4129 -4128 98 0
4129 4128 -98 0
-4130 4129 101 0
-4130 -4129 -101 0
4130 -4129 101 0
4130 4129 -101 0
-4131 4130 103 0
-4131 -4130 -103 0
4131 -4130 103 0
4131 4130 -103 0
-4132 4131 105 0
-4132 -4131 -105 0
4132 -4131 105 0
4132 4131 -105 0
-4133 4132 106 0
-4133 -4132 -106 0
4133 -4132 106 0
4133 4132 -106 0
-4134 4133 108 0
-4134 -4133 -108 0
4134 -4133 108 0
4134 4133 -108 0
-4134 0
-4135 57 60 0
-4135 -57 -60 0
4135 -57 60 0
4135 57 -60 0
-4136 4135 63 0
-4136 -4135 -63 0
4136 -4135 63 0
4136 4135 -63 0
-4137 4136 66 0
-4137 -4136 -66 0
4137 -4136 66 0
4137 4136 -66 0
-4138 4137 67 0
-4138 -4137 -67 0
4138 -4137 67 0
4138 4137 -67 0
-4139 4138 68 0
-4139 -4138 -68 0
4139 -4138 68 0
4139 4138 -68 0
-4140 4139 70 0
-4140 -4139 -70 0
4140 -4139 70 0
4140 4139 -70 0
-4141 4140 71 0
-4141 -4140 -71 0
4141 -4140 71 0
4141 4140 -71 0
-4142 4141 75 0
-4142 -4141 -75 0
4142 -4141 75 0
4142 4141 -75 0
-4143 4142 78 0
-4143 -4142 -78 0
4143 -4142 78 0
4143 4142 -78 0
-4144 4143 81 0
-4144 -4143 -81 0
4144 -4143 81 0
4144 4143 -81 0
-4145 4144 84 0
-4145 -4144 -84 0
4145 -4144 84 0
4145 4144 -84 0
-4146 4145 85 0
-4146 -4145 -85 0
4146 -4145 85 0
4146 4145 -85 0
-4147 4146 86 0
-4147 -4146 -86 0
4147 -4146 86 0
4147 4146 -86 0
-4148 4147 88 0
-4148 -4147 -88 0
4148 -4147 88 0
4148 4147 -88 0
-4149 4148 89 0
-4149 -4148 -89 0
4149 -4148 89 0
4149 4148 -89 0
-4150 4149 93 0
-4150 -4149 -93 0
4150 -4149 93 0
4150 4149 -93 0
-4151 4150 96 0
-4151 -4150 -96 0
4151 -4150 96 0
4151 4150 -96 0
-4152 4151 99 0
-4152 -4151 -99 0
4152 -4151 99 0
4152 4151 -99 0
-4153 4152 102 0
-4153 -4152 -102 0
4153 -4152 102 0
4153 4152 -102 0
-4154 4153 103 0
-4154 -4153 -103 0
4154 -4153 103 0
4154 4153 -103 0
-4155 4154 104 0
-4155 -4154 -104 0
4155 -4154 104 0
4155 4154 -104 0
-4156 4155 106 0
-4156 -4155 -106 0
4156 -4155 106 0
4156 4155 -106 0
-4157 4156 107 0
-4157 -4156 -107 0
4157 -4156 107 0
4157 4156 -107 0
-4157 0
-4158 61 62 0
-4158 -61 -62 0
4158 -61 62 0
4158 61 -62 0
-4159 4158 63 0
-4159 -4158 -63 0
4159 -4158 63 0
4159 4158 -63 0
-4160 4159 64 0
-4160 -4159 -64 0
4160 -4159 64 0
4160 4159 -64 0
-4161 4160 65 0
-4161 -4160 -65 0
4161 -4160 65 0
4161 4160 -65 0
-4162 4161 66 0
-4162 -4161 -66 0
4162 -4161 66 0
4162 4161 -66 0
-4163 4162 67 0
-4163 -4162 -67 0
4163 -4162 67 0
4163 4162 -67 0
-4164 4163 68 0
-4164 -4163 -68 0
4164 -4163 68 0
4164 4163 -68 0
-4165 4164 69 0
-4165 -4164 -69 0
4165 -4164 69 0
4165 4164 -69 0
-4166 4165 70 0
-4166 -4165 -70 0
4166 -4165 70 0
4166 4165 -70 0
-4167 4166 71 0
-4167 -4166 -71 0
4167 -4166 71 0
4167 4166 -71 0
-4168 4167 72 0
-4168 -4167 -72 0
4168 -4167 72 0
4168 4167 -72 0
-4169 4168 79 0
-4169 -4168 -79 0
4169 -4168 79 0
4169 4168 -79 0
-4170 4169 80 0
-4170 -4169 -80 0
4170 -4169 80 0
4170 4169 -80 0
-4171 4170 81 0
-4171 -4170 -81 0
4171 -4170 81 0
4171 4170 -81 0
-4172 4171 82 0
-4172 -4171 -82 0
4172 -4171 82 0
4172 4171 -82 0
-4173 4172 83 0
-4173 -4172 -83 0
4173 -4172 83 0
4173 4172 -83 0
-4174 4173 84 0
-4174 -4173 -84 0
4174 -4173 84 0
4174 4173 -84 0
-4175 4174 85 0
-4175 -4174 -85 0
4175 -4174 85 0
4175 4174 -85 0
-4176 4175 86 0
-4176 -4175 -86 0
4176 -4175 86 0
4176 4175 -86 0
-4177 4176 87 0
-4177 -4176 -87 0
4177 -4176 87 0
4177 4176 -87 0
-4178 4177 88 0
-4178 -4177 -88 0
4178 -4177 88 0
4178 4177 -88 0
-4179 4178 89 0
-4179 -4178 -89 0
4179 -4178 89 0
4179 4178 -89 0
-4180 4179 90 0
-4180 -4179 -90 0
4180 -4179 90 0
4180 4179 -90 0
-4181 4180 97 0
-4181 -4180 -97 0
4181 -4180 97 0
4181 4180 -97 0
-4182 4181 98 0
-4182 -4181 -98 0
4182 -4181 98 0
4182 4181 -98 0
-4183 4182 99 0
-4183 -4182 -99 0
4183 -4182 99 0
4183 4182 -99 0
-4184 4183 100 0
-4184 -4183 -100 0
4184 -4183 100 0
4184 4183 -100 0
-4185 4184 101 0
-4185 -4184 -101 0
4185 -4184 101 0
4185 4184 -101 0
-4186 4185 102 0
-4186 -4185 -102 0
4186 -4185 102 0
4186 4185 -102 0
-4187 4186 103 0
-4187 -4186 -103 0
4187 -4186 103 0
4187 4186 -103 0
-4188 4187 104 0
-4188 -4187 -104 0
4188 -4187 104 0
4188 4187 -104 0
-4189 4188 105 0
-4189 -4188 -105 0
4189 -4188 105 0
4189 4188 -105 0
-4190 4189 106 0
-4190 -4189 -106 0
4190 -4189 106 0
4190 4189 -106 0
-4191 4190 107 0
-4191 -4190 -107 0
4191 -4190 107 0
4191 4190 -107 0
-4192 4191 108 0
-4192 -4191 -108 0
4192 -4191 108 0
4192 4191 -108 0
-4192 0
-4194 110 114 0
-4194 -110 -114 0
4194 -110 114 0
4194 110 -114 0
-4195 4194 117 0
-4195 -4194 -117 0
4195 -4194 117 0
4195 4194 -117 0
-4196 4195 119 0
-4196 -4195 -119 0
4196 -4195 119 0
4196 4195 -119 0
-4197 4196 121 0
-4197 -4196 -121 0
4197 -4196 121 0
4197 4196 -121 0
-4198 4197 122 0
-4198 -4197 -122 0
4198 -4197 122 0
4198 4197 -122 0
-4199 4198 123 0
-4199 -4198 -123 0
4199 -4198 123 0
4199 4198 -123 0
-4200 4199 124 0
-4200 -4199 -124 0
4200 -4199 124 0
4200 4199 -124 0
-4201 4200 127 0
-4201 -4200 -127 0
4201 -4200 127 0
4201 4200 -127 0
-4202 4201 130 0
-4202 -4201 -130 0
4202 -4201 130 0
4202 4201 -130 0
-4203 4202 131 0
-4203 -4202 -131 0
4203 -4202 131 0
4203 4202 -131 0
-4204 4203 132 0
-4204 -4203 -132 0
4204 -4203 132 0
4204 4203 -132 0
-4205 4204 134 0
-4205 -4204 -134 0
4205 -4204 134 0
4205 4204 -134 0
-4206 4205 138 0
-4206 -4205 -138 0
4206 -4205 138 0
4206 4205 -138 0
-4207 4206 139 0
-4207 -4206 -139 0
4207 -4206 139 0
4207 4206 -139 0
-4208 4207 140 0
-4208 -4207 -140 0
4208 -4207 140 0
4208 4207 -140 0
-4209 4208 141 0
-4209 -4208 -141 0
4209 -4208 141 0
4209 4208 -141 0
-4210 4209 142 0
-4210 -4209 -142 0
4210 -4209 142 0
4210 4209 -142 0
-4211 4210 145 0
-4211 -4210 -145 0
4211 -4210 145 0
4211 4210 -145 0
-4212 4211 146 0
-4212 -4211 -146 0
4212 -4211 146 0
4212 4211 -146 0
-4213 4212 147 0
-4213 -4212 -147 0
4213 -4212 147 0
4213 4212 -147 0
-4214 4213 148 0
-4214 -4213 -148 0
4214 -4213 148 0
4214 4213 -148 0
-4215 4214 151 0
-4215 -4214 -151 0
4215 -4214 151 0
4215 4214 -151 0
-4216 4215 152 0
-4216 -4215 -152 0
4216 -4215 152 0
4216 4215 -152 0
-4217 4216 153 0
-4217 -4216 -153 0
4217 -4216 153 0
4217 4216 -153 0
-4218 4217 154 0
-4218 -4217 -154 0
4218 -4217 154 0
4218 4217 -154 0
-4219 4218 157 0
-4219 -4218 -157 0
4219 -4218 157 0
4219 4218 -157 0
-4220 4219 158 0
-4220 -4219 -158 0
4220 -4219 158 0
4220 4219 -158 0
-4221 4220 159 0
-4221 -4220 -159 0
4221 -4220 159 0
4221 4220 -159 0
-4222 4221 160 0
-4222 -4221 -160 0
4222 -4221 160 0
4222 4221 -160 0
-4223 4222 163 0
-4223 -4222 -163 0
4223 -4222 163 0
4223 4222 -163 0
-4224 4223 164 0
-4224 -4223 -164 0
4224 -4223 164 0
4224 4223 -164 0
-4225 4224 166 0
-4225 -4224 -166 0
4225 -4224 166 0
4225 4224 -166 0
-4226 4225 167 0
-4226 -4225 -167 0
4226 -4225 167 0
4226 4225 -167 0
-4227 4226 170 0
-4227 -4226 -170 0
4227 -4226 170 0
4227 4226 -170 0
-4228 4227 171 0
-4228 -4227 -171 0
4228 -4227 171 0
4228 4227 -171 0
-4229 4228 173 0
-4229 -4228 -173 0
4229 -4228 173 0
4229 4228 -173 0
-4230 4229 174 0
-4230 -4229 -174 0
4230 -4229 174 0
4230 4229 -174 0
-4231 4230 181 0
-4231 -4230 -181 0
4231 -4230 181 0
4231 4230 -181 0
-4232 4231 183 0
-4232 -4231 -183 0
4232 -4231 183 0
4232 4231 -183 0
-4233 4232 184 0
-4233 -4232 -184 0
4233 -4232 184 0
4233 4232 -184 0
-4234 4233 186 0
-4234 -4233 -186 0
4234 -4233 186 0
4234 4233 -186 0
-4235 4234 187 0
-4235 -4234 -187 0
4235 -4234 187 0
4235 4234 -187 0
-4236 4235 188 0
-4236 -4235 -188 0
4236 -4235 188 0
4236 4235 -188 0
-4237 4236 190 0
-4237 -4236 -190 0
4237 -4236 190 0
4237 4236 -190 0
-4238 4237 191 0
-4238 -4237 -191 0
4238 -4237 191 0
4238 4237 -191 0
-4193 4238 0
4193 -4238 0
-4240 111 112 0
-4240 -111 -112 0
4240 -111 112 0
4240 111 -112 0
-4241 4240 113 0
-4241 -4240 -113 0
4241 -4240 113 0
4241 4240 -113 0
-4242 4241 114 0
-4242 -4241 -114 0
4242 -4241 114 0
4242 4241 -114 0
-4243 4242 115 0
-4243 -4242 -115 0
4243 -4242 115 0
4243 4242 -115 0
-4244 4243 116 0
-4244 -4243 -116 0
4244 -4243 116 0
4244 4243 -116 0
-4245 4244 117 0
-4245 -4244 -117 0
4245 -4244 117 0
4245 4244 -117 0
-4246 4245 120 0
-4246 -4245 -120 0
4246 -4245 120 0
4246 4245 -120 0
-4247 4246 122 0
-4247 -4246 -122 0
4247 -4246 122 0
4247 4246 -122 0
-4248 4247 124 0
-4248 -4247 -124 0
4248 -4247 124 0
4248 4247 -124 0
-4249 4248 127 0
-4249 -4248 -127 0
4249 -4248 127 0
4249 4248 -127 0
-4250 4249 131 0
-4250 -4249 -131 0
4250 -4249 131 0
4250 4249 -131 0
-4251 4250 135 0
-4251 -4250 -135 0
4251 -4250 135 0
4251 4250 -135 0
-4252 4251 136 0
-4252 -4251 -136 0
4252 -4251 136 0
4252 4251 -136 0
-4253 4252 137 0
-4253 -4252 -137 0
4253 -4252 137 0
4253 4252 -137 0
-4254 4253 138 0
-4254 -4253 -138 0
4254 -4253 138 0
4254 4253 -138 0
-4255 4254 140 0
-4255 -4254 -140 0
4255 -4254 140 0
4255 4254 -140 0
-4256 4255 142 0
-4256 -4255 -142 0
4256 -4255 142 0
4256 4255 -142 0
-4257 4256 146 0
-4257 -4256 -146 0
4257 -4256 146 0
4257 4256 -146 0
-4258 4257 148 0
-4258 -4257 -148 0
4258 -4257 148 0
4258 4257 -148 0
-4259 4258 152 0
-4259 -4258 -152 0
4259 -4258 152 0
4259 4258 -152 0
-4260 4259 154 0
-4260 -4259 -154 0
4260 -4259 154 0
4260 4259 -154 0
-4261 4260 158 0
-4261 -4260 -158 0
4261 -4260 158 0
4261 4260 -158 0
-4262 4261 160 0
-4262 -4261 -160 0
4262 -4261 160 0
4262 4261 -160 0
-4263 4262 163 0
-4263 -4262 -163 0
4263 -4262 163 0
4263 4262 -163 0
-4264 4263 165 0
-4264 -4263 -165 0
4264 -4263 165 0
4264 4263 -165 0
-4265 4264 166 0
-4265 -4264 -166 0
4265 -4264 166 0
4265 4264 -166 0
-4266 4265 168 0
-4266 -4265 -168 0
4266 -4265 168 0
4266 4265 -168 0
-4267 4266 169 0
-4267 -4266 -169 0
4267 -4266 169 0
4267 4266 -169 0
-4268 4267 170 0
-4268 -4267 -170 0
4268 -4267 170 0
4268 4267 -170 0
-4269 4268 172 0
-4269 -4268 -172 0
4269 -4268 172 0
4269 4268 -172 0
-4270 4269 173 0
-4270 -4269 -173 0
4270 -4269 173 0
4270 4269 -173 0
-4271 4270 182 0
-4271 -4270 -182 0
4271 -4270 182 0
4271 4270 -182 0
-4272 4271 183 0
-4272 -4271 -183 0
4272 -4271 183 0
4272 4271 -183 0
-4273 4272 185 0
-4273 -4272 -185 0
4273 -4272 185 0
4273 4272 -185 0
-4274 4273 186 0
-4274 -4273 -186 0
4274 -4273 186 0
4274 4273 -186 0
-4275 4274 187 0
-4275 -4274 -187 0
4275 -4274 187 0
4275 4274 -187 0
-4276 4275 189 0
-4276 -4275 -189 0
4276 -4275 189 0
4276 4275 -189 0
-4277 4276 190 0
-4277 -4276 -190 0
4277 -4276 190 0
4277 4276 -190 0
-4278 4277 192 0
-4278 -4277 -192 0
4278 -4277 192 0
4278 4277 -192 0
-4239 4278 0
4239 -4278 0
-4280 109 112 0
-4280 -109 -112 0
4280 -109 112 0
4280 109 -112 0
-4281 4280 128 0
-4281 -4280 -128 0
4281 -4280 128 0
4281 4280 -128 0
-4282 4281 131 0
-4282 -4281 -131 0
4282 -4281 131 0
4282 4281 -131 0
-4283 4282 147 0
-4283 -4282 -147 0
4283 -4282 147 0
4283 4282 -147 0
-4284 4283 150 0
-4284 -4283 -150 0
4284 -4283 150 0
4284 4283 -150 0
-4285 4284 164 0
-4285 -4284 -164 0
4285 -4284 164 0
4285 4284 -164 0
-4286 4285 167 0
-4286 -4285 -167 0
4286 -4285 167 0
4286 4285 -167 0
-4287 4286 183 0
-4287 -4286 -183 0
4287 -4286 183 0
4287 4286 -183 0
-4288 4287 186 0
-4288 -4287 -186 0
4288 -4287 186 0
4288 4287 -186 0
-4289 4288 199 0
-4289 -4288 -199 0
4289 -4288 199 0
4289 4288 -199 0
-4290 4289 202 0
-4290 -4289 -202 0
4290 -4289 202 0
4290 4289 -202 0
-4279 4290 0
4279 -4290 0
-4292 111 112 0
-4292 -111 -112 0
4292 -111 112 0
4292 111 -112 0
-4293 4292 113 0
-4293 -4292 -113 0
4293 -4292 113 0
4293 4292 -113 0
-4294 4293 114 0
-4294 -4293 -114 0
4294 -4293 114 0
4294 4293 -114 0
-4295 4294 116 0
-4295 -4294 -116 0
4295 -4294 116 0
4295 4294 -116 0
-4296 4295 117 0
-4296 -4295 -117 0
4296 -4295 117 0
4296 4295 -117 0
-4297 4296 118 0
-4297 -4296 -118 0
4297 -4296 118 0
4297 4296 -118 0
-4298 4297 120 0
-4298 -4297 -120 0
4298 -4297 120 0
4298 4297 -120 0
-4299 4298 122 0
-4299 -4298 -122 0
4299 -4298 122 0
4299 4298 -122 0
-4300 4299 124 0
-4300 -4299 -124 0
4300 -4299 124 0
4300 4299 -124 0
-4301 4300 127 0
-4301 -4300 -127 0
4301 -4300 127 0
4301 4300 -127 0
-4302 4301 131 0
-4302 -4301 -131 0
4302 -4301 131 0
4302 4301 -131 0
-4303 4302 134 0
-4303 -4302 -134 0
4303 -4302 134 0
4303 4302 -134 0
-4304 4303 135 0
-4304 -4303 -135 0
4304 -4303 135 0
4304 4303 -135 0
-4305 4304 136 0
-4305 -4304 -136 0
4305 -4304 136 0
4305 4304 -136 0
-4306 4305 138 0
-4306 -4305 -138 0
4306 -4305 138 0
4306 4305 -138 0
-4307 4306 140 0
-4307 -4306 -140 0
4307 -4306 140 0
4307 4306 -140 0
-4308 4307 142 0
-4308 -4307 -142 0
4308 -4307 142 0
4308 4307 -142 0
-4309 4308 146 0
-4309 -4308 -146 0
4309 -4308 146 0
4309 4308 -146 0
-4310 4309 148 0
-4310 -4309 -148 0
4310 -4309 148 0
4310 4309 -148 0
-4311 4310 152 0
-4311 -4310 -152 0
4311 -4310 152 0
4311 4310 -152 0
-4312 4311 153 0
-4312 -4311 -153 0
4312 -4311 153 0
4312 4311 -153 0
-4313 4312 154 0
-4313 -4312 -154 0
4313 -4312 154 0
4313 4312 -154 0
-4314 4313 156 0
-4314 -4313 -156 0
4314 -4313 156 0
4314 4313 -156 0
-4315 4314 158 0
-4315 -4314 -158 0
4315 -4314 158 0
4315 4314 -158 0
-4316 4315 160 0
-4316 -4315 -160 0
4316 -4315 160 0
4316 4315 -160 0
-4317 4316 163 0
-4317 -4316 -163 0
4317 -4316 163 0
4317 4316 -163 0
-4318 4317 165 0
-4318 -4317 -165 0
4318 -4317 165 0
4318 4317 -165 0
-4319 4318 166 0
-4319 -4318 -166 0
4319 -4318 166 0
4319 4318 -166 0
-4320 4319 168 0
-4320 -4319 -168 0
4320 -4319 168 0
4320 4319 -168 0
-4321 4320 169 0
-4321 -4320 -169 0
4321 -4320 169 0
4321 4320 -169 0
-4322 4321 172 0
-4322 -4321 -172 0
4322 -4321 172 0
4322 4321 -172 0
-4323 4322 182 0
-4323 -4322 -182 0
4323 -4322 182 0
4323 4322 -182 0
-4324 4323 183 0
-4324 -4323 -183 0
4324 -4323 183 0
4324 4323 -183 0
-4325 4324 185 0
-4325 -4324 -185 0
4325 -4324 185 0
4325 4324 -185 0
-4326 4325 186 0
-4326 -4325 -186 0
4326 -4325 186 0
4326 4325 -186 0
-4327 4326 187 0
-4327 -4326 -187 0
4327 -4326 187 0
4327 4326 -187 0
-4328 4327 190 0
-4328 -4327 -190 0
4328 -4327 190 0
4328 4327 -190 0
-4329 4328 205 0
-4329 -4328 -205 0
4329 -4328 205 0
4329 4328 -205 0
-4330 4329 208 0
-4330 -4329 -208 0
4330 -4329 208 0
4330 4329 -208 0
-4291 4330 0
4291 -4330 0
-4332 109 110 0
-4332 -109 -110 0
4332 -109 110 0
4332 109 -110 0
-4333 4332 113 0
-4333 -4332 -113 0
4333 -4332 113 0
4333 4332 -113 0
-4334 4333 114 0
-4334 -4333 -114 0
4334 -4333 114 0
4334 4333 -114 0
-4335 4334 115 0
-4335 -4334 -115 0
4335 -4334 115 0
4335 4334 -115 0
-4336 4335 116 0
-4336 -4335 -116 0
4336 -4335 116 0
4336 4335 -116 0
-4337 4336 117 0
-4337 -4336 -117 0
4337 -4336 117 0
4337 4336 -117 0
-4338 4337 118 0
-4338 -4337 -118 0
4338 -4337 118 0
4338 4337 -118 0
-4339 4338 119 0
-4339 -4338 -119 0
4339 -4338 119 0
4339 4338 -119 0
-4340 4339 120 0
-4340 -4339 -120 0
4340 -4339 120 0
4340 4339 -120 0
-4341 4340 122 0
-4341 -4340 -122 0
4341 -4340 122 0
4341 4340 -122 0
-4342 4341 123 0
-4342 -4341 -123 0
4342 -4341 123 0
4342 4341 -123 0
-4343 4342 127 0
-4343 -4342 -127 0
4343 -4342 127 0
4343 4342 -127 0
-4344 4343 129 0
-4344 -4343 -129 0
4344 -4343 129 0
4344 4343 -129 0
-4345 4344 133 0
-4345 -4344 -133 0
4345 -4344 133 0
4345 4344 -133 0
-4346 4345 134 0
-4346 -4345 -134 0
4346 -4345 134 0
4346 4345 -134 0
-4347 4346 135 0
-4347 -4346 -135 0
4347 -4346 135 0
4347 4346 -135 0
-4348 4347 136 0
-4348 -4347 -136 0
4348 -4347 136 0
4348 4347 -136 0
-4349 4348 137 0
-4349 -4348 -137 0
4349 -4348 137 0
4349 4348 -137 0
-4350 4349 138 0
-4350 -4349 -138 0
4350 -4349 138 0
4350 4349 -138 0
-4351 4350 140 0
-4351 -4350 -140 0
4351 -4350 140 0
4351 4350 -140 0
-4352 4351 141 0
-4352 -4351 -141 0
4352 -4351 141 0
4352 4351 -141 0
-4353 4352 148 0
-4353 -4352 -148 0
4353 -4352 148 0
4353 4352 -148 0
-4354 4353 150 0
-4354 -4353 -150 0
4354 -4353 150 0
4354 4353 -150 0
-4355 4354 151 0
-4355 -4354 -151 0
4355 -4354 151 0
4355 4354 -151 0
-4356 4355 152 0
-4356 -4355 -152 0
4356 -4355 152 0
4356 4355 -152 0
-4357 4356 153 0
-4357 -4356 -153 0
4357 -4356 153 0
4357 4356 -153 0
-4358 4357 154 0
-4358 -4357 -154 0
4358 -4357 154 0
4358 4357 -154 0
-4359 4358 155 0
-4359 -4358 -155 0
4359 -4358 155 0
4359 4358 -155 0
-4360 4359 156 0
-4360 -4359 -156 0
4360 -4359 156 0
4360 4359 -156 0
-4361 4360 158 0
-4361 -4360 -158 0
4361 -4360 158 0
4361 4360 -158 0
-4362 4361 159 0
-4362 -4361 -159 0
4362 -4361 159 0
4362 4361 -159 0
-4363 4362 163 0
-4363 -4362 -163 0
4363 -4362 163 0
4363 4362 -163 0
-4364 4363 164 0
-4364 -4363 -164 0
4364 -4363 164 0
4364 4363 -164 0
-4365 4364 167 0
-4365 -4364 -167 0
4365 -4364 167 0
4365 4364 -167 0
-4366 4365 168 0
-4366 -4365 -168 0
4366 -4365 168 0
4366 4365 -168 0
-4367 4366 170 0
-4367 -4366 -170 0
4367 -4366 170 0
4367 4366 -170 0
-4368 4367 171 0
-4368 -4367 -171 0
4368 -4367 171 0
4368 4367 -171 0
-4369 4368 175 0
-4369 -4368 -175 0
4369 -4368 175 0
4369 4368 -175 0
-4370 4369 176 0
-4370 -4369 -176 0
4370 -4369 176 0
4370 4369 -176 0
-4371 4370 182 0
-4371 -4370 -182 0
4371 -4370 182 0
4371 4370 -182 0
-4372 4371 183 0
-4372 -4371 -183 0
4372 -4371 183 0
4372 4371 -183 0
-4373 4372 184 0
-4373 -4372 -184 0
4373 -4372 184 0
4373 4372 -184 0
-4374 4373 185 0
-4374 -4373 -185 0
4374 -4373 185 0
4374 4373 -185 0
-4375 4374 188 0
-4375 -4374 -188 0
4375 -4374 188 0
4375 4374 -188 0
-4376 4375 189 0
-4376 -4375 -189 0
4376 -4375 189 0
4376 4375 -189 0
-4377 4376 193 0
-4377 -4376 -193 0
4377 -4376 193 0
4377 4376 -193 0
-4378 4377 194 0
-4378 -4377 -194 0
4378 -4377 194 0
4378 4377 -194 0
-4379 4378 199 0
-4379 -4378 -199 0
4379 -4378 199 0
4379 4378 -199 0
-4380 4379 201 0
-4380 -4379 -201 0
4380 -4379 201 0
4380 4379 -201 0
-4381 4380 206 0
-4381 -4380 -206 0
4381 -4380 206 0
4381 4380 -206 0
-4382 4381 207 0
-4382 -4381 -207 0
4382 -4381 207 0
4382 4381 -207 0
-4383 4382 211 0
-4383 -4382 -211 0
4383 -4382 211 0
4383 4382 -211 0
-4384 4383 212 0
-4384 -4383 -212 0
4384 -4383 212 0
4384 4383 -212 0
-4331 4384 0
4331 -4384 0
-4386 109 114 0
-4386 -109 -114 0
4386 -109 114 0
4386 109 -114 0
-4387 4386 116 0
-4387 -4386 -116 0
4387 -4386 116 0
4387 4386 -116 0
-4388 4387 117 0
-4388 -4387 -117 0
4388 -4387 117 0
4388 4387 -117 0
-4389 4388 118 0
-4389 -4388 -118 0
4389 -4388 118 0
4389 4388 -118 0
-4390 4389 120 0
-4390 -4389 -120 0
4390 -4389 120 0
4390 4389 -120 0
-4391 4390 129 0
-4391 -4390 -129 0
4391 -4390 129 0
4391 4390 -129 0
-4392 4391 130 0
-4392 -4391 -130 0
4392 -4391 130 0
4392 4391 -130 0
-4393 4392 134 0
-4393 -4392 -134 0
4393 -4392 134 0
4393 4392 -134 0
-4394 4393 135 0
-4394 -4393 -135 0
4394 -4393 135 0
4394 4393 -135 0
-4395 4394 136 0
-4395 -4394 -136 0
4395 -4394 136 0
4395 4394 -136 0
-4396 4395 138 0
-4396 -4395 -138 0
4396 -4395 138 0
4396 4395 -138 0
-4397 4396 145 0
-4397 -4396 -145 0
4397 -4396 145 0
4397 4396 -145 0
-4398 4397 146 0
-4398 -4397 -146 0
4398 -4397 146 0
4398 4397 -146 0
-4399 4398 147 0
-4399 -4398 -147 0
4399 -4398 147 0
4399 4398 -147 0
-4400 4399 149 0
-4400 -4399 -149 0
4400 -4399 149 0
4400 4399 -149 0
-4401 4400 152 0
-4401 -4400 -152 0
4401 -4400 152 0
4401 4400 -152 0
-4402 4401 153 0
-4402 -4401 -153 0
4402 -4401 153 0
4402 4401 -153 0
-4403 4402 154 0
-4403 -4402 -154 0
4403 -4402 154 0
4403 4402 -154 0
-4404 4403 156 0
-4404 -4403 -156 0
4404 -4403 156 0
4404 4403 -156 0
-4405 4404 163 0
-4405 -4404 -163 0
4405 -4404 163 0
4405 4404 -163 0
-4406 4405 164 0
-4406 -4405 -164 0
4406 -4405 164 0
4406 4405 -164 0
-4407 4406 166 0
-4407 -4406 -166 0
4407 -4406 166 0
4407 4406 -166 0
-4408 4407 168 0
-4408 -4407 -168 0
4408 -4407 168 0
4408 4407 -168 0
-4409 4408 169 0
-4409 -4408 -169 0
4409 -4408 169 0
4409 4408 -169 0
-4410 4409 170 0
-4410 -4409 -170 0
4410 -4409 170 0
4410 4409 -170 0
-4411 4410 175 0
-4411 -4410 -175 0
4411 -4410 175 0
4411 4410 -175 0
-4412 4411 177 0
-4412 -4411 -177 0
4412 -4411 177 0
4412 4411 -177 0
-4413 4412 185 0
-4413 -4412 -185 0
4413 -4412 185 0
4413 4412 -185 0
-4414 4413 186 0
-4414 -4413 -186 0
4414 -4413 186 0
4414 4413 -186 0
-4415 4414 187 0
-4415 -4414 -187 0
4415 -4414 187 0
4415 4414 -187 0
-4416 4415 188 0
-4416 -4415 -188 0
4416 -4415 188 0
4416 4415 -188 0
-4417 4416 193 0
-4417 -4416 -193 0
4417 -4416 193 0
4417 4416 -193 0
-4418 4417 195 0
-4418 -4417 -195 0
4418 -4417 195 0
4418 4417 -195 0
-4419 4418 200 0
-4419 -4418 -200 0
4419 -4418 200 0
4419 4418 -200 0
-4420 4419 201 0
-4420 -4419 -201 0
4420 -4419 201 0
4420 4419 -201 0
-4421 4420 205 0
-4421 -4420 -205 0
4421 -4420 205 0
4421 4420 -205 0
-4422 4421 206 0
-4422 -4421 -206 0
4422 -4421 206 0
4422 4421 -206 0
-4423 4422 211 0
-4423 -4422 -211 0
4423 -4422 211 0
4423 4422 -211 0
-4424 4423 213 0
-4424 -4423 -213 0
4424 -4423 213 0
4424 4423 -213 0
-4385 4424 0
4385 -4424 0
-4426 1 2 0
-4426 -1 -2 0
4426 -1 2 0
4426 1 -2 0
-4427 4426 3 0
-4427 -4426 -3 0
4427 -4426 3 0
4427 4426 -3 0
-4428 4427 7 0
-4428 -4427 -7 0
4428 -4427 7 0
4428 4427 -7 0
-4429 4428 8 0
-4429 -4428 -8 0
4429 -4428 8 0
4429 4428 -8 0
-4430 4429 9 0
-4430 -4429 -9 0
4430 -4429 9 0
4430 4429 -9 0
-4431 4430 109 0
-4431 -4430 -109 0
4431 -4430 109 0
4431 4430 -109 0
-4432 4431 112 0
-4432 -4431 -112 0
4432 -4431 112 0
4432 4431 -112 0
-4433 4432 114 0
-4433 -4432 -114 0
4433 -4432 114 0
4433 4432 -114 0
-4434 4433 116 0
-4434 -4433 -116 0
4434 -4433 116 0
4434 4433 -116 0
-4435 4434 118 0
-4435 -4434 -118 0
4435 -4434 118 0
4435 4434 -118 0
-4436 4435 119 0
-4436 -4435 -119 0
4436 -4435 119 0
4436 4435 -119 0
-4437 4436 123 0
-4437 -4436 -123 0
4437 -4436 123 0
4437 4436 -123 0
-4438 4437 125 0
-4438 -4437 -125 0
4438 -4437 125 0
4438 4437 -125 0
-4439 4438 126 0
-4439 -4438 -126 0
4439 -4438 126 0
4439 4438 -126 0
-4440 4439 128 0
-4440 -4439 -128 0
4440 -4439 128 0
4440 4439 -128 0
-4441 4440 129 0
-4441 -4440 -129 0
4441 -4440 129 0
4441 4440 -129 0
-4442 4441 131 0
-4442 -4441 -131 0
4442 -4441 131 0
4442 4441 -131 0
-4443 4442 132 0
-4443 -4442 -132 0
4443 -4442 132 0
4443 4442 -132 0
-4444 4443 133 0
-4444 -4443 -133 0
4444 -4443 133 0
4444 4443 -133 0
-4445 4444 134 0
-4445 -4444 -134 0
4445 -4444 134 0
4445 4444 -134 0
-4446 4445 135 0
-4446 -4445 -135 0
4446 -4445 135 0
4446 4445 -135 0
-4447 4446 136 0
-4447 -4446 -136 0
4447 -4446 136 0
4447 4446 -136 0
-4448 4447 137 0
-4448 -4447 -137 0
4448 -4447 137 0
4448 4447 -137 0
-4449 4448 139 0
-4449 -4448 -139 0
4449 -4448 139 0
4449 4448 -139 0
-4450 4449 140 0
-4450 -4449 -140 0
4450 -4449 140 0
4450 4449 -140 0
-4451 4450 143 0
-4451 -4450 -143 0
4451 -4450 143 0
4451 4450 -143 0
-4452 4451 144 0
-4452 -4451 -144 0
4452 -4451 144 0
4452 4451 -144 0
-4453 4452 146 0
-4453 -4452 -146 0
4453 -4452 146 0
4453 4452 -146 0
-4454 4453 148 0
-4454 -4453 -148 0
4454 -4453 148 0
4454 4453 -148 0
-4455 4454 149 0
-4455 -4454 -149 0
4455 -4454 149 0
4455 4454 -149 0
-4456 4455 158 0
-4456 -4455 -158 0
4456 -4455 158 0
4456 4455 -158 0
-4457 4456 165 0
-4457 -4456 -165 0
4457 -4456 165 0
4457 4456 -165 0
-4458 4457 166 0
-4458 -4457 -166 0
4458 -4457 166 0
4458 4457 -166 0
-4459 4458 172 0
-4459 -4458 -172 0
4459 -4458 172 0
4459 4458 -172 0
-4460 4459 175 0
-4460 -4459 -175 0
4460 -4459 175 0
4460 4459 -175 0
-4461 4460 176 0
-4461 -4460 -176 0
4461 -4460 176 0
4461 4460 -176 0
-4462 4461 177 0
-4462 -4461 -177 0
4462 -4461 177 0
4462 4461 -177 0
-4463 4462 181 0
-4463 -4462 -181 0
4463 -4462 181 0
4463 4462 -181 0
-4464 4463 182 0
-4464 -4463 -182 0
4464 -4463 182 0
4464 4463 -182 0
-4465 4464 184 0
-4465 -4464 -184 0
4465 -4464 184 0
4465 4464 -184 0
-4466 4465 185 0
-4466 -4465 -185 0
4466 -4465 185 0
4466 4465 -185 0
-4467 4466 186 0
-4467 -4466 -186 0
4467 -4466 186 0
4467 4466 -186 0
-4468 4467 188 0
-4468 -4467 -188 0
4468 -4467 188 0
4468 4467 -188 0
-4469 4468 194 0
-4469 -4468 -194 0
4469 -4468 194 0
4469 4468 -194 0
-4470 4469 195 0
-4470 -4469 -195 0
4470 -4469 195 0
4470 4469 -195 0
-4471 4470 196 0
-4471 -4470 -196 0
4471 -4470 196 0
4471 4470 -196 0
-4472 4471 199 0
-4472 -4471 -199 0
4472 -4471 199 0
4472 4471 -199 0
-4473 4472 205 0
-4473 -4472 -205 0
4473 -4472 205 0
4473 4472 -205 0
-4474 4473 206 0
-4474 -4473 -206 0
4474 -4473 206 0
4474 4473 -206 0
-4425 4474 0
4425 -4474 0
-4476 1 4 0
-4476 -1 -4 0
4476 -1 4 0
4476 1 -4 0
-4477 4476 7 0
-4477 -4476 -7 0
4477 -4476 7 0
4477 4476 -7 0
-4478 4477 10 0
-4478 -4477 -10 0
4478 -4477 10 0
4478 4477 -10 0
-4479 4478 109 0
-4479 -4478 -109 0
4479 -4478 109 0
4479 4478 -109 0
-4480 4479 112 0
-4480 -4479 -112 0
4480 -4479 112 0
4480 4479 -112 0
-4481 4480 115 0
-4481 -4480 -115 0
4481 -4480 115 0
4481 4480 -115 0
-4482 4481 116 0
-4482 -4481 -116 0
4482 -4481 116 0
4482 4481 -116 0
-4483 4482 118 0
-4483 -4482 -118 0
4483 -4482 118 0
4483 4482 -118 0
-4484 4483 120 0
-4484 -4483 -120 0
4484 -4483 120 0
4484 4483 -120 0
-4485 4484 121 0
-4485 -4484 -121 0
4485 -4484 121 0
4485 4484 -121 0
-4486 4485 122 0
-4486 -4485 -122 0
4486 -4485 122 0
4486 4485 -122 0
-4487 4486 127 0
-4487 -4486 -127 0
4487 -4486 127 0
4487 4486 -127 0
-4488 4487 129 0
-4488 -4487 -129 0
4488 -4487 129 0
4488 4487 -129 0
-4489 4488 135 0
-4489 -4488 -135 0
4489 -4488 135 0
4489 4488 -135 0
-4490 4489 138 0
-4490 -4489 -138 0
4490 -4489 138 0
4490 4489 -138 0
-4491 4490 141 0
-4491 -4490 -141 0
4491 -4490 141 0
4491 4490 -141 0
-4492 4491 142 0
-4492 -4491 -142 0
4492 -4491 142 0
4492 4491 -142 0
-4493 4492 143 0
-4493 -4492 -143 0
4493 -4492 143 0
4493 4492 -143 0
-4494 4493 144 0
-4494 -4493 -144 0
4494 -4493 144 0
4494 4493 -144 0
-4495 4494 145 0
-4495 -4494 -145 0
4495 -4494 145 0
4495 4494 -145 0
-4496 4495 146 0
-4496 -4495 -146 0
4496 -4495 146 0
4496 4495 -146 0
-4497 4496 148 0
-4497 -4496 -148 0
4497 -4496 148 0
4497 4496 -148 0
-4498 4497 150 0
-4498 -4497 -150 0
4498 -4497 150 0
4498 4497 -150 0
-4499 4498 151 0
-4499 -4498 -151 0
4499 -4498 151 0
4499 4498 -151 0
-4500 4499 153 0
-4500 -4499 -153 0
4500 -4499 153 0
4500 4499 -153 0
-4501 4500 157 0
-4501 -4500 -157 0
4501 -4500 157 0
4501 4500 -157 0
-4502 4501 158 0
-4502 -4501 -158 0
4502 -4501 158 0
4502 4501 -158 0
-4503 4502 163 0
-4503 -4502 -163 0
4503 -4502 163 0
4503 4502 -163 0
-4504 4503 166 0
-4504 -4503 -166 0
4504 -4503 166 0
4504 4503 -166 0
-4505 4504 167 0
-4505 -4504 -167 0
4505 -4504 167 0
4505 4504 -167 0
-4506 4505 168 0
-4506 -4505 -168 0
4506 -4505 168 0
4506 4505 -168 0
-4507 4506 172 0
-4507 -4506 -172 0
4507 -4506 172 0
4507 4506 -172 0
-4508 4507 173 0
-4508 -4507 -173 0
4508 -4507 173 0
4508 4507 -173 0
-4509 4508 175 0
-4509 -4508 -175 0
4509 -4508 175 0
4509 4508 -175 0
-4510 4509 176 0
-4510 -4509 -176 0
4510 -4509 176 0
4510 4509 -176 0
-4511 4510 177 0
-4511 -4510 -177 0
4511 -4510 177 0
4511 4510 -177 0
-4512 4511 178 0
-4512 -4511 -178 0
4512 -4511 178 0
4512 4511 -178 0
-4513 4512 179 0
-4513 -4512 -179 0
4513 -4512 179 0
4513 4512 -179 0
-4514 4513 180 0
-4514 -4513 -180 0
4514 -4513 180 0
4514 4513 -180 0
-4515 4514 182 0
-4515 -4514 -182 0
4515 -4514 182 0
4515 4514 -182 0
-4516 4515 184 0
-4516 -4515 -184 0
4516 -4515 184 0
4516 4515 -184 0
-4517 4516 185 0
-4517 -4516 -185 0
4517 -4516 185 0
4517 4516 -185 0
-4518 4517 186 0
-4518 -4517 -186 0
4518 -4517 186 0
4518 4517 -186 0
-4519 4518 188 0
-4519 -4518 -188 0
4519 -4518 188 0
4519 4518 -188 0
-4520 4519 189 0
-4520 -4519 -189 0
4520 -4519 189 0
4520 4519 -189 0
-4521 4520 193 0
-4521 -4520 -193 0
4521 -4520 193 0
4521 4520 -193 0
-4522 4521 196 0
-4522 -4521 -196 0
4522 -4521 196 0
4522 4521 -196 0
-4523 4522 199 0
-4523 -4522 -199 0
4523 -4522 199 0
4523 4522 -199 0
-4524 4523 200 0
-4524 -4523 -200 0
4524 -4523 200 0
4524 4523 -200 0
-4525 4524 205 0
-4525 -4524 -205 0
4525 -4524 205 0
4525 4524 -205 0
-4526 4525 207 0
-4526 -4525 -207 0
4526 -4525 207 0
4526 4525 -207 0
-4475 4526 0
4475 -4526 0
-4528 2 5 0
-4528 -2 -5 0
4528 -2 5 0
4528 2 -5 0
-4529 4528 8 0
-4529 -4528 -8 0
4529 -4528 8 0
4529 4528 -8 0
-4530 4529 11 0
-4530 -4529 -11 0
4530 -4529 11 0
4530 4529 -11 0
-4531 4530 109 0
-4531 -4530 -109 0
4531 -4530 109 0
4531 4530 -109 0
-4532 4531 111 0
-4532 -4531 -111 0
4532 -4531 111 0
4532 4531 -111 0
-4533 4532 112 0
-4533 -4532 -112 0
4533 -4532 112 0
4533 4532 -112 0
-4534 4533 113 0
-4534 -4533 -113 0
4534 -4533 113 0
4534 4533 -113 0
-4535 4534 117 0
-4535 -4534 -117 0
4535 -4534 117 0
4535 4534 -117 0
-4536 4535 118 0
-4536 -4535 -118 0
4536 -4535 118 0
4536 4535 -118 0
-4537 4536 119 0
-4537 -4536 -119 0
4537 -4536 119 0
4537 4536 -119 0
-4538 4537 120 0
-4538 -4537 -120 0
4538 -4537 120 0
4538 4537 -120 0
-4539 4538 122 0
-4539 -4538 -122 0
4539 -4538 122 0
4539 4538 -122 0
-4540 4539 125 0
-4540 -4539 -125 0
4540 -4539 125 0
4540 4539 -125 0
-4541 4540 127 0
-4541 -4540 -127 0
4541 -4540 127 0
4541 4540 -127 0
-4542 4541 129 0
-4542 -4541 -129 0
4542 -4541 129 0
4542 4541 -129 0
-4543 4542 134 0
-4543 -4542 -134 0
4543 -4542 134 0
4543 4542 -134 0
-4544 4543 138 0
-4544 -4543 -138 0
4544 -4543 138 0
4544 4543 -138 0
-4545 4544 139 0
-4545 -4544 -139 0
4545 -4544 139 0
4545 4544 -139 0
-4546 4545 140 0
-4546 -4545 -140 0
4546 -4545 140 0
4546 4545 -140 0
-4547 4546 142 0
-4547 -4546 -142 0
4547 -4546 142 0
4547 4546 -142 0
-4548 4547 143 0
-4548 -4547 -143 0
4548 -4547 143 0
4548 4547 -143 0
-4549 4548 148 0
-4549 -4548 -148 0
4549 -4548 148 0
4549 4548 -148 0
-4550 4549 149 0
-4550 -4549 -149 0
4550 -4549 149 0
4550 4549 -149 0
-4551 4550 151 0
-4551 -4550 -151 0
4551 -4550 151 0
4551 4550 -151 0
-4552 4551 156 0
-4552 -4551 -156 0
4552 -4551 156 0
4552 4551 -156 0
-4553 4552 157 0
-4553 -4552 -157 0
4553 -4552 157 0
4553 4552 -157 0
-4554 4553 160 0
-4554 -4553 -160 0
4554 -4553 160 0
4554 4553 -160 0
-4555 4554 163 0
-4555 -4554 -163 0
4555 -4554 163 0
4555 4554 -163 0
-4556 4555 164 0
-4556 -4555 -164 0
4556 -4555 164 0
4556 4555 -164 0
-4557 4556 167 0
-4557 -4556 -167 0
4557 -4556 167 0
4557 4556 -167 0
-4558 4557 168 0
-4558 -4557 -168 0
4558 -4557 168 0
4558 4557 -168 0
-4559 4558 169 0
-4559 -4558 -169 0
4559 -4558 169 0
4559 4558 -169 0
-4560 4559 172 0
-4560 -4559 -172 0
4560 -4559 172 0
4560 4559 -172 0
-4561 4560 173 0
-4561 -4560 -173 0
4561 -4560 173 0
4561 4560 -173 0
-4562 4561 174 0
-4562 -4561 -174 0
4562 -4561 174 0
4562 4561 -174 0
-4563 4562 175 0
-4563 -4562 -175 0
4563 -4562 175 0
4563 4562 -175 0
-4564 4563 178 0
-4564 -4563 -178 0
4564 -4563 178 0
4564 4563 -178 0
-4565 4564 181 0
-4565 -4564 -181 0
4565 -4564 181 0
4565 4564 -181 0
-4566 4565 183 0
-4566 -4565 -183 0
4566 -4565 183 0
4566 4565 -183 0
-4567 4566 185 0
-4567 -4566 -185 0
4567 -4566 185 0
4567 4566 -185 0
-4568 4567 186 0
-4568 -4567 -186 0
4568 -4567 186 0
4568 4567 -186 0
-4569 4568 187 0
-4569 -4568 -187 0
4569 -4568 187 0
4569 4568 -187 0
-4570 4569 189 0
-4570 -4569 -189 0
4570 -4569 189 0
4570 4569 -189 0
-4571 4570 193 0
-4571 -4570 -193 0
4571 -4570 193 0
4571 4570 -193 0
-4572 4571 196 0
-4572 -4571 -196 0
4572 -4571 196 0
4572 4571 -196 0
-4573 4572 200 0
-4573 -4572 -200 0
4573 -4572 200 0
4573 4572 -200 0
-4574 4573 201 0
-4574 -4573 -201 0
4574 -4573 201 0
4574 4573 -201 0
-4575 4574 205 0
-4575 -4574 -205 0
4575 -4574 205 0
4575 4574 -205 0
-4576 4575 206 0
-4576 -4575 -206 0
4576 -4575 206 0
4576 4575 -206 0
-4527 4576 0
4527 -4576 0
-4578 1 2 0
-4578 -1 -2 0
4578 -1 2 0
4578 1 -2 0
-4579 4578 3 0
-4579 -4578 -3 0
4579 -4578 3 0
4579 4578 -3 0
-4580 4579 13 0
-4580 -4579 -13 0
4580 -4579 13 0
4580 4579 -13 0
-4581 4580 14 0
-4581 -4580 -14 0
4581 -4580 14 0
4581 4580 -14 0
-4582 4581 15 0
-4582 -4581 -15 0
4582 -4581 15 0
4582 4581 -15 0
-4583 4582 109 0
-4583 -4582 -109 0
4583 -4582 109 0
4583 4582 -109 0
-4584 4583 110 0
-4584 -4583 -110 0
4584 -4583 110 0
4584 4583 -110 0
-4585 4584 111 0
-4585 -4584 -111 0
4585 -4584 111 0
4585 4584 -111 0
-4586 4585 112 0
-4586 -4585 -112 0
4586 -4585 112 0
4586 4585 -112 0
-4587 4586 115 0
-4587 -4586 -115 0
4587 -4586 115 0
4587 4586 -115 0
-4588 4587 116 0
-4588 -4587 -116 0
4588 -4587 116 0
4588 4587 -116 0
-4589 4588 117 0
-4589 -4588 -117 0
4589 -4588 117 0
4589 4588 -117 0
-4590 4589 118 0
-4590 -4589 -118 0
4590 -4589 118 0
4590 4589 -118 0
-4591 4590 119 0
-4591 -4590 -119 0
4591 -4590 119 0
4591 4590 -119 0
-4592 4591 120 0
-4592 -4591 -120 0
4592 -4591 120 0
4592 4591 -120 0
-4593 4592 121 0
-4593 -4592 -121 0
4593 -4592 121 0
4593 4592 -121 0
-4594 4593 123 0
-4594 -4593 -123 0
4594 -4593 123 0
4594 4593 -123 0
-4595 4594 124 0
-4595 -4594 -124 0
4595 -4594 124 0
4595 4594 -124 0
-4596 4595 126 0
-4596 -4595 -126 0
4596 -4595 126 0
4596 4595 -126 0
-4597 4596 127 0
-4597 -4596 -127 0
4597 -4596 127 0
4597 4596 -127 0
-4598 4597 129 0
-4598 -4597 -129 0
4598 -4597 129 0
4598 4597 -129 0
-4599 4598 130 0
-4599 -4598 -130 0
4599 -4598 130 0
4599 4598 -130 0
-4600 4599 131 0
-4600 -4599 -131 0
4600 -4599 131 0
4600 4599 -131 0
-4601 4600 132 0
-4601 -4600 -132 0
4601 -4600 132 0
4601 4600 -132 0
-4602 4601 136 0
-4602 -4601 -136 0
4602 -4601 136 0
4602 4601 -136 0
-4603 4602 139 0
-4603 -4602 -139 0
4603 -4602 139 0
4603 4602 -139 0
-4604 4603 140 0
-4604 -4603 -140 0
4604 -4603 140 0
4604 4603 -140 0
-4605 4604 141 0
-4605 -4604 -141 0
4605 -4604 141 0
4605 4604 -141 0
-4606 4605 142 0
-4606 -4605 -142 0
4606 -4605 142 0
4606 4605 -142 0
-4607 4606 144 0
-4607 -4606 -144 0
4607 -4606 144 0
4607 4606 -144 0
-4608 4607 150 0
-4608 -4607 -150 0
4608 -4607 150 0
4608 4607 -150 0
-4609 4608 156 0
-4609 -4608 -156 0
4609 -4608 156 0
4609 4608 -156 0
-4610 4609 157 0
-4610 -4609 -157 0
4610 -4609 157 0
4610 4609 -157 0
-4611 4610 163 0
-4611 -4610 -163 0
4611 -4610 163 0
4611 4610 -163 0
-4612 4611 164 0
-4612 -4611 -164 0
4612 -4611 164 0
4612 4611 -164 0
-4613 4612 166 0
-4613 -4612 -166 0
4613 -4612 166 0
4613 4612 -166 0
-4614 4613 167 0
-4614 -4613 -167 0
4614 -4613 167 0
4614 4613 -167 0
-4615 4614 169 0
-4615 -4614 -169 0
4615 -4614 169 0
4615 4614 -169 0
-4616 4615 170 0
-4616 -4615 -170 0
4616 -4615 170 0
4616 4615 -170 0
-4617 4616 171 0
-4617 -4616 -171 0
4617 -4616 171 0
4617 4616 -171 0
-4618 4617 172 0
-4618 -4617 -172 0
4618 -4617 172 0
4618 4617 -172 0
-4619 4618 174 0
-4619 -4618 -174 0
4619 -4618 174 0
4619 4618 -174 0
-4620 4619 177 0
-4620 -4619 -177 0
4620 -4619 177 0
4620 4619 -177 0
-4621 4620 178 0
-4621 -4620 -178 0
4621 -4620 178 0
4621 4620 -178 0
-4622 4621 181 0
-4622 -4621 -181 0
4622 -4621 181 0
4622 4621 -181 0
-4623 4622 183 0
-4623 -4622 -183 0
4623 -4622 183 0
4623 4622 -183 0
-4624 4623 184 0
-4624 -4623 -184 0
4624 -4623 184 0
4624 4623 -184 0
-4625 4624 185 0
-4625 -4624 -185 0
4625 -4624 185 0
4625 4624 -185 0
-4626 4625 187 0
-4626 -4625 -187 0
4626 -4625 187 0
4626 4625 -187 0
-4627 4626 190 0
-4627 -4626 -190 0
4627 -4626 190 0
4627 4626 -190 0
-4628 4627 193 0
-4628 -4627 -193 0
4628 -4627 193 0
4628 4627 -193 0
-4629 4628 194 0
-4629 -4628 -194 0
4629 -4628 194 0
4629 4628 -194 0
-4630 4629 195 0
-4630 -4629 -195 0
4630 -4629 195 0
4630 4629 -195 0
-4631 4630 196 0
-4631 -4630 -196 0
4631 -4630 196 0
4631 4630 -196 0
-4632 4631 199 0
-4632 -4631 -199 0
4632 -4631 199 0
4632 4631 -199 0
-4633 4632 200 0
-4633 -4632 -200 0
4633 -4632 200 0
4633 4632 -200 0
-4634 4633 207 0
-4634 -4633 -207 0
4634 -4633 207 0
4634 4633 -207 0
-4577 4634 0
4577 -4634 0
-4636 1 2 0
-4636 -1 -2 0
4636 -1 2 0
4636 1 -2 0
-4637 4636 7 0
-4637 -4636 -7 0
4637 -4636 7 0
4637 4636 -7 0
-4638 4637 8 0
-4638 -4637 -8 0
4638 -4637 8 0
4638 4637 -8 0
-4639 4638 19 0
-4639 -4638 -19 0
4639 -4638 19 0
4639 4638 -19 0
-4640 4639 25 0
-4640 -4639 -25 0
4640 -4639 25 0
4640 4639 -25 0
-4641 4640 114 0
-4641 -4640 -114 0
4641 -4640 114 0
4641 4640 -114 0
-4642 4641 116 0
-4642 -4641 -116 0
4642 -4641 116 0
4642 4641 -116 0
-4643 4642 119 0
-4643 -4642 -119 0
4643 -4642 119 0
4643 4642 -119 0
-4644 4643 121 0
-4644 -4643 -121 0
4644 -4643 121 0
4644 4643 -121 0
-4645 4644 122 0
-4645 -4644 -122 0
4645 -4644 122 0
4645 4644 -122 0
-4646 4645 123 0
-4646 -4645 -123 0
4646 -4645 123 0
4646 4645 -123 0
-4647 4646 125 0
-4647 -4646 -125 0
4647 -4646 125 0
4647 4646 -125 0
-4648 4647 126 0
-4648 -4647 -126 0
4648 -4647 126 0
4648 4647 -126 0
-4649 4648 128 0
-4649 -4648 -128 0
4649 -4648 128 0
4649 4648 -128 0
-4650 4649 129 0
-4650 -4649 -129 0
4650 -4649 129 0
4650 4649 -129 0
-4651 4650 132 0
-4651 -4650 -132 0
4651 -4650 132 0
4651 4650 -132 0
-4652 4651 133 0
-4652 -4651 -133 0
4652 -4651 133 0
4652 4651 -133 0
-4653 4652 135 0
-4653 -4652 -135 0
4653 -4652 135 0
4653 4652 -135 0
-4654 4653 137 0
-4654 -4653 -137 0
4654 -4653 137 0
4654 4653 -137 0
-4655 4654 139 0
-4655 -4654 -139 0
4655 -4654 139 0
4655 4654 -139 0
-4656 4655 141 0
-4656 -4655 -141 0
4656 -4655 141 0
4656 4655 -141 0
-4657 4656 144 0
-4657 -4656 -144 0
4657 -4656 144 0
4657 4656 -144 0
-4658 4657 145 0
-4658 -4657 -145 0
4658 -4657 145 0
4658 4657 -145 0
-4659 4658 146 0
-4659 -4658 -146 0
4659 -4658 146 0
4659 4658 -146 0
-4660 4659 149 0
-4660 -4659 -149 0
4660 -4659 149 0
4660 4659 -149 0
-4661 4660 150 0
-4661 -4660 -150 0
4661 -4660 150 0
4661 4660 -150 0
-4662 4661 151 0
-4662 -4661 -151 0
4662 -4661 151 0
4662 4661 -151 0
-4663 4662 152 0
-4663 -4662 -152 0
4663 -4662 152 0
4663 4662 -152 0
-4664 4663 153 0
-4664 -4663 -153 0
4664 -4663 153 0
4664 4663 -153 0
-4665 4664 154 0
-4665 -4664 -154 0
4665 -4664 154 0
4665 4664 -154 0
-4666 4665 156 0
-4666 -4665 -156 0
4666 -4665 156 0
4666 4665 -156 0
-4667 4666 157 0
-4667 -4666 -157 0
4667 -4666 157 0
4667 4666 -157 0
-4668 4667 158 0
-4668 -4667 -158 0
4668 -4667 158 0
4668 4667 -158 0
-4669 4668 159 0
-4669 -4668 -159 0
4669 -4668 159 0
4669 4668 -159 0
-4670 4669 160 0
-4670 -4669 -160 0
4670 -4669 160 0
4670 4669 -160 0
-4671 4670 163 0
-4671 -4670 -163 0
4671 -4670 163 0
4671 4670 -163 0
-4672 4671 165 0
-4672 -4671 -165 0
4672 -4671 165 0
4672 4671 -165 0
-4673 4672 167 0
-4673 -4672 -167 0
4673 -4672 167 0
4673 4672 -167 0
-4674 4673 169 0
-4674 -4673 -169 0
4674 -4673 169 0
4674 4673 -169 0
-4675 4674 170 0
-4675 -4674 -170 0
4675 -4674 170 0
4675 4674 -170 0
-4676 4675 172 0
-4676 -4675 -172 0
4676 -4675 172 0
4676 4675 -172 0
-4677 4676 173 0
-4677 -4676 -173 0
4677 -4676 173 0
4677 4676 -173 0
-4678 4677 175 0
-4678 -4677 -175 0
4678 -4677 175 0
4678 4677 -175 0
-4679 4678 177 0
-4679 -4678 -177 0
4679 -4678 177 0
4679 4678 -177 0
-4680 4679 178 0
-4680 -4679 -178 0
4680 -4679 178 0
4680 4679 -178 0
-4681 4680 180 0
-4681 -4680 -180 0
4681 -4680 180 0
4681 4680 -180 0
-4682 4681 183 0
-4682 -4681 -183 0
4682 -4681 183 0
4682 4681 -183 0
-4683 4682 186 0
-4683 -4682 -186 0
4683 -4682 186 0
4683 4682 -186 0
-4684 4683 187 0
-4684 -4683 -187 0
4684 -4683 187 0
4684 4683 -187 0
-4685 4684 188 0
-4685 -4684 -188 0
4685 -4684 188 0
4685 4684 -188 0
-4686 4685 189 0
-4686 -4685 -189 0
4686 -4685 189 0
4686 4685 -189 0
-4687 4686 195 0
-4687 -4686 -195 0
4687 -4686 195 0
4687 4686 -195 0
-4688 4687 199 0
-4688 -4687 -199 0
4688 -4687 199 0
4688 4687 -199 0
-4689 4688 207 0
-4689 -4688 -207 0
4689 -4688 207 0
4689 4688 -207 0
-4690 4689 211 0
-4690 -4689 -211 0
4690 -4689 211 0
4690 4689 -211 0
-4635 4690 0
4635 -4690 0
-4692 1 7 0
-4692 -1 -7 0
4692 -1 7 0
4692 1 -7 0
-4693 4692 20 0
-4693 -4692 -20 0
4693 -4692 20 0
4693 4692 -20 0
-4694 4693 26 0
-4694 -4693 -26 0
4694 -4693 26 0
4694 4693 -26 0
-4695 4694 111 0
-4695 -4694 -111 0
4695 -4694 111 0
4695 4694 -111 0
-4696 4695 112 0
-4696 -4695 -112 0
4696 -4695 112 0
4696 4695 -112 0
-4697 4696 113 0
-4697 -4696 -113 0
4697 -4696 113 0
4697 4696 -113 0
-4698 4697 114 0
-4698 -4697 -114 0
4698 -4697 114 0
4698 4697 -114 0
-4699 4698 117 0
-4699 -4698 -117 0
4699 -4698 117 0
4699 4698 -117 0
-4700 4699 119 0
-4700 -4699 -119 0
4700 -4699 119 0
4700 4699 -119 0
-4701 4700 120 0
-4701 -4700 -120 0
4701 -4700 120 0
4701 4700 -120 0
-4702 4701 123 0
-4702 -4701 -123 0
4702 -4701 123 0
4702 4701 -123 0
-4703 4702 124 0
-4703 -4702 -124 0
4703 -4702 124 0
4703 4702 -124 0
-4704 4703 129 0
-4704 -4703 -129 0
4704 -4703 129 0
4704 4703 -129 0
-4705 4704 131 0
-4705 -4704 -131 0
4705 -4704 131 0
4705 4704 -131 0
-4706 4705 132 0
-4706 -4705 -132 0
4706 -4705 132 0
4706 4705 -132 0
-4707 4706 133 0
-4707 -4706 -133 0
4707 -4706 133 0
4707 4706 -133 0
-4708 4707 134 0
-4708 -4707 -134 0
4708 -4707 134 0
4708 4707 -134 0
-4709 4708 135 0
-4709 -4708 -135 0
4709 -4708 135 0
4709 4708 -135 0
-4710 4709 136 0
-4710 -4709 -136 0
4710 -4709 136 0
4710 4709 -136 0
-4711 4710 137 0
-4711 -4710 -137 0
4711 -4710 137 0
4711 4710 -137 0
-4712 4711 138 0
-4712 -4711 -138 0
4712 -4711 138 0
4712 4711 -138 0
-4713 4712 139 0
-4713 -4712 -139 0
4713 -4712 139 0
4713 4712 -139 0
-4714 4713 140 0
-4714 -4713 -140 0
4714 -4713 140 0
4714 4713 -140 0
-4715 4714 141 0
-4715 -4714 -141 0
4715 -4714 141 0
4715 4714 -141 0
-4716 4715 142 0
-4716 -4715 -142 0
4716 -4715 142 0
4716 4715 -142 0
-4717 4716 144 0
-4717 -4716 -144 0
4717 -4716 144 0
4717 4716 -144 0
-4718 4717 147 0
-4718 -4717 -147 0
4718 -4717 147 0
4718 4717 -147 0
-4719 4718 151 0
-4719 -4718 -151 0
4719 -4718 151 0
4719 4718 -151 0
-4720 4719 153 0
-4720 -4719 -153 0
4720 -4719 153 0
4720 4719 -153 0
-4721 4720 155 0
-4721 -4720 -155 0
4721 -4720 155 0
4721 4720 -155 0
-4722 4721 157 0
-4722 -4721 -157 0
4722 -4721 157 0
4722 4721 -157 0
-4723 4722 158 0
-4723 -4722 -158 0
4723 -4722 158 0
4723 4722 -158 0
-4724 4723 160 0
-4724 -4723 -160 0
4724 -4723 160 0
4724 4723 -160 0
-4725 4724 166 0
-4725 -4724 -166 0
4725 -4724 166 0
4725 4724 -166 0
-4726 4725 167 0
-4726 -4725 -167 0
4726 -4725 167 0
4726 4725 -167 0
-4727 4726 168 0
-4727 -4726 -168 0
4727 -4726 168 0
4727 4726 -168 0
-4728 4727 169 0
-4728 -4727 -169 0
4728 -4727 169 0
4728 4727 -169 0
-4729 4728 173 0
-4729 -4728 -173 0
4729 -4728 173 0
4729 4728 -173 0
-4730 4729 174 0
-4730 -4729 -174 0
4730 -4729 174 0
4730 4729 -174 0
-4731 4730 175 0
-4731 -4730 -175 0
4731 -4730 175 0
4731 4730 -175 0
-4732 4731 176 0
-4732 -4731 -176 0
4732 -4731 176 0
4732 4731 -176 0
-4733 4732 177 0
-4733 -4732 -177 0
4733 -4732 177 0
4733 4732 -177 0
-4734 4733 178 0
-4734 -4733 -178 0
4734 -4733 178 0
4734 4733 -178 0
-4735 4734 179 0
-4735 -4734 -179 0
4735 -4734 179 0
4735 4734 -179 0
-4736 4735 182 0
-4736 -4735 -182 0
4736 -4735 182 0
4736 4735 -182 0
-4737 4736 184 0
-4737 -4736 -184 0
4737 -4736 184 0
4737 4736 -184 0
-4738 4737 185 0
-4738 -4737 -185 0
4738 -4737 185 0
4738 4737 -185 0
-4739 4738 187 0
-4739 -4738 -187 0
4739 -4738 187 0
4739 4738 -187 0
-4740 4739 188 0
-4740 -4739 -188 0
4740 -4739 188 0
4740 4739 -188 0
-4741 4740 193 0
-4741 -4740 -193 0
4741 -4740 193 0
4741 4740 -193 0
-4742 4741 195 0
-4742 -4741 -195 0
4742 -4741 195 0
4742 4741 -195 0
-4743 4742 200 0
-4743 -4742 -200 0
4743 -4742 200 0
4743 4742 -200 0
-4744 4743 201 0
-4744 -4743 -201 0
4744 -4743 201 0
4744 4743 -201 0
-4745 4744 207 0
-4745 -4744 -207 0
4745 -4744 207 0
4745 4744 -207 0
-4746 4745 211 0
-4746 -4745 -211 0
4746 -4745 211 0
4746 4745 -211 0
-4691 4746 0
4691 -4746 0
4193 4239 4279 4291 4331 4385 4425 4475 4527 4577 4635 4691 0
217 0
-217 4747 0
-4747 4748 0
-218 -4747 4749 0
-4749 4750 0
-219 -4749 4751 0
-4751 4752 0
-220 -4751 4753 0
-4753 4754 0
-221 -4753 4755 0
-4755 4756 0
-222 -4755 4757 0
-4757 4758 0
-223 -4757 4759 0
-4759 4760 0
-224 -4759 0
-218 4748 0
-4748 4761 0
-219 -4748 4750 0
-4750 4762 0
-220 -4750 4752 0
-4752 4763 0
-221 -4752 4754 0
-4754 4764 0
-222 -4754 4756 0
-4756 4765 0
-223 -4756 4758 0
-4758 4766 0
-224 -4758 4760 0
-4760 4767 0
-225 -4760 0
-219 4761 0
-4761 4768 0
-220 -4761 4762 0
-4762 4769 0
-221 -4762 4763 0
-4763 4770 0
-222 -4763 4764 0
-4764 4771 0
-223 -4764 4765 0
-4765 4772 0
-224 -4765 4766 0
-4766 4773 0
-225 -4766 4767 0
-4767 4774 0
-226 -4767 0
-220 4768 0
-4768 4775 0
-221 -4768 4769 0
-4769 4776 0
-222 -4769 4770 0
-4770 4777 0
-223 -4770 4771 0
-4771 4778 0
-224 -4771 4772 0
-4772 4779 0
-225 -4772 4773 0
-4773 4780 0
-226 -4773 4774 0
-4774 4781 0
-227 -4774 0
-221 4775 0
-4775 4782 0
-222 -4775 4776 0
-4776 4783 0
-223 -4776 4777 0
-4777 4784 0
-224 -4777 4778 0
-4778 4785 0
-225 -4778 4779 0
-4779 4786 0
-226 -4779 4780 0
-4780 4787 0
-227 -4780 4781 0
-4781 4788 0
-228 -4781 0
-222 4782 0
-4782 4789 0
-223 -4782 4783 0
-4783 4790 0
-224 -4783 4784 0
-4784 4791 0
-225 -4784 4785 0
-4785 4792 0
-226 -4785 4786 0
-4786 4793 0
-227 -4786 4787 0
-4787 4794 0
-228 -4787 4788 0
-4788 4795 0
-229 -4788 0
-223 4789 0
-4789 4796 0
-224 -4789 4790 0
-4790 4797 0
-225 -4790 4791 0
-4791 4798 0
-226 -4791 4792 0
-4792 4799 0
-227 -4792 4793 0
-4793 4800 0
-228 -4793 4794 0
-4794 4801 0
-229 -4794 4795 0
-4795 4802 0
-230 -4795 0
-224 4796 0
-4796 4803 0
-225 -4796 4797 0
-4797 4804 0
-226 -4797 4798 0
-4798 4805 0
-227 -4798 4799 0
-4799 4806 0
-228 -4799 4800 0
-4800 4807 0
-229 -4800 4801 0
-4801 4808 0
-230 -4801 4802 0
-4802 4809 0
-231 -4802 0
-225 4803 0
-4803 4810 0
-226 -4803 4804 0
-4804 4811 0
-227 -4804 4805 0
-4805 4812 0
-228 -4805 4806 0
-4806 4813 0
-229 -4806 4807 0
-4807 4814 0
-230 -4807 4808 0
-4808 4815 0
-231 -4808 4809 0
-4809 4816 0
-232 -4809 0
-226 4810 0
-4810 4817 0
-227 -4810 4811 0
-4811 4818 0
-228 -4811 4812 0
-4812 4819 0
-229 -4812 4813 0
-4813 4820 0
-230 -4813 4814 0
-4814 4821 0
-231 -4814 4815 0
-4815 4822 0
-232 -4815 4816 0
-4816 4823 0
-233 -4816 0
-227 4817 0
-4817 4824 0
-228 -4817 4818 0
-4818 4825 0
-229 -4818 4819 0
-4819 4826 0
-230 -4819 4820 0
-4820 4827 0
-231 -4820 4821 0
-4821 4828 0
-232 -4821 4822 0
-4822 4829 0
-233 -4822 4823 0
-4823 4830 0
-234 -4823 0
-228 4824 0
-4824 4831 0
-229 -4824 4825 0
-4825 4832 0
-230 -4825 4826 0
-4826 4833 0
-231 -4826 4827 0
-4827 4834 0
-232 -4827 4828 0
-4828 4835 0
-233 -4828 4829 0
-4829 4836 0
-234 -4829 4830 0
-4830 4837 0
-235 -4830 0
-229 4831 0
-4831 4838 0
-230 -4831 4832 0
-4832 4839 0
-231 -4832 4833 0
-4833 4840 0
-232 -4833 4834 0
-4834 4841 0
-233 -4834 4835 0
-4835 4842 0
-234 -4835 4836 0
-4836 4843 0
-235 -4836 4837 0
-4837 4844 0
-236 -4837 0
-230 4838 0
-4838 4845 0
-231 -4838 4839 0
-4839 4846 0
-232 -4839 4840 0
-4840 4847 0
-233 -4840 4841 0
-4841 4848 0
-234 -4841 4842 0
-4842 4849 0
-235 -4842 4843 0
-4843 4850 0
-236 -4843 4844 0
-4844 4851 0
-237 -4844 0
-231 4845 0
-4845 4852 0
-232 -4845 4846 0
-4846 4853 0
-233 -4846 4847 0
-4847 4854 0
-234 -4847 4848 0
-4848 4855 0
-235 -4848 4849 0
-4849 4856 0
-236 -4849 4850 0
-4850 4857 0
-237 -4850 4851 0
-4851 4858 0
-238 -4851 0
-232 4852 0
-4852 4859 0
-233 -4852 4853 0
-4853 4860 0
-234 -4853 4854 0
-4854 4861 0
-235 -4854 4855 0
-4855 4862 0
-236 -4855 4856 0
-4856 4863 0
-237 -4856 4857 0
-4857 4864 0
-238 -4857 4858 0
-4858 4865 0
-239 -4858 0
-233 4859 0
-4859 4866 0
-234 -4859 4860 0
-4860 4867 0
-235 -4860 4861 0
-4861 4868 0
-236 -4861 4862 0
-4862 4869 0
-237 -4862 4863 0
-4863 4870 0
-238 -4863 4864 0
-4864 4871 0
-239 -4864 4865 0
-4865 4872 0
-240 -4865 0
-234 4866 0
-4866 4873 0
-235 -4866 4867 0
-4867 4874 0
-236 -4867 4868 0
-4868 4875 0
-237 -4868 4869 0
-4869 4876 0
-238 -4869 4870 0
-4870 4877 0
-239 -4870 4871 0
-4871 4878 0
-240 -4871 4872 0
-4872 4879 0
-241 -4872 0
-235 4873 0
-4873 4880 0
-236 -4873 4874 0
-4874 4881 0
-237 -4874 4875 0
-4875 4882 0
-238 -4875 4876 0
-4876 4883 0
-239 -4876 4877 0
-4877 4884 0
-240 -4877 4878 0
-4878 4885 0
-241 -4878 4879 0
-4879 4886 0
-242 -4879 0
-236 4880 0
-4880 4887 0
-237 -4880 4881 0
-4881 4888 0
-238 -4881 4882 0
-4882 4889 0
-239 -4882 4883 0
-4883 4890 0
-240 -4883 4884 0
-4884 4891 0
-241 -4884 4885 0
-4885 4892 0
-242 -4885 4886 0
-4886 4893 0
-243 -4886 0
-237 4887 0
-4887 4894 0
-238 -4887 4888 0
-4888 4895 0
-239 -4888 4889 0
-4889 4896 0
-240 -4889 4890 0
-4890 4897 0
-241 -4890 4891 0
-4891 4898 0
-242 -4891 4892 0
-4892 4899 0
-243 -4892 4893 0
-4893 4900 0
-244 -4893 0
-238 4894 0
-4894 4901 0
-239 -4894 4895 0
-4895 4902 0
-240 -4895 4896 0
-4896 4903 0
-241 -4896 4897 0
-4897 4904 0
-242 -4897 4898 0
-4898 4905 0
-243 -4898 4899 0
-4899 4906 0
-244 -4899 4900 0
-4900 4907 0
-245 -4900 0
-239 4901 0
-4901 4908 0
-240 -4901 4902 0
-4902 4909 0
-241 -4902 4903 0
-4903 4910 0
-242 -4903 4904 0
-4904 4911 0
-243 -4904 4905 0
-4905 4912 0
-244 -4905 4906 0
-4906 4913 0
-245 -4906 4907 0
-4907 4914 0
-246 -4907 0
-240 4908 0
-4908 4915 0
-241 -4908 4909 0
-4909 4916 0
-242 -4909 4910 0
-4910 4917 0
-243 -4910 4911 0
-4911 4918 0
-244 -4911 4912 0
-4912 4919 0
-245 -4912 4913 0
-4913 4920 0
-246 -4913 4914 0
-4914 4921 0
-247 -4914 0
-241 4915 0
-4915 4922 0
-242 -4915 4916 0
-4916 4923 0
-243 -4916 4917 0
-4917 4924 0
-244 -4917 4918 0
-4918 4925 0
-245 -4918 4919 0
-4919 4926 0
-246 -4919 4920 0
-4920 4927 0
-247 -4920 4921 0
-4921 4928 0
-248 -4921 0
-242 4922 0
-4922 4929 0
-243 -4922 4923 0
-4923 4930 0
-244 -4923 4924 0
-4924 4931 0
-245 -4924 4925 0
-4925 4932 0
-246 -4925 4926 0
-4926 4933 0
-247 -4926 4927 0
-4927 4934 0
-248 -4927 4928 0
-4928 4935 0
-249 -4928 0
-243 4929 0
-4929 4936 0
-244 -4929 4930 0
-4930 4937 0
-245 -4930 4931 0
-4931 4938 0
-246 -4931 4932 0
-4932 4939 0
-247 -4932 4933 0
-4933 4940 0
-248 -4933 4934 0
-4934 4941 0
-249 -4934 4935 0
-4935 4942 0
-250 -4935 0
-244 4936 0
-4936 4943 0
-245 -4936 4937 0
-4937 4944 0
-246 -4937 4938 0
-4938 4945 0
-247 -4938 4939 0
-4939 4946 0
-248 -4939 4940 0
-4940 4947 0
-249 -4940 4941 0
-4941 4948 0
-250 -4941 4942 0
-4942 4949 0
-251 -4942 0
-245 4943 0
-4943 4950 0
-246 -4943 4944 0
-4944 4951 0
-247 -4944 4945 0
-4945 4952 0
-248 -4945 4946 0
-4946 4953 0
-249 -4946 4947 0
-4947 4954 0
-250 -4947 4948 0
-4948 4955 0
-251 -4948 4949 0
-4949 4956 0
-252 -4949 0
-246 4950 0
-4950 4957 0
-247 -4950 4951 0
-4951 4958 0
-248 -4951 4952 0
-4952 4959 0
-249 -4952 4953 0
-4953 4960 0
-250 -4953 4954 0
-4954 4961 0
-251 -4954 4955 0
-4955 4962 0
-252 -4955 4956 0
-4956 4963 0
-253 -4956 0
-247 4957 0
-4957 4964 0
-248 -4957 4958 0
-4958 4965 0
-249 -4958 4959 0
-4959 4966 0
-250 -4959 4960 0
-4960 4967 0
-251 -4960 4961 0
-4961 4968 0
-252 -4961 4962 0
-4962 4969 0
-253 -4962 4963 0
-4963 4970 0
-254 -4963 0
-248 4964 0
-4964 4971 0
-249 -4964 4965 0
-4965 4972 0
-250 -4965 4966 0
-4966 4973 0
-251 -4966 4967 0
-4967 4974 0
-252 -4967 4968 0
-4968 4975 0
-253 -4968 4969 0
-4969 4976 0
-254 -4969 4970 0
-4970 4977 0
-255 -4970 0
-249 4971 0
-4971 4978 0
-250 -4971 4972 0
-4972 4979 0
-251 -4972 4973 0
-4973 4980 0
-252 -4973 4974 0
-4974 4981 0
-253 -4974 4975 0
-4975 4982 0
-254 -4975 4976 0
-4976 4983 0
-255 -4976 4977 0
-4977 4984 0
-256 -4977 0
-250 4978 0
-4978 4985 0
-251 -4978 4979 0
-4979 4986 0
-252 -4979 4980 0
-4980 4987 0
-253 -4980 4981 0
-4981 4988 0
-254 -4981 4982 0
-4982 4989 0
-255 -4982 4983 0
-4983 4990 0
-256 -4983 4984 0
-4984 4991 0
-257 -4984 0
-251 4985 0
-4985 4992 0
-252 -4985 4986 0
-4986 4993 0
-253 -4986 4987 0
-4987 4994 0
-254 -4987 4988 0
-4988 4995 0
-255 -4988 4989 0
-4989 4996 0
-256 -4989 4990 0
-4990 4997 0
-257 -4990 4991 0
-4991 4998 0
-258 -4991 0
-252 4992 0
-4992 4999 0
-253 -4992 4993 0
-4993 5000 0
-254 -4993 4994 0
-4994 5001 0
-255 -4994 4995 0
-4995 5002 0
-256 -4995 4996 0
-4996 5003 0
-257 -4996 4997 0
-4997 5004 0
-258 -4997 4998 0
-4998 5005 0
-259 -4998 0
-253 4999 0
-4999 5006 0
-254 -4999 5000 0
-5000 5007 0
-255 -5000 5001 0
-5001 5008 0
-256 -5001 5002 0
-5002 5009 0
-257 -5002 5003 0
-5003 5010 0
-258 -5003 5004 0
-5004 5011 0
-259 -5004 5005 0
-5005 5012 0
-260 -5005 0
-254 5006 0
-5006 5013 0
-255 -5006 5007 0
-5007 5014 0
-256 -5007 5008 0
-5008 5015 0
-257 -5008 5009 0
-5009 5016 0
-258 -5009 5010 0
-5010 5017 0
-259 -5010 5011 0
-5011 5018 0
-260 -5011 5012 0
-5012 5019 0
-261 -5012 0
-255 5013 0
-5013 5020 0
-256 -5013 5014 0
-5014 5021 0
-257 -5014 5015 0
-5015 5022 0
-258 -5015 5016 0
-5016 5023 0
-259 -5016 5017 0
-5017 5024 0
-260 -5017 5018 0
-5018 5025 0
-261 -5018 5019 0
-5019 5026 0
-262 -5019 0
-256 5020 0
-5020 5027 0
-257 -5020 5021 0
-5021 5028 0
-258 -5021 5022 0
-5022 5029 0
-259 -5022 5023 0
-5023 5030 0
-260 -5023 5024 0
-5024 5031 0
-261 -5024 5025 0
-5025 5032 0
-262 -5025 5026 0
-5026 5033 0
-263 -5026 0
-257 5027 0
-5027 5034 0
-258 -5027 5028 0
-5028 5035 0
-259 -5028 5029 0
-5029 5036 0
-260 -5029 5030 0
-5030 5037 0
-261 -5030 5031 0
-5031 5038 0
-262 -5031 5032 0
-5032 5039 0
-263 -5032 5033 0
-5033 5040 0
-264 -5033 0
-258 5034 0
-5034 5041 0
-259 -5034 5035 0
-5035 5042 0
-260 -5035 5036 0
-5036 5043 0
-261 -5036 5037 0
-5037 5044 0
-262 -5037 5038 0
-5038 5045 0
-263 -5038 5039 0
-5039 5046 0
-264 -5039 5040 0
-5040 5047 0
-265 -5040 0
-259 5041 0
-5041 5048 0
-260 -5041 5042 0
-5042 5049 0
-261 -5042 5043 0
-5043 5050 0
-262 -5043 5044 0
-5044 5051 0
-263 -5044 5045 0
-5045 5052 0
-264 -5045 5046 0
-5046 5053 0
-265 -5046 5047 0
-5047 5054 0
-266 -5047 0
-260 5048 0
-5048 5055 0
-261 -5048 5049 0
-5049 5056 0
-262 -5049 5050 0
-5050 5057 0
-263 -5050 5051 0
-5051 5058 0
-264 -5051 5052 0
-5052 5059 0
-265 -5052 5053 0
-5053 5060 0
-266 -5053 5054 0
-5054 5061 0
-267 -5054 0
-261 5055 0
-5055 5062 0
-262 -5055 5056 0
-5056 5063 0
-263 -5056 5057 0
-5057 5064 0
-264 -5057 5058 0
-5058 5065 0
-265 -5058 5059 0
-5059 5066 0
-266 -5059 5060 0
-5060 5067 0
-267 -5060 5061 0
-5061 5068 0
-268 -5061 0
-262 5062 0
-5062 5069 0
-263 -5062 5063 0
-5063 5070 0
-264 -5063 5064 0
-5064 5071 0
-265 -5064 5065 0
-5065 5072 0
-266 -5065 5066 0
-5066 5073 0
-267 -5066 5067 0
-5067 5074 0
-268 -5067 5068 0
-5068 5075 0
-269 -5068 0
-263 5069 0
-5069 5076 0
-264 -5069 5070 0
-5070 5077 0
-265 -5070 5071 0
-5071 5078 0
-266 -5071 5072 0
-5072 5079 0
-267 -5072 5073 0
-5073 5080 0
-268 -5073 5074 0
-5074 5081 0
-269 -5074 5075 0
-5075 5082 0
-270 -5075 0
-264 5076 0
-5076 5083 0
-265 -5076 5077 0
-5077 5084 0
-266 -5077 5078 0
-5078 5085 0
-267 -5078 5079 0
-5079 5086 0
-268 -5079 5080 0
-5080 5087 0
-269 -5080 5081 0
-5081 5088 0
-270 -5081 5082 0
-5082 5089 0
-271 -5082 0
-265 5083 0
-5083 5090 0
-266 -5083 5084 0
-5084 5091 0
-267 -5084 5085 0
-5085 5092 0
-268 -5085 5086 0
-5086 5093 0
-269 -5086 5087 0
-5087 5094 0
-270 -5087 5088 0
-5088 5095 0
-271 -5088 5089 0
-5089 5096 0
-272 -5089 0
-266 5090 0
-5090 5097 0
-267 -5090 5091 0
-5091 5098 0
-268 -5091 5092 0
-5092 5099 0
-269 -5092 5093 0
-5093 5100 0
-270 -5093 5094 0
-5094 5101 0
-271 -5094 5095 0
-5095 5102 0
-272 -5095 5096 0
-5096 5103 0
-273 -5096 0
-267 5097 0
-5097 5104 0
-268 -5097 5098 0
-5098 5105 0
-269 -5098 5099 0
-5099 5106 0
-270 -5099 5100 0
-5100 5107 0
-271 -5100 5101 0
-5101 5108 0
-272 -5101 5102 0
-5102 5109 0
-273 -5102 5103 0
-5103 5110 0
-274 -5103 0
-268 5104 0
-5104 5111 0
-269 -5104 5105 0
-5105 5112 0
-270 -5105 5106 0
-5106 5113 0
-271 -5106 5107 0
-5107 5114 0
-272 -5107 5108 0
-5108 5115 0
-273 -5108 5109 0
-5109 5116 0
-274 -5109 5110 0
-5110 5117 0
-275 -5110 0
-269 5111 0
-5111 5118 0
-270 -5111 5112 0
-5112 5119 0
-271 -5112 5113 0
-5113 5120 0
-272 -5113 5114 0
-5114 5121 0
-273 -5114 5115 0
-5115 5122 0
-274 -5115 5116 0
-5116 5123 0
-275 -5116 5117 0
-5117 5124 0
-276 -5117 0
-270 5118 0
-5118 5125 0
-271 -5118 5119 0
-5119 5126 0
-272 -5119 5120 0
-5120 5127 0
-273 -5120 5121 0
-5121 5128 0
-274 -5121 5122 0
-5122 5129 0
-275 -5122 5123 0
-5123 5130 0
-276 -5123 5124 0
-5124 5131 0
-277 -5124 0
-271 5125 0
-5125 5132 0
-272 -5125 5126 0
-5126 5133 0
-273 -5126 5127 0
-5127 5134 0
-274 -5127 5128 0
-5128 5135 0
-275 -5128 5129 0
-5129 5136 0
-276 -5129 5130 0
-5130 5137 0
-277 -5130 5131 0
-5131 5138 0
-278 -5131 0
-272 5132 0
-5132 5139 0
-273 -5132 5133 0
-5133 5140 0
-274 -5133 5134 0
-5134 5141 0
-275 -5134 5135 0
-5135 5142 0
-276 -5135 5136 0
-5136 5143 0
-277 -5136 5137 0
-5137 5144 0
-278 -5137 5138 0
-5138 5145 0
-279 -5138 0
-273 5139 0
-5139 5146 0
-274 -5139 5140 0
-5140 5147 0
-275 -5140 5141 0
-5141 5148 0
-276 -5141 5142 0
-5142 5149 0
-277 -5142 5143 0
-5143 5150 0
-278 -5143 5144 0
-5144 5151 0
-279 -5144 5145 0
-5145 5152 0
-280 -5145 0
-274 5146 0
-5146 5153 0
-275 -5146 5147 0
-5147 5154 0
-276 -5147 5148 0
-5148 5155 0
-277 -5148 5149 0
-5149 5156 0
-278 -5149 5150 0
-5150 5157 0
-279 -5150 5151 0
-5151 5158 0
-280 -5151 5152 0
-5152 5159 0
-281 -5152 0
-275 5153 0
-5153 5160 0
-276 -5153 5154 0
-5154 5161 0
-277 -5154 5155 0
-5155 5162 0
-278 -5155 5156 0
-5156 5163 0
-279 -5156 5157 0
-5157 5164 0
-280 -5157 5158 0
-5158 5165 0
-281 -5158 5159 0
-5159 5166 0
-282 -5159 0
-276 5160 0
-5160 5167 0
-277 -5160 5161 0
-5161 5168 0
-278 -5161 5162 0
-5162 5169 0
-279 -5162 5163 0
-5163 5170 0
-280 -5163 5164 0
-5164 5171 0
-281 -5164 5165 0
-5165 5172 0
-282 -5165 5166 0
-5166 5173 0
-283 -5166 0
-277 5167 0
-5167 5174 0
-278 -5167 5168 0
-5168 5175 0
-279 -5168 5169 0
-5169 5176 0
-280 -5169 5170 0
-5170 5177 0
-281 -5170 5171 0
-5171 5178 0
-282 -5171 5172 0
-5172 5179 0
-283 -5172 5173 0
-5173 5180 0
-284 -5173 0
-278 5174 0
-5174 5181 0
-279 -5174 5175 0
-5175 5182 0
-280 -5175 5176 0
-5176 5183 0
-281 -5176 5177 0
-5177 5184 0
-282 -5177 5178 0
-5178 5185 0
-283 -5178 5179 0
-5179 5186 0
-284 -5179 5180 0
-5180 5187 0
-285 -5180 0
-279 5181 0
-5181 5188 0
-280 -5181 5182 0
-5182 5189 0
-281 -5182 5183 0
-5183 5190 0
-282 -5183 5184 0
-5184 5191 0
-283 -5184 5185 0
-5185 5192 0
-284 -5185 5186 0
-5186 5193 0
-285 -5186 5187 0
-5187 5194 0
-286 -5187 0
-280 5188 0
-5188 5195 0
-281 -5188 5189 0
-5189 5196 0
-282 -5189 5190 0
-5190 5197 0
-283 -5190 5191 0
-5191 5198 0
-284 -5191 5192 0
-5192 5199 0
-285 -5192 5193 0
-5193 5200 0
-286 -5193 5194 0
-5194 5201 0
-287 -5194 0
-281 5195 0
-5195 5202 0
-282 -5195 5196 0
-5196 5203 0
-283 -5196 5197 0
-5197 5204 0
-284 -5197 5198 0
-5198 5205 0
-285 -5198 5199 0
-5199 5206 0
-286 -5199 5200 0
-5200 5207 0
-287 -5200 5201 0
-5201 5208 0
-288 -5201 0
-282 5202 0
-5202 5209 0
-283 -5202 5203 0
-5203 5210 0
-284 -5203 5204 0
-5204 5211 0
-285 -5204 5205 0
-5205 5212 0
-286 -5205 5206 0
-5206 5213 0
-287 -5206 5207 0
-5207 5214 0
-288 -5207 5208 0
-5208 5215 0
-289 -5208 0
-283 5209 0
-5209 5216 0
-284 -5209 5210 0
-5210 5217 0
-285 -5210 5211 0
-5211 5218 0
-286 -5211 5212 0
-5212 5219 0
-287 -5212 5213 0
-5213 5220 0
-288 -5213 5214 0
-5214 5221 0
-289 -5214 5215 0
-5215 5222 0
-290 -5215 0
-284 5216 0
-5216 5223 0
-285 -5216 5217 0
-5217 5224 0
-286 -5217 5218 0
-5218 5225 0
-287 -5218 5219 0
-5219 5226 0
-288 -5219 5220 0
-5220 5227 0
-289 -5220 5221 0
-5221 5228 0
-290 -5221 5222 0
-5222 5229 0
-291 -5222 0
-285 5223 0
-5223 5230 0
-286 -5223 5224 0
-5224 5231 0
-287 -5224 5225 0
-5225 5232 0
-288 -5225 5226 0
-5226 5233 0
-289 -5226 5227 0
-5227 5234 0
-290 -5227 5228 0
-5228 5235 0
-291 -5228 5229 0
-5229 5236 0
-292 -5229 0
-286 5230 0
-5230 5237 0
-287 -5230 5231 0
-5231 5238 0
-288 -5231 5232 0
-5232 5239 0
-289 -5232 5233 0
-5233 5240 0
-290 -5233 5234 0
-5234 5241 0
-291 -5234 5235 0
-5235 5242 0
-292 -5235 5236 0
-5236 5243 0
-293 -5236 0
-287 5237 0
-5237 5244 0
-288 -5237 5238 0
-5238 5245 0
-289 -5238 5239 0
-5239 5246 0
-290 -5239 5240 0
-5240 5247 0
-291 -5240 5241 0
-5241 5248 0
-292 -5241 5242 0
-5242 5249 0
-293 -5242 5243 0
-5243 5250 0
-294 -5243 0
-288 5244 0
-5244 5251 0
-289 -5244 5245 0
-5245 5252 0
-290 -5245 5246 0
-5246 5253 0
-291 -5246 5247 0
-5247 5254 0
-292 -5247 5248 0
-5248 5255 0
-293 -5248 5249 0
-5249 5256 0
-294 -5249 5250 0
-5250 5257 0
-295 -5250 0
-289 5251 0
-5251 5258 0
-290 -5251 5252 0
-5252 5259 0
-291 -5252 5253 0
-5253 5260 0
-292 -5253 5254 0
-5254 5261 0
-293 -5254 5255 0
-5255 5262 0
-294 -5255 5256 0
-5256 5263 0
-295 -5256 5257 0
-5257 5264 0
-296 -5257 0
-290 5258 0
-5258 5265 0
-291 -5258 5259 0
-5259 5266 0
-292 -5259 5260 0
-5260 5267 0
-293 -5260 5261 0
-5261 5268 0
-294 -5261 5262 0
-5262 5269 0
-295 -5262 5263 0
-5263 5270 0
-296 -5263 5264 0
-5264 5271 0
-297 -5264 0
-291 5265 0
-5265 5272 0
-292 -5265 5266 0
-5266 5273 0
-293 -5266 5267 0
-5267 5274 0
-294 -5267 5268 0
-5268 5275 0
-295 -5268 5269 0
-5269 5276 0
-296 -5269 5270 0
-5270 5277 0
-297 -5270 5271 0
-5271 5278 0
-298 -5271 0
-292 5272 0
-5272 5279 0
-293 -5272 5273 0
-5273 5280 0
-294 -5273 5274 0
-5274 5281 0
-295 -5274 5275 0
-5275 5282 0
-296 -5275 5276 0
-5276 5283 0
-297 -5276 5277 0
-5277 5284 0
-298 -5277 5278 0
-5278 5285 0
-299 -5278 0
-293 5279 0
-5279 5286 0
-294 -5279 5280 0
-5280 5287 0
-295 -5280 5281 0
-5281 5288 0
-296 -5281 5282 0
-5282 5289 0
-297 -5282 5283 0
-5283 5290 0
-298 -5283 5284 0
-5284 5291 0
-299 -5284 5285 0
-5285 5292 0
-300 -5285 0
-294 5286 0
-5286 5293 0
-295 -5286 5287 0
-5287 5294 0
-296 -5287 5288 0
-5288 5295 0
-297 -5288 5289 0
-5289 5296 0
-298 -5289 5290 0
-5290 5297 0
-299 -5290 5291 0
-5291 5298 0
-300 -5291 5292 0
-5292 5299 0
-301 -5292 0
-295 5293 0
-5293 5300 0
-296 -5293 5294 0
-5294 5301 0
-297 -5294 5295 0
-5295 5302 0
-298 -5295 5296 0
-5296 5303 0
-299 -5296 5297 0
-5297 5304 0
-300 -5297 5298 0
-5298 5305 0
-301 -5298 5299 0
-5299 5306 0
-302 -5299 0
-296 5300 0
-5300 5307 0
-297 -5300 5301 0
-5301 5308 0
-298 -5301 5302 0
-5302 5309 0
-299 -5302 5303 0
-5303 5310 0
-300 -5303 5304 0
-5304 5311 0
-301 -5304 5305 0
-5305 5312 0
-302 -5305 5306 0
-5306 5313 0
-303 -5306 0
-297 5307 0
-5307 5314 0
-298 -5307 5308 0
-5308 5315 0
-299 -5308 5309 0
-5309 5316 0
-300 -5309 5310 0
-5310 5317 0
-301 -5310 5311 0
-5311 5318 0
-302 -5311 5312 0
-5312 5319 0
-303 -5312 5313 0
-5313 5320 0
-304 -5313 0
-298 5314 0
-5314 5321 0
-299 -5314 5315 0
-5315 5322 0
-300 -5315 5316 0
-5316 5323 0
-301 -5316 5317 0
-5317 5324 0
-302 -5317 5318 0
-5318 5325 0
-303 -5318 5319 0
-5319 5326 0
-304 -5319 5320 0
-5320 5327 0
-305 -5320 0
-299 5321 0
-5321 5328 0
-300 -5321 5322 0
-5322 5329 0
-301 -5322 5323 0
-5323 5330 0
-302 -5323 5324 0
-5324 5331 0
-303 -5324 5325 0
-5325 5332 0
-304 -5325 5326 0
-5326 5333 0
-305 -5326 5327 0
-5327 5334 0
-306 -5327 0
-300 5328 0
-5328 5335 0
-301 -5328 5329 0
-5329 5336 0
-302 -5329 5330 0
-5330 5337 0
-303 -5330 5331 0
-5331 5338 0
-304 -5331 5332 0
-5332 5339 0
-305 -5332 5333 0
-5333 5340 0
-306 -5333 5334 0
-5334 5341 0
-307 -5334 0
-301 5335 0
-5335 5342 0
-302 -5335 5336 0
-5336 5343 0
-303 -5336 5337 0
-5337 5344 0
-304 -5337 5338 0
-5338 5345 0
-305 -5338 5339 0
-5339 5346 0
-306 -5339 5340 0
-5340 5347 0
-307 -5340 5341 0
-5341 5348 0
-308 -5341 0
-302 5342 0
-5342 5349 0
-303 -5342 5343 0
-5343 5350 0
-304 -5343 5344 0
-5344 5351 0
-305 -5344 5345 0
-5345 5352 0
-306 -5345 5346 0
-5346 5353 0
-307 -5346 5347 0
-5347 5354 0
-308 -5347 5348 0
-5348 5355 0
-309 -5348 0
-303 5349 0
-5349 5356 0
-304 -5349 5350 0
-5350 5357 0
-305 -5350 5351 0
-5351 5358 0
-306 -5351 5352 0
-5352 5359 0
-307 -5352 5353 0
-5353 5360 0
-308 -5353 5354 0
-5354 5361 0
-309 -5354 5355 0
-5355 5362 0
-310 -5355 0
-304 5356 0
-5356 5363 0
-305 -5356 5357 0
-5357 5364 0
-306 -5357 5358 0
-5358 5365 0
-307 -5358 5359 0
-5359 5366 0
-308 -5359 5360 0
-5360 5367 0
-309 -5360 5361 0
-5361 5368 0
-310 -5361 5362 0
-5362 5369 0
-311 -5362 0
-305 5363 0
-5363 5370 0
-306 -5363 5364 0
-5364 5371 0
-307 -5364 5365 0
-5365 5372 0
-308 -5365 5366 0
-5366 5373 0
-309 -5366 5367 0
-5367 5374 0
-310 -5367 5368 0
-5368 5375 0
-311 -5368 5369 0
-5369 5376 0
-312 -5369 0
-306 5370 0
-5370 5377 0
-307 -5370 5371 0
-5371 5378 0
-308 -5371 5372 0
-5372 5379 0
-309 -5372 5373 0
-5373 5380 0
-310 -5373 5374 0
-5374 5381 0
-311 -5374 5375 0
-5375 5382 0
-312 -5375 5376 0
-5376 5383 0
-313 -5376 0
-307 5377 0
-5377 5384 0
-308 -5377 5378 0
-5378 5385 0
-309 -5378 5379 0
-5379 5386 0
-310 -5379 5380 0
-5380 5387 0
-311 -5380 5381 0
-5381 5388 0
-312 -5381 5382 0
-5382 5389 0
-313 -5382 5383 0
-5383 5390 0
-314 -5383 0
-308 5384 0
-5384 5391 0
-309 -5384 5385 0
-5385 5392 0
-310 -5385 5386 0
-5386 5393 0
-311 -5386 5387 0
-5387 5394 0
-312 -5387 5388 0
-5388 5395 0
-313 -5388 5389 0
-5389 5396 0
-314 -5389 5390 0
-5390 5397 0
-315 -5390 0
-309 5391 0
-5391 5398 0
-310 -5391 5392 0
-5392 5399 0
-311 -5392 5393 0
-5393 5400 0
-312 -5393 5394 0
-5394 5401 0
-313 -5394 5395 0
-5395 5402 0
-314 -5395 5396 0
-5396 5403 0
-315 -5396 5397 0
-5397 5404 0
-316 -5397 0
-310 5398 0
-5398 5405 0
-311 -5398 5399 0
-5399 5406 0
-312 -5399 5400 0
-5400 5407 0
-313 -5400 5401 0
-5401 5408 0
-314 -5401 5402 0
-5402 5409 0
-315 -5402 5403 0
-5403 5410 0
-316 -5403 5404 0
-5404 5411 0
-317 -5404 0
-311 5405 0
-5405 5412 0
-312 -5405 5406 0
-5406 5413 0
-313 -5406 5407 0
-5407 5414 0
-314 -5407 5408 0
-5408 5415 0
-315 -5408 5409 0
-5409 5416 0
-316 -5409 5410 0
-5410 5417 0
-317 -5410 5411 0
-5411 5418 0
-318 -5411 0
-312 5412 0
-5412 5419 0
-313 -5412 5413 0
-5413 5420 0
-314 -5413 5414 0
-5414 5421 0
-315 -5414 5415 0
-5415 5422 0
-316 -5415 5416 0
-5416 5423 0
-317 -5416 5417 0
-5417 5424 0
-318 -5417 5418 0
-5418 5425 0
-319 -5418 0
-313 5419 0
-5419 5426 0
-314 -5419 5420 0
-5420 5427 0
-315 -5420 5421 0
-5421 5428 0
-316 -5421 5422 0
-5422 5429 0
-317 -5422 5423 0
-5423 5430 0
-318 -5423 5424 0
-5424 5431 0
-319 -5424 5425 0
-5425 5432 0
-320 -5425 0
-314 5426 0
-5426 5433 0
-315 -5426 5427 0
-5427 5434 0
-316 -5427 5428 0
-5428 5435 0
-317 -5428 5429 0
-5429 5436 0
-318 -5429 5430 0
-5430 5437 0
-319 -5430 5431 0
-5431 5438 0
-320 -5431 5432 0
-5432 5439 0
-321 -5432 0
-315 5433 0
-5433 5440 0
-316 -5433 5434 0
-5434 5441 0
-317 -5434 5435 0
-5435 5442 0
-318 -5435 5436 0
-5436 5443 0
-319 -5436 5437 0
-5437 5444 0
-320 -5437 5438 0
-5438 5445 0
-321 -5438 5439 0
-5439 5446 0
-322 -5439 0
-316 5440 0
-5440 5447 0
-317 -5440 5441 0
-5441 5448 0
-318 -5441 5442 0
-5442 5449 0
-319 -5442 5443 0
-5443 5450 0
-320 -5443 5444 0
-5444 5451 0
-321 -5444 5445 0
-5445 5452 0
-322 -5445 5446 0
-5446 5453 0
-323 -5446 0
-317 5447 0
-318 -5447 5448 0
-319 -5448 5449 0
-320 -5449 5450 0
-321 -5450 5451 0
-322 -5451 5452 0
-323 -5452 5453 0
-324 -5453 0
