p cnf 5867 20904
-1 217 0
-109 217 0
-217 1 109 0
-2 218 0
-110 218 0
-218 2 110 0
-3 219 0
-111 219 0
-219 3 111 0
-4 220 0
-112 220 0
-220 4 112 0
-5 221 0
-113 221 0
-221 5 113 0
-6 222 0
-114 222 0
-222 6 114 0
-7 223 0
-115 223 0
-223 7 115 0
-8 224 0
-116 224 0
-224 8 116 0
-9 225 0
-117 225 0
-225 9 117 0
-10 226 0
-118 226 0
-226 10 118 0
-11 227 0
-119 227 0
-227 11 119 0
-12 228 0
-120 228 0
-228 12 120 0
-13 229 0
-121 229 0
-229 13 121 0
-14 230 0
-122 230 0
-230 14 122 0
-15 231 0
-123 231 0
-231 15 123 0
-16 232 0
-124 232 0
-232 16 124 0
-17 233 0
-125 233 0
-233 17 125 0
-18 234 0
-126 234 0
-234 18 126 0
-19 235 0
-127 235 0
-235 19 127 0
-20 236 0
-128 236 0
-236 20 128 0
-21 237 0
-129 237 0
-237 21 129 0
-22 238 0
-130 238 0
-238 22 130 0
-23 239 0
-131 239 0
-239 23 131 0
-24 240 0
-132 240 0
-240 24 132 0
-25 241 0
-133 241 0
-241 25 133 0
-26 242 0
-134 242 0
-242 26 134 0
-27 243 0
-135 243 0
-243 27 135 0
-28 244 0
-136 244 0
-244 28 136 0
-29 245 0
-137 245 0
-245 29 137 0
-30 246 0
-138 246 0
-246 30 138 0
-31 247 0
-139 247 0
-247 31 139 0
-32 248 0
-140 248 0
-248 32 140 0
-33 249 0
-141 249 0
-249 33 141 0
-34 250 0
-142 250 0
-250 34 142 0
-35 251 0
-143 251 0
-251 35 143 0
-36 252 0
-144 252 0
-252 36 144 0
-37 253 0
-145 253 0
-253 37 145 0
-38 254 0
-146 254 0
-254 38 146 0
-39 255 0
-147 255 0
-255 39 147 0
-40 256 0
-148 256 0
-256 40 148 0
-41 257 0
-149 257 0
-257 41 149 0
-42 258 0
-150 258 0
-258 42 150 0
-43 259 0
-151 259 0
-259 43 151 0
-44 260 0
-152 260 0
-260 44 152 0
-45 261 0
-153 261 0
-261 45 153 0
-46 262 0
-154 262 0
-262 46 154 0
-47 263 0
-155 263 0
-263 47 155 0
-48 264 0
-156 264 0
-264 48 156 0
-49 265 0
-157 265 0
-265 49 157 0
-50 266 0
-158 266 0
-266 50 158 0
-51 267 0
-159 267 0
-267 51 159 0
-52 268 0
-160 268 0
-268 52 160 0
-53 269 0
-161 269 0
-269 53 161 0
-54 270 0
-162 270 0
-270 54 162 0
-55 271 0
-163 271 0
-271 55 163 0
-56 272 0
-164 272 0
-272 56 164 0
-57 273 0
-165 273 0
-273 57 165 0
-58 274 0
-166 274 0
-274 58 166 0
-59 275 0
-167 275 0
-275 59 167 0
-60 276 0
-168 276 0
-276 60 168 0
-61 277 0
-169 277 0
-277 61 169 0
-62 278 0
-170 278 0
-278 62 170 0
-63 279 0
-171 279 0
-279 63 171 0
-64 280 0
-172 280 0
-280 64 172 0
-65 281 0
-173 281 0
-281 65 173 0
-66 282 0
-174 282 0
-282 66 174 0
-67 283 0
-175 283 0
-283 67 175 0
-68 284 0
-176 284 0
-284 68 176 0
-69 285 0
-177 285 0
-285 69 177 0
-70 286 0
-178 286 0
-286 70 178 0
-71 287 0
-179 287 0
-287 71 179 0
-72 288 0
-180 288 0
-288 72 180 0
-73 289 0
-181 289 0
-289 73 181 0
-74 290 0
-182 290 0
-290 74 182 0
-75 291 0
-183 291 0
-291 75 183 0
-76 292 0
-184 292 0
-292 76 184 0
-77 293 0
-185 293 0
-293 77 185 0
-78 294 0
-186 294 0
-294 78 186 0
-79 295 0
-187 295 0
-295 79 187 0
-80 296 0
-188 296 0
-296 80 188 0
-81 297 0
-189 297 0
-297 81 189 0
-82 298 0
-190 298 0
-298 82 190 0
-83 299 0
-191 299 0
-299 83 191 0
-84 300 0
-192 300 0
-300 84 192 0
-85 301 0
-193 301 0
-301 85 193 0
-86 302 0
-194 302 0
-302 86 194 0
-87 303 0
-195 303 0
-303 87 195 0
-88 304 0
-196 304 0
-304 88 196 0
-89 305 0
-197 305 0
-305 89 197 0
-90 306 0
-198 306 0
-306 90 198 0
-91 307 0
-199 307 0
-307 91 199 0
-92 308 0
-200 308 0
-308 92 200 0
-93 309 0
-201 309 0
-309 93 201 0
-94 310 0
-202 310 0
-310 94 202 0
-95 311 0
-203 311 0
-311 95 203 0
-96 312 0
-204 312 0
-312 96 204 0
-97 313 0
-205 313 0
-313 97 205 0
-98 314 0
-206 314 0
-314 98 206 0
-99 315 0
-207 315 0
-315 99 207 0
-100 316 0
-208 316 0
-316 100 208 0
-101 317 0
-209 317 0
-317 101 209 0
-102 318 0
-210 318 0
-318 102 210 0
-103 319 0
-211 319 0
-319 103 211 0
-104 320 0
-212 320 0
-320 104 212 0
-105 321 0
-213 321 0
-321 105 213 0
-106 322 0
-214 322 0
-322 106 214 0
-107 323 0
-215 323 0
-323 107 215 0
-108 324 0
-216 324 0
-324 108 216 0
-325 53 57 0
-325 -53 -57 0
325 -53 57 0
325 53 -57 0
-326 325 58 0
-326 -325 -58 0
326 -325 58 0
326 325 -58 0
-327 326 59 0
-327 -326 -59 0
327 -326 59 0
327 326 -59 0
-328 327 60 0
-328 -327 -60 0
328 -327 60 0
328 327 -60 0
-329 328 62 0
-329 -328 -62 0
329 -328 62 0
329 328 -62 0
-330 329 63 0
-330 -329 -63 0
330 -329 63 0
330 329 -63 0
-331 330 67 0
-331 -330 -67 0
331 -330 67 0
331 330 -67 0
-332 331 68 0
-332 -331 -68 0
332 -331 68 0
332 331 -68 0
-333 332 69 0
-333 -332 -69 0
333 -332 69 0
333 332 -69 0
-334 333 70 0
-334 -333 -70 0
334 -333 70 0
334 333 -70 0
-335 334 71 0
-335 -334 -71 0
335 -334 71 0
335 334 -71 0
-336 335 72 0
-336 -335 -72 0
336 -335 72 0
336 335 -72 0
-337 336 73 0
-337 -336 -73 0
337 -336 73 0
337 336 -73 0
-338 337 74 0
-338 -337 -74 0
338 -337 74 0
338 337 -74 0
-339 338 75 0
-339 -338 -75 0
339 -338 75 0
339 338 -75 0
-340 339 76 0
-340 -339 -76 0
340 -339 76 0
340 339 -76 0
-341 340 77 0
-341 -340 -77 0
341 -340 77 0
341 340 -77 0
-342 341 80 0
-342 -341 -80 0
342 -341 80 0
342 341 -80 0
-343 342 82 0
-343 -342 -82 0
343 -342 82 0
343 342 -82 0
-344 343 84 0
-344 -343 -84 0
344 -343 84 0
344 343 -84 0
-345 344 85 0
-345 -344 -85 0
345 -344 85 0
345 344 -85 0
-346 345 86 0
-346 -345 -86 0
346 -345 86 0
346 345 -86 0
-347 346 87 0
-347 -346 -87 0
347 -346 87 0
347 346 -87 0
-348 347 88 0
-348 -347 -88 0
348 -347 88 0
348 347 -88 0
-349 348 90 0
-349 -348 -90 0
349 -348 90 0
349 348 -90 0
-350 349 91 0
-350 -349 -91 0
350 -349 91 0
350 349 -91 0
-351 350 92 0
-351 -350 -92 0
351 -350 92 0
351 350 -92 0
-352 351 96 0
-352 -351 -96 0
352 -351 96 0
352 351 -96 0
-353 352 99 0
-353 -352 -99 0
353 -352 99 0
353 352 -99 0
-354 353 109 0
-354 -353 -109 0
354 -353 109 0
354 353 -109 0
-355 354 162 0
-355 -354 -162 0
355 -354 162 0
355 354 -162 0
-356 355 164 0
-356 -355 -164 0
356 -355 164 0
356 355 -164 0
-357 356 165 0
-357 -356 -165 0
357 -356 165 0
357 356 -165 0
-358 357 166 0
-358 -357 -166 0
358 -357 166 0
358 357 -166 0
-359 358 174 0
-359 -358 -174 0
359 -358 174 0
359 358 -174 0
-360 359 176 0
-360 -359 -176 0
360 -359 176 0
360 359 -176 0
-361 360 178 0
-361 -360 -178 0
361 -360 178 0
361 360 -178 0
-362 361 179 0
-362 -361 -179 0
362 -361 179 0
362 361 -179 0
-363 362 181 0
-363 -362 -181 0
363 -362 181 0
363 362 -181 0
-364 363 182 0
-364 -363 -182 0
364 -363 182 0
364 363 -182 0
-365 364 184 0
-365 -364 -184 0
365 -364 184 0
365 364 -184 0
-366 365 186 0
-366 -365 -186 0
366 -365 186 0
366 365 -186 0
-367 366 188 0
-367 -366 -188 0
367 -366 188 0
367 366 -188 0
-368 367 189 0
-368 -367 -189 0
368 -367 189 0
368 367 -189 0
-369 368 190 0
-369 -368 -190 0
369 -368 190 0
369 368 -190 0
-370 369 192 0
-370 -369 -192 0
370 -369 192 0
370 369 -192 0
-371 370 195 0
-371 -370 -195 0
371 -370 195 0
371 370 -195 0
-372 371 197 0
-372 -371 -197 0
372 -371 197 0
372 371 -197 0
-373 372 199 0
-373 -372 -199 0
373 -372 199 0
373 372 -199 0
-374 373 201 0
-374 -373 -201 0
374 -373 201 0
374 373 -201 0
-375 374 202 0
-375 -374 -202 0
375 -374 202 0
375 374 -202 0
-376 375 206 0
-376 -375 -206 0
376 -375 206 0
376 375 -206 0
-377 376 207 0
-377 -376 -207 0
377 -376 207 0
377 376 -207 0
-378 377 209 0
-378 -377 -209 0
378 -377 209 0
378 377 -209 0
-379 378 210 0
-379 -378 -210 0
379 -378 210 0
379 378 -210 0
-380 379 212 0
-380 -379 -212 0
380 -379 212 0
380 379 -212 0
-381 380 213 0
-381 -380 -213 0
381 -380 213 0
381 380 -213 0
-381 0
-382 53 54 0
-382 -53 -54 0
382 -53 54 0
382 53 -54 0
-383 382 57 0
-383 -382 -57 0
383 -382 57 0
383 382 -57 0
-384 383 58 0
-384 -383 -58 0
384 -383 58 0
384 383 -58 0
-385 384 61 0
-385 -384 -61 0
385 -384 61 0
385 384 -61 0
-386 385 62 0
-386 -385 -62 0
386 -385 62 0
386 385 -62 0
-387 386 68 0
-387 -386 -68 0
387 -386 68 0
387 386 -68 0
-388 387 70 0
-388 -387 -70 0
388 -387 70 0
388 387 -70 0
-389 388 71 0
-389 -388 -71 0
389 -388 71 0
389 388 -71 0
-390 389 72 0
-390 -389 -72 0
390 -389 72 0
390 389 -72 0
-391 390 73 0
-391 -390 -73 0
391 -390 73 0
391 390 -73 0
-392 391 80 0
-392 -391 -80 0
392 -391 80 0
392 391 -80 0
-393 392 81 0
-393 -392 -81 0
393 -392 81 0
393 392 -81 0
-394 393 83 0
-394 -393 -83 0
394 -393 83 0
394 393 -83 0
-395 394 84 0
-395 -394 -84 0
395 -394 84 0
395 394 -84 0
-396 395 86 0
-396 -395 -86 0
396 -395 86 0
396 395 -86 0
-397 396 89 0
-397 -396 -89 0
397 -396 89 0
397 396 -89 0
-398 397 90 0
-398 -397 -90 0
398 -397 90 0
398 397 -90 0
-399 398 92 0
-399 -398 -92 0
399 -398 92 0
399 398 -92 0
-400 399 95 0
-400 -399 -95 0
400 -399 95 0
400 399 -95 0
-401 400 97 0
-401 -400 -97 0
401 -400 97 0
401 400 -97 0
-402 401 99 0
-402 -401 -99 0
402 -401 99 0
402 401 -99 0
-403 402 102 0
-403 -402 -102 0
403 -402 102 0
403 402 -102 0
-404 403 105 0
-404 -403 -105 0
404 -403 105 0
404 403 -105 0
-405 404 110 0
-405 -404 -110 0
405 -404 110 0
405 404 -110 0
-406 405 161 0
-406 -405 -161 0
406 -405 161 0
406 405 -161 0
-407 406 162 0
-407 -406 -162 0
407 -406 162 0
407 406 -162 0
-408 407 163 0
-408 -407 -163 0
408 -407 163 0
408 407 -163 0
-409 408 166 0
-409 -408 -166 0
409 -408 166 0
409 408 -166 0
-410 409 170 0
-410 -409 -170 0
410 -409 170 0
410 409 -170 0
-411 410 172 0
-411 -410 -172 0
411 -410 172 0
411 410 -172 0
-412 411 173 0
-412 -411 -173 0
412 -411 173 0
412 411 -173 0
-413 412 175 0
-413 -412 -175 0
413 -412 175 0
413 412 -175 0
-414 413 180 0
-414 -413 -180 0
414 -413 180 0
414 413 -180 0
-415 414 183 0
-415 -414 -183 0
415 -414 183 0
415 414 -183 0
-416 415 185 0
-416 -415 -185 0
416 -415 185 0
416 415 -185 0
-417 416 186 0
-417 -416 -186 0
417 -416 186 0
417 416 -186 0
-418 417 188 0
-418 -417 -188 0
418 -417 188 0
418 417 -188 0
-419 418 189 0
-419 -418 -189 0
419 -418 189 0
419 418 -189 0
-420 419 190 0
-420 -419 -190 0
420 -419 190 0
420 419 -190 0
-421 420 191 0
-421 -420 -191 0
421 -420 191 0
421 420 -191 0
-422 421 192 0
-422 -421 -192 0
422 -421 192 0
422 421 -192 0
-423 422 193 0
-423 -422 -193 0
423 -422 193 0
423 422 -193 0
-424 423 196 0
-424 -423 -196 0
424 -423 196 0
424 423 -196 0
-425 424 197 0
-425 -424 -197 0
425 -424 197 0
425 424 -197 0
-426 425 202 0
-426 -425 -202 0
426 -425 202 0
426 425 -202 0
-427 426 205 0
-427 -426 -205 0
427 -426 205 0
427 426 -205 0
-428 427 208 0
-428 -427 -208 0
428 -427 208 0
428 427 -208 0
-429 428 213 0
-429 -428 -213 0
429 -428 213 0
429 428 -213 0
-430 429 214 0
-430 -429 -214 0
430 -429 214 0
430 429 -214 0
-430 0
-431 61 63 0
-431 -61 -63 0
431 -61 63 0
431 61 -63 0
-432 431 64 0
-432 -431 -64 0
432 -431 64 0
432 431 -64 0
-433 432 66 0
-433 -432 -66 0
433 -432 66 0
433 432 -66 0
-434 433 69 0
-434 -433 -69 0
434 -433 69 0
434 433 -69 0
-435 434 70 0
-435 -434 -70 0
435 -434 70 0
435 434 -70 0
-436 435 72 0
-436 -435 -72 0
436 -435 72 0
436 435 -72 0
-437 436 74 0
-437 -436 -74 0
437 -436 74 0
437 436 -74 0
-438 437 75 0
-438 -437 -75 0
438 -437 75 0
438 437 -75 0
-439 438 78 0
-439 -438 -78 0
439 -438 78 0
439 438 -78 0
-440 439 82 0
-440 -439 -82 0
440 -439 82 0
440 439 -82 0
-441 440 83 0
-441 -440 -83 0
441 -440 83 0
441 440 -83 0
-442 441 84 0
-442 -441 -84 0
442 -441 84 0
442 441 -84 0
-443 442 85 0
-443 -442 -85 0
443 -442 85 0
443 442 -85 0
-444 443 87 0
-444 -443 -87 0
444 -443 87 0
444 443 -87 0
-445 444 90 0
-445 -444 -90 0
445 -444 90 0
445 444 -90 0
-446 445 91 0
-446 -445 -91 0
446 -445 91 0
446 445 -91 0
-447 446 93 0
-447 -446 -93 0
447 -446 93 0
447 446 -93 0
-448 447 95 0
-448 -447 -95 0
448 -447 95 0
448 447 -95 0
-449 448 97 0
-449 -448 -97 0
449 -448 97 0
449 448 -97 0
-450 449 99 0
-450 -449 -99 0
450 -449 99 0
450 449 -99 0
-451 450 104 0
-451 -450 -104 0
451 -450 104 0
451 450 -104 0
-452 451 111 0
-452 -451 -111 0
452 -451 111 0
452 451 -111 0
-453 452 161 0
-453 -452 -161 0
453 -452 161 0
453 452 -161 0
-454 453 163 0
-454 -453 -163 0
454 -453 163 0
454 453 -163 0
-455 454 164 0
-455 -454 -164 0
455 -454 164 0
455 454 -164 0
-456 455 165 0
-456 -455 -165 0
456 -455 165 0
456 455 -165 0
-457 456 169 0
-457 -456 -169 0
457 -456 169 0
457 456 -169 0
-458 457 170 0
-458 -457 -170 0
458 -457 170 0
458 457 -170 0
-459 458 171 0
-459 -458 -171 0
459 -458 171 0
459 458 -171 0
-460 459 172 0
-460 -459 -172 0
460 -459 172 0
460 459 -172 0
-461 460 174 0
-461 -460 -174 0
461 -460 174 0
461 460 -174 0
-462 461 176 0
-462 -461 -176 0
462 -461 176 0
462 461 -176 0
-463 462 177 0
-463 -462 -177 0
463 -462 177 0
463 462 -177 0
-464 463 179 0
-464 -463 -179 0
464 -463 179 0
464 463 -179 0
-465 464 182 0
-465 -464 -182 0
465 -464 182 0
465 464 -182 0
-466 465 184 0
-466 -465 -184 0
466 -465 184 0
466 465 -184 0
-467 466 188 0
-467 -466 -188 0
467 -466 188 0
467 466 -188 0
-468 467 189 0
-468 -467 -189 0
468 -467 189 0
468 467 -189 0
-469 468 190 0
-469 -468 -190 0
469 -468 190 0
469 468 -190 0
-470 469 191 0
-470 -469 -191 0
470 -469 191 0
470 469 -191 0
-471 470 193 0
-471 -470 -193 0
471 -470 193 0
471 470 -193 0
-472 471 194 0
-472 -471 -194 0
472 -471 194 0
472 471 -194 0
-473 472 200 0
-473 -472 -200 0
473 -472 200 0
473 472 -200 0
-474 473 206 0
-474 -473 -206 0
474 -473 206 0
474 473 -206 0
-475 474 207 0
-475 -474 -207 0
475 -474 207 0
475 474 -207 0
-476 475 209 0
-476 -475 -209 0
476 -475 209 0
476 475 -209 0
-477 476 210 0
-477 -476 -210 0
477 -476 210 0
477 476 -210 0
-478 477 214 0
-478 -477 -214 0
478 -477 214 0
478 477 -214 0
-479 478 215 0
-479 -478 -215 0
479 -478 215 0
479 478 -215 0
-479 0
-480 61 62 0
-480 -61 -62 0
480 -61 62 0
480 61 -62 0
-481 480 64 0
-481 -480 -64 0
481 -480 64 0
481 480 -64 0
-482 481 65 0
-482 -481 -65 0
482 -481 65 0
482 481 -65 0
-483 482 67 0
-483 -482 -67 0
483 -482 67 0
483 482 -67 0
-484 483 70 0
-484 -483 -70 0
484 -483 70 0
484 483 -70 0
-485 484 71 0
-485 -484 -71 0
485 -484 71 0
485 484 -71 0
-486 485 73 0
-486 -485 -73 0
486 -485 73 0
486 485 -73 0
-487 486 75 0
-487 -486 -75 0
487 -486 75 0
487 486 -75 0
-488 487 76 0
-488 -487 -76 0
488 -487 76 0
488 487 -76 0
-489 488 79 0
-489 -488 -79 0
489 -488 79 0
489 488 -79 0
-490 489 83 0
-490 -489 -83 0
490 -489 83 0
490 489 -83 0
-491 490 84 0
-491 -490 -84 0
491 -490 84 0
491 490 -84 0
-492 491 85 0
-492 -491 -85 0
492 -491 85 0
492 491 -85 0
-493 492 86 0
-493 -492 -86 0
493 -492 86 0
493 492 -86 0
-494 493 88 0
-494 -493 -88 0
494 -493 88 0
494 493 -88 0
-495 494 92 0
-495 -494 -92 0
495 -494 92 0
495 494 -92 0
-496 495 94 0
-496 -495 -94 0
496 -495 94 0
496 495 -94 0
-497 496 96 0
-497 -496 -96 0
497 -496 96 0
497 496 -96 0
-498 497 98 0
-498 -497 -98 0
498 -497 98 0
498 497 -98 0
-499 498 100 0
-499 -498 -100 0
499 -498 100 0
499 498 -100 0
-500 499 105 0
-500 -499 -105 0
500 -499 105 0
500 499 -105 0
-501 500 112 0
-501 -500 -112 0
501 -500 112 0
501 500 -112 0
-502 501 162 0
-502 -501 -162 0
502 -501 162 0
502 501 -162 0
-503 502 164 0
-503 -502 -164 0
503 -502 164 0
503 502 -164 0
-504 503 165 0
-504 -503 -165 0
504 -503 165 0
504 503 -165 0
-505 504 166 0
-505 -504 -166 0
505 -504 166 0
505 504 -166 0
-506 505 169 0
-506 -505 -169 0
506 -505 169 0
506 505 -169 0
-507 506 170 0
-507 -506 -170 0
507 -506 170 0
507 506 -170 0
-508 507 171 0
-508 -507 -171 0
508 -507 171 0
508 507 -171 0
-509 508 172 0
-509 -508 -172 0
509 -508 172 0
509 508 -172 0
-510 509 173 0
-510 -509 -173 0
510 -509 173 0
510 509 -173 0
-511 510 177 0
-511 -510 -177 0
511 -510 177 0
511 510 -177 0
-512 511 178 0
-512 -511 -178 0
512 -511 178 0
512 511 -178 0
-513 512 180 0
-513 -512 -180 0
513 -512 180 0
513 512 -180 0
-514 513 183 0
-514 -513 -183 0
514 -513 183 0
514 513 -183 0
-515 514 185 0
-515 -514 -185 0
515 -514 185 0
515 514 -185 0
-516 515 189 0
-516 -515 -189 0
516 -515 189 0
516 515 -189 0
-517 516 190 0
-517 -516 -190 0
517 -516 190 0
517 516 -190 0
-518 517 191 0
-518 -517 -191 0
518 -517 191 0
518 517 -191 0
-519 518 192 0
-519 -518 -192 0
519 -518 192 0
519 518 -192 0
-520 519 194 0
-520 -519 -194 0
520 -519 194 0
520 519 -194 0
-521 520 195 0
-521 -520 -195 0
521 -520 195 0
521 520 -195 0
-522 521 201 0
-522 -521 -201 0
522 -521 201 0
522 521 -201 0
-523 522 205 0
-523 -522 -205 0
523 -522 205 0
523 522 -205 0
-524 523 207 0
-524 -523 -207 0
524 -523 207 0
524 523 -207 0
-525 524 208 0
-525 -524 -208 0
525 -524 208 0
525 524 -208 0
-526 525 210 0
-526 -525 -210 0
526 -525 210 0
526 525 -210 0
-527 526 215 0
-527 -526 -215 0
527 -526 215 0
527 526 -215 0
-528 527 216 0
-528 -527 -216 0
528 -527 216 0
528 527 -216 0
-528 0
-529 53 58 0
-529 -53 -58 0
529 -53 58 0
529 53 -58 0
-530 529 59 0
-530 -529 -59 0
530 -529 59 0
530 529 -59 0
-531 530 62 0
-531 -530 -62 0
531 -530 62 0
531 530 -62 0
-532 531 66 0
-532 -531 -66 0
532 -531 66 0
532 531 -66 0
-533 532 67 0
-533 -532 -67 0
533 -532 67 0
533 532 -67 0
-534 533 76 0
-534 -533 -76 0
534 -533 76 0
534 533 -76 0
-535 534 79 0
-535 -534 -79 0
535 -534 79 0
535 534 -79 0
-536 535 80 0
-536 -535 -80 0
536 -535 80 0
536 535 -80 0
-537 536 82 0
-537 -536 -82 0
537 -536 82 0
537 536 -82 0
-538 537 83 0
-538 -537 -83 0
538 -537 83 0
538 537 -83 0
-539 538 85 0
-539 -538 -85 0
539 -538 85 0
539 538 -85 0
-540 539 87 0
-540 -539 -87 0
540 -539 87 0
540 539 -87 0
-541 540 88 0
-541 -540 -88 0
541 -540 88 0
541 540 -88 0
-542 541 91 0
-542 -541 -91 0
542 -541 91 0
542 541 -91 0
-543 542 93 0
-543 -542 -93 0
543 -542 93 0
543 542 -93 0
-544 543 94 0
-544 -543 -94 0
544 -543 94 0
544 543 -94 0
-545 544 96 0
-545 -544 -96 0
545 -544 96 0
545 544 -96 0
-546 545 98 0
-546 -545 -98 0
546 -545 98 0
546 545 -98 0
-547 546 102 0
-547 -546 -102 0
547 -546 102 0
547 546 -102 0
-548 547 104 0
-548 -547 -104 0
548 -547 104 0
548 547 -104 0
-549 548 106 0
-549 -548 -106 0
549 -548 106 0
549 548 -106 0
-550 549 107 0
-550 -549 -107 0
550 -549 107 0
550 549 -107 0
-551 550 108 0
-551 -550 -108 0
551 -550 108 0
551 550 -108 0
-552 551 113 0
-552 -551 -113 0
552 -551 113 0
552 551 -113 0
-553 552 161 0
-553 -552 -161 0
553 -552 161 0
553 552 -161 0
-554 553 162 0
-554 -553 -162 0
554 -553 162 0
554 553 -162 0
-555 554 163 0
-555 -554 -163 0
555 -554 163 0
555 554 -163 0
-556 555 166 0
-556 -555 -166 0
556 -555 166 0
556 555 -166 0
-557 556 169 0
-557 -556 -169 0
557 -556 169 0
557 556 -169 0
-558 557 171 0
-558 -557 -171 0
558 -557 171 0
558 557 -171 0
-559 558 174 0
-559 -558 -174 0
559 -558 174 0
559 558 -174 0
-560 559 177 0
-560 -559 -177 0
560 -559 177 0
560 559 -177 0
-561 560 178 0
-561 -560 -178 0
561 -560 178 0
561 560 -178 0
-562 561 181 0
-562 -561 -181 0
562 -561 181 0
562 561 -181 0
-563 562 182 0
-563 -562 -182 0
563 -562 182 0
563 562 -182 0
-564 563 184 0
-564 -563 -184 0
564 -563 184 0
564 563 -184 0
-565 564 188 0
-565 -564 -188 0
565 -564 188 0
565 564 -188 0
-566 565 190 0
-566 -565 -190 0
566 -565 190 0
566 565 -190 0
-567 566 191 0
-567 -566 -191 0
567 -566 191 0
567 566 -191 0
-568 567 193 0
-568 -567 -193 0
568 -567 193 0
568 567 -193 0
-569 568 195 0
-569 -568 -195 0
569 -568 195 0
569 568 -195 0
-570 569 196 0
-570 -569 -196 0
570 -569 196 0
570 569 -196 0
-571 570 197 0
-571 -570 -197 0
571 -570 197 0
571 570 -197 0
-572 571 198 0
-572 -571 -198 0
572 -571 198 0
572 571 -198 0
-573 572 200 0
-573 -572 -200 0
573 -572 200 0
573 572 -200 0
-574 573 202 0
-574 -573 -202 0
574 -573 202 0
574 573 -202 0
-575 574 203 0
-575 -574 -203 0
575 -574 203 0
575 574 -203 0
-576 575 205 0
-576 -575 -205 0
576 -575 205 0
576 575 -205 0
-577 576 206 0
-577 -576 -206 0
577 -576 206 0
577 576 -206 0
-578 577 207 0
-578 -577 -207 0
578 -577 207 0
578 577 -207 0
-579 578 208 0
-579 -578 -208 0
579 -578 208 0
579 578 -208 0
-580 579 209 0
-580 -579 -209 0
580 -579 209 0
580 579 -209 0
-581 580 210 0
-581 -580 -210 0
581 -580 210 0
581 580 -210 0
-582 581 211 0
-582 -581 -211 0
582 -581 211 0
582 581 -211 0
-583 582 216 0
-583 -582 -216 0
583 -582 216 0
583 582 -216 0
-583 0
-584 53 54 0
-584 -53 -54 0
584 -53 54 0
584 53 -54 0
-585 584 58 0
-585 -584 -58 0
585 -584 58 0
585 584 -58 0
-586 585 60 0
-586 -585 -60 0
586 -585 60 0
586 585 -60 0
-587 586 61 0
-587 -586 -61 0
587 -586 61 0
587 586 -61 0
-588 587 65 0
-588 -587 -65 0
588 -587 65 0
588 587 -65 0
-589 588 67 0
-589 -588 -67 0
589 -588 67 0
589 588 -67 0
-590 589 71 0
-590 -589 -71 0
590 -589 71 0
590 589 -71 0
-591 590 72 0
-591 -590 -72 0
591 -590 72 0
591 590 -72 0
-592 591 74 0
-592 -591 -74 0
592 -591 74 0
592 591 -74 0
-593 592 80 0
-593 -592 -80 0
593 -592 80 0
593 592 -80 0
-594 593 81 0
-594 -593 -81 0
594 -593 81 0
594 593 -81 0
-595 594 82 0
-595 -594 -82 0
595 -594 82 0
595 594 -82 0
-596 595 85 0
-596 -595 -85 0
596 -595 85 0
596 595 -85 0
-597 596 91 0
-597 -596 -91 0
597 -596 91 0
597 596 -91 0
-598 597 92 0
-598 -597 -92 0
598 -597 92 0
598 597 -92 0
-599 598 96 0
-599 -598 -96 0
599 -598 96 0
599 598 -96 0
-600 599 97 0
-600 -599 -97 0
600 -599 97 0
600 599 -97 0
-601 600 98 0
-601 -600 -98 0
601 -600 98 0
601 600 -98 0
-602 601 101 0
-602 -601 -101 0
602 -601 101 0
602 601 -101 0
-603 602 102 0
-603 -602 -102 0
603 -602 102 0
603 602 -102 0
-604 603 103 0
-604 -603 -103 0
604 -603 103 0
604 603 -103 0
-605 604 104 0
-605 -604 -104 0
605 -604 104 0
605 604 -104 0
-606 605 105 0
-606 -605 -105 0
606 -605 105 0
606 605 -105 0
-607 606 114 0
-607 -606 -114 0
607 -606 114 0
607 606 -114 0
-608 607 161 0
-608 -607 -161 0
608 -607 161 0
608 607 -161 0
-609 608 163 0
-609 -608 -163 0
609 -608 163 0
609 608 -163 0
-610 609 164 0
-610 -609 -164 0
610 -609 164 0
610 609 -164 0
-611 610 165 0
-611 -610 -165 0
611 -610 165 0
611 610 -165 0
-612 611 173 0
-612 -611 -173 0
612 -611 173 0
612 611 -173 0
-613 612 175 0
-613 -612 -175 0
613 -612 175 0
613 612 -175 0
-614 613 177 0
-614 -613 -177 0
614 -613 177 0
614 613 -177 0
-615 614 178 0
-615 -614 -178 0
615 -614 178 0
615 614 -178 0
-616 615 181 0
-616 -615 -181 0
616 -615 181 0
616 615 -181 0
-617 616 183 0
-617 -616 -183 0
617 -616 183 0
617 616 -183 0
-618 617 185 0
-618 -617 -185 0
618 -617 185 0
618 617 -185 0
-619 618 186 0
-619 -618 -186 0
619 -618 186 0
619 618 -186 0
-620 619 187 0
-620 -619 -187 0
620 -619 187 0
620 619 -187 0
-621 620 188 0
-621 -620 -188 0
621 -620 188 0
621 620 -188 0
-622 621 189 0
-622 -621 -189 0
622 -621 189 0
622 621 -189 0
-623 622 191 0
-623 -622 -191 0
623 -622 191 0
623 622 -191 0
-624 623 194 0
-624 -623 -194 0
624 -623 194 0
624 623 -194 0
-625 624 196 0
-625 -624 -196 0
625 -624 196 0
625 624 -196 0
-626 625 200 0
-626 -625 -200 0
626 -625 200 0
626 625 -200 0
-627 626 201 0
-627 -626 -201 0
627 -626 201 0
627 626 -201 0
-628 627 204 0
-628 -627 -204 0
628 -627 204 0
628 627 -204 0
-629 628 205 0
-629 -628 -205 0
629 -628 205 0
629 628 -205 0
-630 629 206 0
-630 -629 -206 0
630 -629 206 0
630 629 -206 0
-631 630 208 0
-631 -630 -208 0
631 -630 208 0
631 630 -208 0
-632 631 209 0
-632 -631 -209 0
632 -631 209 0
632 631 -209 0
-633 632 211 0
-633 -632 -211 0
633 -632 211 0
633 632 -211 0
-634 633 212 0
-634 -633 -212 0
634 -633 212 0
634 633 -212 0
-634 0
-635 60 61 0
-635 -60 -61 0
635 -60 61 0
635 60 -61 0
-636 635 63 0
-636 -635 -63 0
636 -635 63 0
636 635 -63 0
-637 636 64 0
-637 -636 -64 0
637 -636 64 0
637 636 -64 0
-638 637 66 0
-638 -637 -66 0
638 -637 66 0
638 637 -66 0
-639 638 67 0
-639 -638 -67 0
639 -638 67 0
639 638 -67 0
-640 639 68 0
-640 -639 -68 0
640 -639 68 0
640 639 -68 0
-641 640 69 0
-641 -640 -69 0
641 -640 69 0
641 640 -69 0
-642 641 71 0
-642 -641 -71 0
642 -641 71 0
642 641 -71 0
-643 642 72 0
-643 -642 -72 0
643 -642 72 0
643 642 -72 0
-644 643 73 0
-644 -643 -73 0
644 -643 73 0
644 643 -73 0
-645 644 75 0
-645 -644 -75 0
645 -644 75 0
645 644 -75 0
-646 645 76 0
-646 -645 -76 0
646 -645 76 0
646 645 -76 0
-647 646 78 0
-647 -646 -78 0
647 -646 78 0
647 646 -78 0
-648 647 79 0
-648 -647 -79 0
648 -647 79 0
648 647 -79 0
-649 648 83 0
-649 -648 -83 0
649 -648 83 0
649 648 -83 0
-650 649 85 0
-650 -649 -85 0
650 -649 85 0
650 649 -85 0
-651 650 86 0
-651 -650 -86 0
651 -650 86 0
651 650 -86 0
-652 651 88 0
-652 -651 -88 0
652 -651 88 0
652 651 -88 0
-653 652 90 0
-653 -652 -90 0
653 -652 90 0
653 652 -90 0
-654 653 93 0
-654 -653 -93 0
654 -653 93 0
654 653 -93 0
-655 654 94 0
-655 -654 -94 0
655 -654 94 0
655 654 -94 0
-656 655 101 0
-656 -655 -101 0
656 -655 101 0
656 655 -101 0
-657 656 103 0
-657 -656 -103 0
657 -656 103 0
657 656 -103 0
-658 657 104 0
-658 -657 -104 0
658 -657 104 0
658 657 -104 0
-659 658 107 0
-659 -658 -107 0
659 -658 107 0
659 658 -107 0
-660 659 115 0
-660 -659 -115 0
660 -659 115 0
660 659 -115 0
-661 660 161 0
-661 -660 -161 0
661 -660 161 0
661 660 -161 0
-662 661 163 0
-662 -661 -163 0
662 -661 163 0
662 661 -163 0
-663 662 170 0
-663 -662 -170 0
663 -662 170 0
663 662 -170 0
-664 663 171 0
-664 -663 -171 0
664 -663 171 0
664 663 -171 0
-665 664 172 0
-665 -664 -172 0
665 -664 172 0
665 664 -172 0
-666 665 173 0
-666 -665 -173 0
666 -665 173 0
666 665 -173 0
-667 666 175 0
-667 -666 -175 0
667 -666 175 0
667 666 -175 0
-668 667 177 0
-668 -667 -177 0
668 -667 177 0
668 667 -177 0
-669 668 178 0
-669 -668 -178 0
669 -668 178 0
669 668 -178 0
-670 669 180 0
-670 -669 -180 0
670 -669 180 0
670 669 -180 0
-671 670 181 0
-671 -670 -181 0
671 -670 181 0
671 670 -181 0
-672 671 182 0
-672 -671 -182 0
672 -671 182 0
672 671 -182 0
-673 672 183 0
-673 -672 -183 0
673 -672 183 0
673 672 -183 0
-674 673 184 0
-674 -673 -184 0
674 -673 184 0
674 673 -184 0
-675 674 186 0
-675 -674 -186 0
675 -674 186 0
675 674 -186 0
-676 675 189 0
-676 -675 -189 0
676 -675 189 0
676 675 -189 0
-677 676 190 0
-677 -676 -190 0
677 -676 190 0
677 676 -190 0
-678 677 191 0
-678 -677 -191 0
678 -677 191 0
678 677 -191 0
-679 678 192 0
-679 -678 -192 0
679 -678 192 0
679 678 -192 0
-680 679 195 0
-680 -679 -195 0
680 -679 195 0
680 679 -195 0
-681 680 198 0
-681 -680 -198 0
681 -680 198 0
681 680 -198 0
-682 681 200 0
-682 -681 -200 0
682 -681 200 0
682 681 -200 0
-683 682 203 0
-683 -682 -203 0
683 -682 203 0
683 682 -203 0
-684 683 204 0
-684 -683 -204 0
684 -683 204 0
684 683 -204 0
-685 684 206 0
-685 -684 -206 0
685 -684 206 0
685 684 -206 0
-686 685 207 0
-686 -685 -207 0
686 -685 207 0
686 685 -207 0
-687 686 209 0
-687 -686 -209 0
687 -686 209 0
687 686 -209 0
-688 687 211 0
-688 -687 -211 0
688 -687 211 0
688 687 -211 0
-689 688 213 0
-689 -688 -213 0
689 -688 213 0
689 688 -213 0
-690 689 215 0
-690 -689 -215 0
690 -689 215 0
690 689 -215 0
-691 690 216 0
-691 -690 -216 0
691 -690 216 0
691 690 -216 0
-691 0
-692 57 58 0
-692 -57 -58 0
692 -57 58 0
692 57 -58 0
-693 692 60 0
-693 -692 -60 0
693 -692 60 0
693 692 -60 0
-694 693 67 0
-694 -693 -67 0
694 -693 67 0
694 693 -67 0
-695 694 70 0
-695 -694 -70 0
695 -694 70 0
695 694 -70 0
-696 695 71 0
-696 -695 -71 0
696 -695 71 0
696 695 -71 0
-697 696 74 0
-697 -696 -74 0
697 -696 74 0
697 696 -74 0
-698 697 75 0
-698 -697 -75 0
698 -697 75 0
698 697 -75 0
-699 698 77 0
-699 -698 -77 0
699 -698 77 0
699 698 -77 0
-700 699 78 0
-700 -699 -78 0
700 -699 78 0
700 699 -78 0
-701 700 79 0
-701 -700 -79 0
701 -700 79 0
701 700 -79 0
-702 701 82 0
-702 -701 -82 0
702 -701 82 0
702 701 -82 0
-703 702 83 0
-703 -702 -83 0
703 -702 83 0
703 702 -83 0
-704 703 84 0
-704 -703 -84 0
704 -703 84 0
704 703 -84 0
-705 704 85 0
-705 -704 -85 0
705 -704 85 0
705 704 -85 0
-706 705 90 0
-706 -705 -90 0
706 -705 90 0
706 705 -90 0
-707 706 91 0
-707 -706 -91 0
707 -706 91 0
707 706 -91 0
-708 707 93 0
-708 -707 -93 0
708 -707 93 0
708 707 -93 0
-709 708 95 0
-709 -708 -95 0
709 -708 95 0
709 708 -95 0
-710 709 96 0
-710 -709 -96 0
710 -709 96 0
710 709 -96 0
-711 710 97 0
-711 -710 -97 0
711 -710 97 0
711 710 -97 0
-712 711 98 0
-712 -711 -98 0
712 -711 98 0
712 711 -98 0
-713 712 100 0
-713 -712 -100 0
713 -712 100 0
713 712 -100 0
-714 713 101 0
-714 -713 -101 0
714 -713 101 0
714 713 -101 0
-715 714 102 0
-715 -714 -102 0
715 -714 102 0
715 714 -102 0
-716 715 107 0
-716 -715 -107 0
716 -715 107 0
716 715 -107 0
-717 716 116 0
-717 -716 -116 0
717 -716 116 0
717 716 -116 0
-718 717 162 0
-718 -717 -162 0
718 -717 162 0
718 717 -162 0
-719 718 164 0
-719 -718 -164 0
719 -718 164 0
719 718 -164 0
-720 719 171 0
-720 -719 -171 0
720 -719 171 0
720 719 -171 0
-721 720 172 0
-721 -720 -172 0
721 -720 172 0
721 720 -172 0
-722 721 173 0
-722 -721 -173 0
722 -721 173 0
722 721 -173 0
-723 722 174 0
-723 -722 -174 0
723 -722 174 0
723 722 -174 0
-724 723 175 0
-724 -723 -175 0
724 -723 175 0
724 723 -175 0
-725 724 176 0
-725 -724 -176 0
725 -724 176 0
725 724 -176 0
-726 725 178 0
-726 -725 -178 0
726 -725 178 0
726 725 -178 0
-727 726 179 0
-727 -726 -179 0
727 -726 179 0
727 726 -179 0
-728 727 181 0
-728 -727 -181 0
728 -727 181 0
728 727 -181 0
-729 728 182 0
-729 -728 -182 0
729 -728 182 0
729 728 -182 0
-730 729 183 0
-730 -729 -183 0
730 -729 183 0
730 729 -183 0
-731 730 184 0
-731 -730 -184 0
731 -730 184 0
731 730 -184 0
-732 731 185 0
-732 -731 -185 0
732 -731 185 0
732 731 -185 0
-733 732 187 0
-733 -732 -187 0
733 -732 187 0
733 732 -187 0
-734 733 190 0
-734 -733 -190 0
734 -733 190 0
734 733 -190 0
-735 734 191 0
-735 -734 -191 0
735 -734 191 0
735 734 -191 0
-736 735 192 0
-736 -735 -192 0
736 -735 192 0
736 735 -192 0
-737 736 193 0
-737 -736 -193 0
737 -736 193 0
737 736 -193 0
-738 737 196 0
-738 -737 -196 0
738 -737 196 0
738 737 -196 0
-739 738 199 0
-739 -738 -199 0
739 -738 199 0
739 738 -199 0
-740 739 201 0
-740 -739 -201 0
740 -739 201 0
740 739 -201 0
-741 740 204 0
-741 -740 -204 0
741 -740 204 0
741 740 -204 0
-742 741 207 0
-742 -741 -207 0
742 -741 207 0
742 741 -207 0
-743 742 208 0
-743 -742 -208 0
743 -742 208 0
743 742 -208 0
-744 743 210 0
-744 -743 -210 0
744 -743 210 0
744 743 -210 0
-745 744 211 0
-745 -744 -211 0
745 -744 211 0
745 744 -211 0
-746 745 212 0
-746 -745 -212 0
746 -745 212 0
746 745 -212 0
-747 746 214 0
-747 -746 -214 0
747 -746 214 0
747 746 -214 0
-748 747 216 0
-748 -747 -216 0
748 -747 216 0
748 747 -216 0
-748 0
-749 53 57 0
-749 -53 -57 0
749 -53 57 0
749 53 -57 0
-750 749 58 0
-750 -749 -58 0
750 -749 58 0
750 749 -58 0
-751 750 60 0
-751 -750 -60 0
751 -750 60 0
751 750 -60 0
-752 751 61 0
-752 -751 -61 0
752 -751 61 0
752 751 -61 0
-753 752 62 0
-753 -752 -62 0
753 -752 62 0
753 752 -62 0
-754 753 63 0
-754 -753 -63 0
754 -753 63 0
754 753 -63 0
-755 754 64 0
-755 -754 -64 0
755 -754 64 0
755 754 -64 0
-756 755 67 0
-756 -755 -67 0
756 -755 67 0
756 755 -67 0
-757 756 68 0
-757 -756 -68 0
757 -756 68 0
757 756 -68 0
-758 757 69 0
-758 -757 -69 0
758 -757 69 0
758 757 -69 0
-759 758 71 0
-759 -758 -71 0
759 -758 71 0
759 758 -71 0
-760 759 72 0
-760 -759 -72 0
760 -759 72 0
760 759 -72 0
-761 760 74 0
-761 -760 -74 0
761 -760 74 0
761 760 -74 0
-762 761 77 0
-762 -761 -77 0
762 -761 77 0
762 761 -77 0
-763 762 83 0
-763 -762 -83 0
763 -762 83 0
763 762 -83 0
-764 763 86 0
-764 -763 -86 0
764 -763 86 0
764 763 -86 0
-765 764 87 0
-765 -764 -87 0
765 -764 87 0
765 764 -87 0
-766 765 88 0
-766 -765 -88 0
766 -765 88 0
766 765 -88 0
-767 766 90 0
-767 -766 -90 0
767 -766 90 0
767 766 -90 0
-768 767 92 0
-768 -767 -92 0
768 -767 92 0
768 767 -92 0
-769 768 93 0
-769 -768 -93 0
769 -768 93 0
769 768 -93 0
-770 769 94 0
-770 -769 -94 0
770 -769 94 0
770 769 -94 0
-771 770 95 0
-771 -770 -95 0
771 -770 95 0
771 770 -95 0
-772 771 96 0
-772 -771 -96 0
772 -771 96 0
772 771 -96 0
-773 772 98 0
-773 -772 -98 0
773 -772 98 0
773 772 -98 0
-774 773 100 0
-774 -773 -100 0
774 -773 100 0
774 773 -100 0
-775 774 101 0
-775 -774 -101 0
775 -774 101 0
775 774 -101 0
-776 775 105 0
-776 -775 -105 0
776 -775 105 0
776 775 -105 0
-777 776 108 0
-777 -776 -108 0
777 -776 108 0
777 776 -108 0
-778 777 117 0
-778 -777 -117 0
778 -777 117 0
778 777 -117 0
-779 778 161 0
-779 -778 -161 0
779 -778 161 0
779 778 -161 0
-780 779 162 0
-780 -779 -162 0
780 -779 162 0
780 779 -162 0
-781 780 163 0
-781 -780 -163 0
781 -780 163 0
781 780 -163 0
-782 781 167 0
-782 -781 -167 0
782 -781 167 0
782 781 -167 0
-783 782 170 0
-783 -782 -170 0
783 -782 170 0
783 782 -170 0
-784 783 174 0
-784 -783 -174 0
784 -783 174 0
784 783 -174 0
-785 784 175 0
-785 -784 -175 0
785 -784 175 0
785 784 -175 0
-786 785 176 0
-786 -785 -176 0
786 -785 176 0
786 785 -176 0
-787 786 180 0
-787 -786 -180 0
787 -786 180 0
787 786 -180 0
-788 787 181 0
-788 -787 -181 0
788 -787 181 0
788 787 -181 0
-789 788 183 0
-789 -788 -183 0
789 -788 183 0
789 788 -183 0
-790 789 184 0
-790 -789 -184 0
790 -789 184 0
790 789 -184 0
-791 790 185 0
-791 -790 -185 0
791 -790 185 0
791 790 -185 0
-792 791 191 0
-792 -791 -191 0
792 -791 191 0
792 791 -191 0
-793 792 193 0
-793 -792 -193 0
793 -792 193 0
793 792 -193 0
-794 793 194 0
-794 -793 -194 0
794 -793 194 0
794 793 -194 0
-795 794 198 0
-795 -794 -198 0
795 -794 198 0
795 794 -198 0
-796 795 199 0
-796 -795 -199 0
796 -795 199 0
796 795 -199 0
-797 796 202 0
-797 -796 -202 0
797 -796 202 0
797 796 -202 0
-798 797 203 0
-798 -797 -203 0
798 -797 203 0
798 797 -203 0
-799 798 205 0
-799 -798 -205 0
799 -798 205 0
799 798 -205 0
-800 799 207 0
-800 -799 -207 0
800 -799 207 0
800 799 -207 0
-801 800 208 0
-801 -800 -208 0
801 -800 208 0
801 800 -208 0
-802 801 209 0
-802 -801 -209 0
802 -801 209 0
802 801 -209 0
-803 802 210 0
-803 -802 -210 0
803 -802 210 0
803 802 -210 0
-804 803 211 0
-804 -803 -211 0
804 -803 211 0
804 803 -211 0
-805 804 212 0
-805 -804 -212 0
805 -804 212 0
805 804 -212 0
-806 805 213 0
-806 -805 -213 0
806 -805 213 0
806 805 -213 0
-807 806 215 0
-807 -806 -215 0
807 -806 215 0
807 806 -215 0
-807 0
-808 53 54 0
-808 -53 -54 0
808 -53 54 0
808 53 -54 0
-809 808 57 0
-809 -808 -57 0
809 -808 57 0
809 808 -57 0
-810 809 58 0
-810 -809 -58 0
810 -809 58 0
810 809 -58 0
-811 810 60 0
-811 -810 -60 0
811 -810 60 0
811 810 -60 0
-812 811 61 0
-812 -811 -61 0
812 -811 61 0
812 811 -61 0
-813 812 65 0
-813 -812 -65 0
813 -812 65 0
813 812 -65 0
-814 813 68 0
-814 -813 -68 0
814 -813 68 0
814 813 -68 0
-815 814 70 0
-815 -814 -70 0
815 -814 70 0
815 814 -70 0
-816 815 72 0
-816 -815 -72 0
816 -815 72 0
816 815 -72 0
-817 816 73 0
-817 -816 -73 0
817 -816 73 0
817 816 -73 0
-818 817 74 0
-818 -817 -74 0
818 -817 74 0
818 817 -74 0
-819 818 76 0
-819 -818 -76 0
819 -818 76 0
819 818 -76 0
-820 819 77 0
-820 -819 -77 0
820 -819 77 0
820 819 -77 0
-821 820 79 0
-821 -820 -79 0
821 -820 79 0
821 820 -79 0
-822 821 80 0
-822 -821 -80 0
822 -821 80 0
822 821 -80 0
-823 822 89 0
-823 -822 -89 0
823 -822 89 0
823 822 -89 0
-824 823 90 0
-824 -823 -90 0
824 -823 90 0
824 823 -90 0
-825 824 94 0
-825 -824 -94 0
825 -824 94 0
825 824 -94 0
-826 825 96 0
-826 -825 -96 0
826 -825 96 0
826 825 -96 0
-827 826 97 0
-827 -826 -97 0
827 -826 97 0
827 826 -97 0
-828 827 100 0
-828 -827 -100 0
828 -827 100 0
828 827 -100 0
-829 828 101 0
-829 -828 -101 0
829 -828 101 0
829 828 -101 0
-830 829 103 0
-830 -829 -103 0
830 -829 103 0
830 829 -103 0
-831 830 105 0
-831 -830 -105 0
831 -830 105 0
831 830 -105 0
-832 831 106 0
-832 -831 -106 0
832 -831 106 0
832 831 -106 0
-833 832 118 0
-833 -832 -118 0
833 -832 118 0
833 832 -118 0
-834 833 161 0
-834 -833 -161 0
834 -833 161 0
834 833 -161 0
-835 834 163 0
-835 -834 -163 0
835 -834 163 0
835 834 -163 0
-836 835 164 0
-836 -835 -164 0
836 -835 164 0
836 835 -164 0
-837 836 165 0
-837 -836 -165 0
837 -836 165 0
837 836 -165 0
-838 837 167 0
-838 -837 -167 0
838 -837 167 0
838 837 -167 0
-839 838 168 0
-839 -838 -168 0
839 -838 168 0
839 838 -168 0
-840 839 170 0
-840 -839 -170 0
840 -839 170 0
840 839 -170 0
-841 840 171 0
-841 -840 -171 0
841 -840 171 0
841 840 -171 0
-842 841 172 0
-842 -841 -172 0
842 -841 172 0
842 841 -172 0
-843 842 173 0
-843 -842 -173 0
843 -842 173 0
843 842 -173 0
-844 843 176 0
-844 -843 -176 0
844 -843 176 0
844 843 -176 0
-845 844 179 0
-845 -844 -179 0
845 -844 179 0
845 844 -179 0
-846 845 181 0
-846 -845 -181 0
846 -845 181 0
846 845 -181 0
-847 846 184 0
-847 -846 -184 0
847 -846 184 0
847 846 -184 0
-848 847 185 0
-848 -847 -185 0
848 -847 185 0
848 847 -185 0
-849 848 187 0
-849 -848 -187 0
849 -848 187 0
849 848 -187 0
-850 849 188 0
-850 -849 -188 0
850 -849 188 0
850 849 -188 0
-851 850 194 0
-851 -850 -194 0
851 -850 194 0
851 850 -194 0
-852 851 195 0
-852 -851 -195 0
852 -851 195 0
852 851 -195 0
-853 852 197 0
-853 -852 -197 0
853 -852 197 0
853 852 -197 0
-854 853 198 0
-854 -853 -198 0
854 -853 198 0
854 853 -198 0
-855 854 204 0
-855 -854 -204 0
855 -854 204 0
855 854 -204 0
-856 855 205 0
-856 -855 -205 0
856 -855 205 0
856 855 -205 0
-857 856 206 0
-857 -856 -206 0
857 -856 206 0
857 856 -206 0
-858 857 207 0
-858 -857 -207 0
858 -857 207 0
858 857 -207 0
-859 858 208 0
-859 -858 -208 0
859 -858 208 0
859 858 -208 0
-860 859 209 0
-860 -859 -209 0
860 -859 209 0
860 859 -209 0
-861 860 212 0
-861 -860 -212 0
861 -860 212 0
861 860 -212 0
-862 861 213 0
-862 -861 -213 0
862 -861 213 0
862 861 -213 0
-863 862 214 0
-863 -862 -214 0
863 -862 214 0
863 862 -214 0
-864 863 216 0
-864 -863 -216 0
864 -863 216 0
864 863 -216 0
-864 0
-865 53 57 0
-865 -53 -57 0
865 -53 57 0
865 53 -57 0
-866 865 59 0
-866 -865 -59 0
866 -865 59 0
866 865 -59 0
-867 866 60 0
-867 -866 -60 0
867 -866 60 0
867 866 -60 0
-868 867 62 0
-868 -867 -62 0
868 -867 62 0
868 867 -62 0
-869 868 63 0
-869 -868 -63 0
869 -868 63 0
869 868 -63 0
-870 869 67 0
-870 -869 -67 0
870 -869 67 0
870 869 -67 0
-871 870 70 0
-871 -870 -70 0
871 -870 70 0
871 870 -70 0
-872 871 73 0
-872 -871 -73 0
872 -871 73 0
872 871 -73 0
-873 872 75 0
-873 -872 -75 0
873 -872 75 0
873 872 -75 0
-874 873 76 0
-874 -873 -76 0
874 -873 76 0
874 873 -76 0
-875 874 78 0
-875 -874 -78 0
875 -874 78 0
875 874 -78 0
-876 875 83 0
-876 -875 -83 0
876 -875 83 0
876 875 -83 0
-877 876 84 0
-877 -876 -84 0
877 -876 84 0
877 876 -84 0
-878 877 87 0
-878 -877 -87 0
878 -877 87 0
878 877 -87 0
-879 878 88 0
-879 -878 -88 0
879 -878 88 0
879 878 -88 0
-880 879 91 0
-880 -879 -91 0
880 -879 91 0
880 879 -91 0
-881 880 93 0
-881 -880 -93 0
881 -880 93 0
881 880 -93 0
-882 881 95 0
-882 -881 -95 0
882 -881 95 0
882 881 -95 0
-883 882 96 0
-883 -882 -96 0
883 -882 96 0
883 882 -96 0
-884 883 97 0
-884 -883 -97 0
884 -883 97 0
884 883 -97 0
-885 884 101 0
-885 -884 -101 0
885 -884 101 0
885 884 -101 0
-886 885 105 0
-886 -885 -105 0
886 -885 105 0
886 885 -105 0
-887 886 107 0
-887 -886 -107 0
887 -886 107 0
887 886 -107 0
-888 887 119 0
-888 -887 -119 0
888 -887 119 0
888 887 -119 0
-889 888 162 0
-889 -888 -162 0
889 -888 162 0
889 888 -162 0
-890 889 163 0
-890 -889 -163 0
890 -889 163 0
890 889 -163 0
-891 890 164 0
-891 -890 -164 0
891 -890 164 0
891 890 -164 0
-892 891 165 0
-892 -891 -165 0
892 -891 165 0
892 891 -165 0
-893 892 166 0
-893 -892 -166 0
893 -892 166 0
893 892 -166 0
-894 893 168 0
-894 -893 -168 0
894 -893 168 0
894 893 -168 0
-895 894 171 0
-895 -894 -171 0
895 -894 171 0
895 894 -171 0
-896 895 172 0
-896 -895 -172 0
896 -895 172 0
896 895 -172 0
-897 896 173 0
-897 -896 -173 0
897 -896 173 0
897 896 -173 0
-898 897 174 0
-898 -897 -174 0
898 -897 174 0
898 897 -174 0
-899 898 177 0
-899 -898 -177 0
899 -898 177 0
899 898 -177 0
-900 899 180 0
-900 -899 -180 0
900 -899 180 0
900 899 -180 0
-901 900 182 0
-901 -900 -182 0
901 -900 182 0
901 900 -182 0
-902 901 185 0
-902 -901 -185 0
902 -901 185 0
902 901 -185 0
-903 902 186 0
-903 -902 -186 0
903 -902 186 0
903 902 -186 0
-904 903 188 0
-904 -903 -188 0
904 -903 188 0
904 903 -188 0
-905 904 189 0
-905 -904 -189 0
905 -904 189 0
905 904 -189 0
-906 905 193 0
-906 -905 -193 0
906 -905 193 0
906 905 -193 0
-907 906 195 0
-907 -906 -195 0
907 -906 195 0
907 906 -195 0
-908 907 196 0
-908 -907 -196 0
908 -907 196 0
908 907 -196 0
-909 908 198 0
-909 -908 -198 0
909 -908 198 0
909 908 -198 0
-910 909 199 0
-910 -909 -199 0
910 -909 199 0
910 909 -199 0
-911 910 206 0
-911 -910 -206 0
911 -910 206 0
911 910 -206 0
-912 911 207 0
-912 -911 -207 0
912 -911 207 0
912 911 -207 0
-913 912 208 0
-913 -912 -208 0
913 -912 208 0
913 912 -208 0
-914 913 209 0
-914 -913 -209 0
914 -913 209 0
914 913 -209 0
-915 914 210 0
-915 -914 -210 0
915 -914 210 0
915 914 -210 0
-916 915 211 0
-916 -915 -211 0
916 -915 211 0
916 915 -211 0
-917 916 213 0
-917 -916 -213 0
917 -916 213 0
917 916 -213 0
-918 917 214 0
-918 -917 -214 0
918 -917 214 0
918 917 -214 0
-919 918 215 0
-919 -918 -215 0
919 -918 215 0
919 918 -215 0
-919 0
-920 53 54 0
-920 -53 -54 0
920 -53 54 0
920 53 -54 0
-921 920 57 0
-921 -920 -57 0
921 -920 57 0
921 920 -57 0
-922 921 58 0
-922 -921 -58 0
922 -921 58 0
922 921 -58 0
-923 922 59 0
-923 -922 -59 0
923 -922 59 0
923 922 -59 0
-924 923 61 0
-924 -923 -61 0
924 -923 61 0
924 923 -61 0
-925 924 62 0
-925 -924 -62 0
925 -924 62 0
925 924 -62 0
-926 925 67 0
-926 -925 -67 0
926 -925 67 0
926 925 -67 0
-927 926 68 0
-927 -926 -68 0
927 -926 68 0
927 926 -68 0
-928 927 69 0
-928 -927 -69 0
928 -927 69 0
928 927 -69 0
-929 928 71 0
-929 -928 -71 0
929 -928 71 0
929 928 -71 0
-930 929 75 0
-930 -929 -75 0
930 -929 75 0
930 929 -75 0
-931 930 78 0
-931 -930 -78 0
931 -930 78 0
931 930 -78 0
-932 931 80 0
-932 -931 -80 0
932 -931 80 0
932 931 -80 0
-933 932 85 0
-933 -932 -85 0
933 -932 85 0
933 932 -85 0
-934 933 87 0
-934 -933 -87 0
934 -933 87 0
934 933 -87 0
-935 934 89 0
-935 -934 -89 0
935 -934 89 0
935 934 -89 0
-936 935 90 0
-936 -935 -90 0
936 -935 90 0
936 935 -90 0
-937 936 92 0
-937 -936 -92 0
937 -936 92 0
937 936 -92 0
-938 937 93 0
-938 -937 -93 0
938 -937 93 0
938 937 -93 0
-939 938 94 0
-939 -938 -94 0
939 -938 94 0
939 938 -94 0
-940 939 95 0
-940 -939 -95 0
940 -939 95 0
940 939 -95 0
-941 940 96 0
-941 -940 -96 0
941 -940 96 0
941 940 -96 0
-942 941 97 0
-942 -941 -97 0
942 -941 97 0
942 941 -97 0
-943 942 98 0
-943 -942 -98 0
943 -942 98 0
943 942 -98 0
-944 943 99 0
-944 -943 -99 0
944 -943 99 0
944 943 -99 0
-945 944 100 0
-945 -944 -100 0
945 -944 100 0
945 944 -100 0
-946 945 105 0
-946 -945 -105 0
946 -945 105 0
946 945 -105 0
-947 946 106 0
-947 -946 -106 0
947 -946 106 0
947 946 -106 0
-948 947 108 0
-948 -947 -108 0
948 -947 108 0
948 947 -108 0
-949 948 120 0
-949 -948 -120 0
949 -948 120 0
949 948 -120 0
-950 949 161 0
-950 -949 -161 0
950 -949 161 0
950 949 -161 0
-951 950 162 0
-951 -950 -162 0
951 -950 162 0
951 950 -162 0
-952 951 164 0
-952 -951 -164 0
952 -951 164 0
952 951 -164 0
-953 952 166 0
-953 -952 -166 0
953 -952 166 0
953 952 -166 0
-954 953 170 0
-954 -953 -170 0
954 -953 170 0
954 953 -170 0
-955 954 174 0
-955 -954 -174 0
955 -954 174 0
955 954 -174 0
-956 955 177 0
-956 -955 -177 0
956 -955 177 0
956 955 -177 0
-957 956 178 0
-957 -956 -178 0
957 -956 178 0
957 956 -178 0
-958 957 179 0
-958 -957 -179 0
958 -957 179 0
958 957 -179 0
-959 958 182 0
-959 -958 -182 0
959 -958 182 0
959 958 -182 0
-960 959 183 0
-960 -959 -183 0
960 -959 183 0
960 959 -183 0
-961 960 187 0
-961 -960 -187 0
961 -960 187 0
961 960 -187 0
-962 961 188 0
-962 -961 -188 0
962 -961 188 0
962 961 -188 0
-963 962 189 0
-963 -962 -189 0
963 -962 189 0
963 962 -189 0
-964 963 190 0
-964 -963 -190 0
964 -963 190 0
964 963 -190 0
-965 964 192 0
-965 -964 -192 0
965 -964 192 0
965 964 -192 0
-966 965 194 0
-966 -965 -194 0
966 -965 194 0
966 965 -194 0
-967 966 196 0
-967 -966 -196 0
967 -966 196 0
967 966 -196 0
-968 967 198 0
-968 -967 -198 0
968 -967 198 0
968 967 -198 0
-969 968 203 0
-969 -968 -203 0
969 -968 203 0
969 968 -203 0
-970 969 205 0
-970 -969 -205 0
970 -969 205 0
970 969 -205 0
-971 970 208 0
-971 -970 -208 0
971 -970 208 0
971 970 -208 0
-972 971 209 0
-972 -971 -209 0
972 -971 209 0
972 971 -209 0
-973 972 212 0
-973 -972 -212 0
973 -972 212 0
973 972 -212 0
-974 973 214 0
-974 -973 -214 0
974 -973 214 0
974 973 -214 0
-975 974 215 0
-975 -974 -215 0
975 -974 215 0
975 974 -215 0
-976 975 216 0
-976 -975 -216 0
976 -975 216 0
976 975 -216 0
-976 0
-977 53 59 0
-977 -53 -59 0
977 -53 59 0
977 53 -59 0
-978 977 63 0
-978 -977 -63 0
978 -977 63 0
978 977 -63 0
-979 978 65 0
-979 -978 -65 0
979 -978 65 0
979 978 -65 0
-980 979 66 0
-980 -979 -66 0
980 -979 66 0
980 979 -66 0
-981 980 67 0
-981 -980 -67 0
981 -980 67 0
981 980 -67 0
-982 981 75 0
-982 -981 -75 0
982 -981 75 0
982 981 -75 0
-983 982 78 0
-983 -982 -78 0
983 -982 78 0
983 982 -78 0
-984 983 85 0
-984 -983 -85 0
984 -983 85 0
984 983 -85 0
-985 984 89 0
-985 -984 -89 0
985 -984 89 0
985 984 -89 0
-986 985 90 0
-986 -985 -90 0
986 -985 90 0
986 985 -90 0
-987 986 91 0
-987 -986 -91 0
987 -986 91 0
987 986 -91 0
-988 987 93 0
-988 -987 -93 0
988 -987 93 0
988 987 -93 0
-989 988 94 0
-989 -988 -94 0
989 -988 94 0
989 988 -94 0
-990 989 95 0
-990 -989 -95 0
990 -989 95 0
990 989 -95 0
-991 990 100 0
-991 -990 -100 0
991 -990 100 0
991 990 -100 0
-992 991 101 0
-992 -991 -101 0
992 -991 101 0
992 991 -101 0
-993 992 103 0
-993 -992 -103 0
993 -992 103 0
993 992 -103 0
-994 993 104 0
-994 -993 -104 0
994 -993 104 0
994 993 -104 0
-995 994 105 0
-995 -994 -105 0
995 -994 105 0
995 994 -105 0
-996 995 121 0
-996 -995 -121 0
996 -995 121 0
996 995 -121 0
-997 996 161 0
-997 -996 -161 0
997 -996 161 0
997 996 -161 0
-998 997 162 0
-998 -997 -162 0
998 -997 162 0
998 997 -162 0
-999 998 165 0
-999 -998 -165 0
999 -998 165 0
999 998 -165 0
-1000 999 166 0
-1000 -999 -166 0
1000 -999 166 0
1000 999 -166 0
-1001 1000 167 0
-1001 -1000 -167 0
1001 -1000 167 0
1001 1000 -167 0
-1002 1001 168 0
-1002 -1001 -168 0
1002 -1001 168 0
1002 1001 -168 0
-1003 1002 171 0
-1003 -1002 -171 0
1003 -1002 171 0
1003 1002 -171 0
-1004 1003 174 0
-1004 -1003 -174 0
1004 -1003 174 0
1004 1003 -174 0
-1005 1004 176 0
-1005 -1004 -176 0
1005 -1004 176 0
1005 1004 -176 0
-1006 1005 179 0
-1006 -1005 -179 0
1006 -1005 179 0
1006 1005 -179 0
-1007 1006 182 0
-1007 -1006 -182 0
1007 -1006 182 0
1007 1006 -182 0
-1008 1007 183 0
-1008 -1007 -183 0
1008 -1007 183 0
1008 1007 -183 0
-1009 1008 186 0
-1009 -1008 -186 0
1009 -1008 186 0
1009 1008 -186 0
-1010 1009 187 0
-1010 -1009 -187 0
1010 -1009 187 0
1010 1009 -187 0
-1011 1010 189 0
-1011 -1010 -189 0
1011 -1010 189 0
1011 1010 -189 0
-1012 1011 191 0
-1012 -1011 -191 0
1012 -1011 191 0
1012 1011 -191 0
-1013 1012 192 0
-1013 -1012 -192 0
1013 -1012 192 0
1013 1012 -192 0
-1014 1013 193 0
-1014 -1013 -193 0
1014 -1013 193 0
1014 1013 -193 0
-1015 1014 200 0
-1015 -1014 -200 0
1015 -1014 200 0
1015 1014 -200 0
-1016 1015 201 0
-1016 -1015 -201 0
1016 -1015 201 0
1016 1015 -201 0
-1017 1016 202 0
-1017 -1016 -202 0
1017 -1016 202 0
1017 1016 -202 0
-1018 1017 203 0
-1018 -1017 -203 0
1018 -1017 203 0
1018 1017 -203 0
-1019 1018 204 0
-1019 -1018 -204 0
1019 -1018 204 0
1019 1018 -204 0
-1020 1019 205 0
-1020 -1019 -205 0
1020 -1019 205 0
1020 1019 -205 0
-1021 1020 207 0
-1021 -1020 -207 0
1021 -1020 207 0
1021 1020 -207 0
-1022 1021 208 0
-1022 -1021 -208 0
1022 -1021 208 0
1022 1021 -208 0
-1023 1022 211 0
-1023 -1022 -211 0
1023 -1022 211 0
1023 1022 -211 0
-1024 1023 212 0
-1024 -1023 -212 0
1024 -1023 212 0
1024 1023 -212 0
-1025 1024 213 0
-1025 -1024 -213 0
1025 -1024 213 0
1025 1024 -213 0
-1026 1025 215 0
-1026 -1025 -215 0
1026 -1025 215 0
1026 1025 -215 0
-1027 1026 216 0
-1027 -1026 -216 0
1027 -1026 216 0
1027 1026 -216 0
-1027 0
-1028 53 54 0
-1028 -53 -54 0
1028 -53 54 0
1028 53 -54 0
-1029 1028 58 0
-1029 -1028 -58 0
1029 -1028 58 0
1029 1028 -58 0
-1030 1029 59 0
-1030 -1029 -59 0
1030 -1029 59 0
1030 1029 -59 0
-1031 1030 60 0
-1031 -1030 -60 0
1031 -1030 60 0
1031 1030 -60 0
-1032 1031 61 0
-1032 -1031 -61 0
1032 -1031 61 0
1032 1031 -61 0
-1033 1032 63 0
-1033 -1032 -63 0
1033 -1032 63 0
1033 1032 -63 0
-1034 1033 64 0
-1034 -1033 -64 0
1034 -1033 64 0
1034 1033 -64 0
-1035 1034 65 0
-1035 -1034 -65 0
1035 -1034 65 0
1035 1034 -65 0
-1036 1035 66 0
-1036 -1035 -66 0
1036 -1035 66 0
1036 1035 -66 0
-1037 1036 67 0
-1037 -1036 -67 0
1037 -1036 67 0
1037 1036 -67 0
-1038 1037 71 0
-1038 -1037 -71 0
1038 -1037 71 0
1038 1037 -71 0
-1039 1038 72 0
-1039 -1038 -72 0
1039 -1038 72 0
1039 1038 -72 0
-1040 1039 73 0
-1040 -1039 -73 0
1040 -1039 73 0
1040 1039 -73 0
-1041 1040 74 0
-1041 -1040 -74 0
1041 -1040 74 0
1041 1040 -74 0
-1042 1041 76 0
-1042 -1041 -76 0
1042 -1041 76 0
1042 1041 -76 0
-1043 1042 77 0
-1043 -1042 -77 0
1043 -1042 77 0
1043 1042 -77 0
-1044 1043 82 0
-1044 -1043 -82 0
1044 -1043 82 0
1044 1043 -82 0
-1045 1044 83 0
-1045 -1044 -83 0
1045 -1044 83 0
1045 1044 -83 0
-1046 1045 84 0
-1046 -1045 -84 0
1046 -1045 84 0
1046 1045 -84 0
-1047 1046 88 0
-1047 -1046 -88 0
1047 -1046 88 0
1047 1046 -88 0
-1048 1047 89 0
-1048 -1047 -89 0
1048 -1047 89 0
1048 1047 -89 0
-1049 1048 90 0
-1049 -1048 -90 0
1049 -1048 90 0
1049 1048 -90 0
-1050 1049 92 0
-1050 -1049 -92 0
1050 -1049 92 0
1050 1049 -92 0
-1051 1050 98 0
-1051 -1050 -98 0
1051 -1050 98 0
1051 1050 -98 0
-1052 1051 99 0
-1052 -1051 -99 0
1052 -1051 99 0
1052 1051 -99 0
-1053 1052 105 0
-1053 -1052 -105 0
1053 -1052 105 0
1053 1052 -105 0
-1054 1053 106 0
-1054 -1053 -106 0
1054 -1053 106 0
1054 1053 -106 0
-1055 1054 107 0
-1055 -1054 -107 0
1055 -1054 107 0
1055 1054 -107 0
-1056 1055 108 0
-1056 -1055 -108 0
1056 -1055 108 0
1056 1055 -108 0
-1057 1056 122 0
-1057 -1056 -122 0
1057 -1056 122 0
1057 1056 -122 0
-1058 1057 161 0
-1058 -1057 -161 0
1058 -1057 161 0
1058 1057 -161 0
-1059 1058 165 0
-1059 -1058 -165 0
1059 -1058 165 0
1059 1058 -165 0
-1060 1059 166 0
-1060 -1059 -166 0
1060 -1059 166 0
1060 1059 -166 0
-1061 1060 168 0
-1061 -1060 -168 0
1061 -1060 168 0
1061 1060 -168 0
-1062 1061 170 0
-1062 -1061 -170 0
1062 -1061 170 0
1062 1061 -170 0
-1063 1062 173 0
-1063 -1062 -173 0
1063 -1062 173 0
1063 1062 -173 0
-1064 1063 175 0
-1064 -1063 -175 0
1064 -1063 175 0
1064 1063 -175 0
-1065 1064 179 0
-1065 -1064 -179 0
1065 -1064 179 0
1065 1064 -179 0
-1066 1065 180 0
-1066 -1065 -180 0
1066 -1065 180 0
1066 1065 -180 0
-1067 1066 182 0
-1067 -1066 -182 0
1067 -1066 182 0
1067 1066 -182 0
-1068 1067 183 0
-1068 -1067 -183 0
1068 -1067 183 0
1068 1067 -183 0
-1069 1068 184 0
-1069 -1068 -184 0
1069 -1068 184 0
1069 1068 -184 0
-1070 1069 186 0
-1070 -1069 -186 0
1070 -1069 186 0
1070 1069 -186 0
-1071 1070 190 0
-1071 -1070 -190 0
1071 -1070 190 0
1071 1070 -190 0
-1072 1071 193 0
-1072 -1071 -193 0
1072 -1071 193 0
1072 1071 -193 0
-1073 1072 194 0
-1073 -1072 -194 0
1073 -1072 194 0
1073 1072 -194 0
-1074 1073 197 0
-1074 -1073 -197 0
1074 -1073 197 0
1074 1073 -197 0
-1075 1074 198 0
-1075 -1074 -198 0
1075 -1074 198 0
1075 1074 -198 0
-1076 1075 199 0
-1076 -1075 -199 0
1076 -1075 199 0
1076 1075 -199 0
-1077 1076 200 0
-1077 -1076 -200 0
1077 -1076 200 0
1077 1076 -200 0
-1078 1077 201 0
-1078 -1077 -201 0
1078 -1077 201 0
1078 1077 -201 0
-1079 1078 202 0
-1079 -1078 -202 0
1079 -1078 202 0
1079 1078 -202 0
-1080 1079 204 0
-1080 -1079 -204 0
1080 -1079 204 0
1080 1079 -204 0
-1081 1080 206 0
-1081 -1080 -206 0
1081 -1080 206 0
1081 1080 -206 0
-1082 1081 207 0
-1082 -1081 -207 0
1082 -1081 207 0
1082 1081 -207 0
-1083 1082 208 0
-1083 -1082 -208 0
1083 -1082 208 0
1083 1082 -208 0
-1084 1083 209 0
-1084 -1083 -209 0
1084 -1083 209 0
1084 1083 -209 0
-1085 1084 210 0
-1085 -1084 -210 0
1085 -1084 210 0
1085 1084 -210 0
-1086 1085 211 0
-1086 -1085 -211 0
1086 -1085 211 0
1086 1085 -211 0
-1087 1086 212 0
-1087 -1086 -212 0
1087 -1086 212 0
1087 1086 -212 0
-1088 1087 213 0
-1088 -1087 -213 0
1088 -1087 213 0
1088 1087 -213 0
-1089 1088 214 0
-1089 -1088 -214 0
1089 -1088 214 0
1089 1088 -214 0
-1090 1089 216 0
-1090 -1089 -216 0
1090 -1089 216 0
1090 1089 -216 0
-1090 0
-1091 53 57 0
-1091 -53 -57 0
1091 -53 57 0
1091 53 -57 0
-1092 1091 58 0
-1092 -1091 -58 0
1092 -1091 58 0
1092 1091 -58 0
-1093 1092 59 0
-1093 -1092 -59 0
1093 -1092 59 0
1093 1092 -59 0
-1094 1093 61 0
-1094 -1093 -61 0
1094 -1093 61 0
1094 1093 -61 0
-1095 1094 62 0
-1095 -1094 -62 0
1095 -1094 62 0
1095 1094 -62 0
-1096 1095 63 0
-1096 -1095 -63 0
1096 -1095 63 0
1096 1095 -63 0
-1097 1096 64 0
-1097 -1096 -64 0
1097 -1096 64 0
1097 1096 -64 0
-1098 1097 65 0
-1098 -1097 -65 0
1098 -1097 65 0
1098 1097 -65 0
-1099 1098 67 0
-1099 -1098 -67 0
1099 -1098 67 0
1099 1098 -67 0
-1100 1099 68 0
-1100 -1099 -68 0
1100 -1099 68 0
1100 1099 -68 0
-1101 1100 69 0
-1101 -1100 -69 0
1101 -1100 69 0
1101 1100 -69 0
-1102 1101 70 0
-1102 -1101 -70 0
1102 -1101 70 0
1102 1101 -70 0
-1103 1102 71 0
-1103 -1102 -71 0
1103 -1102 71 0
1103 1102 -71 0
-1104 1103 72 0
-1104 -1103 -72 0
1104 -1103 72 0
1104 1103 -72 0
-1105 1104 73 0
-1105 -1104 -73 0
1105 -1104 73 0
1105 1104 -73 0
-1106 1105 75 0
-1106 -1105 -75 0
1106 -1105 75 0
1106 1105 -75 0
-1107 1106 76 0
-1107 -1106 -76 0
1107 -1106 76 0
1107 1106 -76 0
-1108 1107 78 0
-1108 -1107 -78 0
1108 -1107 78 0
1108 1107 -78 0
-1109 1108 79 0
-1109 -1108 -79 0
1109 -1108 79 0
1109 1108 -79 0
-1110 1109 80 0
-1110 -1109 -80 0
1110 -1109 80 0
1110 1109 -80 0
-1111 1110 81 0
-1111 -1110 -81 0
1111 -1110 81 0
1111 1110 -81 0
-1112 1111 87 0
-1112 -1111 -87 0
1112 -1111 87 0
1112 1111 -87 0
-1113 1112 88 0
-1113 -1112 -88 0
1113 -1112 88 0
1113 1112 -88 0
-1114 1113 89 0
-1114 -1113 -89 0
1114 -1113 89 0
1114 1113 -89 0
-1115 1114 96 0
-1115 -1114 -96 0
1115 -1114 96 0
1115 1114 -96 0
-1116 1115 97 0
-1116 -1115 -97 0
1116 -1115 97 0
1116 1115 -97 0
-1117 1116 98 0
-1117 -1116 -98 0
1117 -1116 98 0
1117 1116 -98 0
-1118 1117 99 0
-1118 -1117 -99 0
1118 -1117 99 0
1118 1117 -99 0
-1119 1118 100 0
-1119 -1118 -100 0
1119 -1118 100 0
1119 1118 -100 0
-1120 1119 102 0
-1120 -1119 -102 0
1120 -1119 102 0
1120 1119 -102 0
-1121 1120 103 0
-1121 -1120 -103 0
1121 -1120 103 0
1121 1120 -103 0
-1122 1121 104 0
-1122 -1121 -104 0
1122 -1121 104 0
1122 1121 -104 0
-1123 1122 105 0
-1123 -1122 -105 0
1123 -1122 105 0
1123 1122 -105 0
-1124 1123 107 0
-1124 -1123 -107 0
1124 -1123 107 0
1124 1123 -107 0
-1125 1124 108 0
-1125 -1124 -108 0
1125 -1124 108 0
1125 1124 -108 0
-1126 1125 123 0
-1126 -1125 -123 0
1126 -1125 123 0
1126 1125 -123 0
-1127 1126 162 0
-1127 -1126 -162 0
1127 -1126 162 0
1127 1126 -162 0
-1128 1127 163 0
-1128 -1127 -163 0
1128 -1127 163 0
1128 1127 -163 0
-1129 1128 166 0
-1129 -1128 -166 0
1129 -1128 166 0
1129 1128 -166 0
-1130 1129 167 0
-1130 -1129 -167 0
1130 -1129 167 0
1130 1129 -167 0
-1131 1130 171 0
-1131 -1130 -171 0
1131 -1130 171 0
1131 1130 -171 0
-1132 1131 174 0
-1132 -1131 -174 0
1132 -1131 174 0
1132 1131 -174 0
-1133 1132 175 0
-1133 -1132 -175 0
1133 -1132 175 0
1133 1132 -175 0
-1134 1133 176 0
-1134 -1133 -176 0
1134 -1133 176 0
1134 1133 -176 0
-1135 1134 180 0
-1135 -1134 -180 0
1135 -1134 180 0
1135 1134 -180 0
-1136 1135 181 0
-1136 -1135 -181 0
1136 -1135 181 0
1136 1135 -181 0
-1137 1136 183 0
-1137 -1136 -183 0
1137 -1136 183 0
1137 1136 -183 0
-1138 1137 184 0
-1138 -1137 -184 0
1138 -1137 184 0
1138 1137 -184 0
-1139 1138 185 0
-1139 -1138 -185 0
1139 -1138 185 0
1139 1138 -185 0
-1140 1139 191 0
-1140 -1139 -191 0
1140 -1139 191 0
1140 1139 -191 0
-1141 1140 193 0
-1141 -1140 -193 0
1141 -1140 193 0
1141 1140 -193 0
-1142 1141 194 0
-1142 -1141 -194 0
1142 -1141 194 0
1142 1141 -194 0
-1143 1142 195 0
-1143 -1142 -195 0
1143 -1142 195 0
1143 1142 -195 0
-1144 1143 198 0
-1144 -1143 -198 0
1144 -1143 198 0
1144 1143 -198 0
-1145 1144 199 0
-1145 -1144 -199 0
1145 -1144 199 0
1145 1144 -199 0
-1146 1145 200 0
-1146 -1145 -200 0
1146 -1145 200 0
1146 1145 -200 0
-1147 1146 201 0
-1147 -1146 -201 0
1147 -1146 201 0
1147 1146 -201 0
-1148 1147 202 0
-1148 -1147 -202 0
1148 -1147 202 0
1148 1147 -202 0
-1149 1148 203 0
-1149 -1148 -203 0
1149 -1148 203 0
1149 1148 -203 0
-1150 1149 205 0
-1150 -1149 -205 0
1150 -1149 205 0
1150 1149 -205 0
-1151 1150 207 0
-1151 -1150 -207 0
1151 -1150 207 0
1151 1150 -207 0
-1152 1151 208 0
-1152 -1151 -208 0
1152 -1151 208 0
1152 1151 -208 0
-1153 1152 209 0
-1153 -1152 -209 0
1153 -1152 209 0
1153 1152 -209 0
-1154 1153 210 0
-1154 -1153 -210 0
1154 -1153 210 0
1154 1153 -210 0
-1155 1154 211 0
-1155 -1154 -211 0
1155 -1154 211 0
1155 1154 -211 0
-1156 1155 212 0
-1156 -1155 -212 0
1156 -1155 212 0
1156 1155 -212 0
-1157 1156 213 0
-1157 -1156 -213 0
1157 -1156 213 0
1157 1156 -213 0
-1158 1157 214 0
-1158 -1157 -214 0
1158 -1157 214 0
1158 1157 -214 0
-1159 1158 215 0
-1159 -1158 -215 0
1159 -1158 215 0
1159 1158 -215 0
-1159 0
-1160 53 54 0
-1160 -53 -54 0
1160 -53 54 0
1160 53 -54 0
-1161 1160 60 0
-1161 -1160 -60 0
1161 -1160 60 0
1161 1160 -60 0
-1162 1161 62 0
-1162 -1161 -62 0
1162 -1161 62 0
1162 1161 -62 0
-1163 1162 64 0
-1163 -1162 -64 0
1163 -1162 64 0
1163 1162 -64 0
-1164 1163 66 0
-1164 -1163 -66 0
1164 -1163 66 0
1164 1163 -66 0
-1165 1164 69 0
-1165 -1164 -69 0
1165 -1164 69 0
1165 1164 -69 0
-1166 1165 70 0
-1166 -1165 -70 0
1166 -1165 70 0
1166 1165 -70 0
-1167 1166 73 0
-1167 -1166 -73 0
1167 -1166 73 0
1167 1166 -73 0
-1168 1167 76 0
-1168 -1167 -76 0
1168 -1167 76 0
1168 1167 -76 0
-1169 1168 80 0
-1169 -1168 -80 0
1169 -1168 80 0
1169 1168 -80 0
-1170 1169 81 0
-1170 -1169 -81 0
1170 -1169 81 0
1170 1169 -81 0
-1171 1170 83 0
-1171 -1170 -83 0
1171 -1170 83 0
1171 1170 -83 0
-1172 1171 84 0
-1172 -1171 -84 0
1172 -1171 84 0
1172 1171 -84 0
-1173 1172 85 0
-1173 -1172 -85 0
1173 -1172 85 0
1173 1172 -85 0
-1174 1173 86 0
-1174 -1173 -86 0
1174 -1173 86 0
1174 1173 -86 0
-1175 1174 90 0
-1175 -1174 -90 0
1175 -1174 90 0
1175 1174 -90 0
-1176 1175 91 0
-1176 -1175 -91 0
1176 -1175 91 0
1176 1175 -91 0
-1177 1176 94 0
-1177 -1176 -94 0
1177 -1176 94 0
1177 1176 -94 0
-1178 1177 95 0
-1178 -1177 -95 0
1178 -1177 95 0
1178 1177 -95 0
-1179 1178 96 0
-1179 -1178 -96 0
1179 -1178 96 0
1179 1178 -96 0
-1180 1179 97 0
-1180 -1179 -97 0
1180 -1179 97 0
1180 1179 -97 0
-1181 1180 100 0
-1181 -1180 -100 0
1181 -1180 100 0
1181 1180 -100 0
-1182 1181 102 0
-1182 -1181 -102 0
1182 -1181 102 0
1182 1181 -102 0
-1183 1182 103 0
-1183 -1182 -103 0
1183 -1182 103 0
1183 1182 -103 0
-1184 1183 105 0
-1184 -1183 -105 0
1184 -1183 105 0
1184 1183 -105 0
-1185 1184 106 0
-1185 -1184 -106 0
1185 -1184 106 0
1185 1184 -106 0
-1186 1185 107 0
-1186 -1185 -107 0
1186 -1185 107 0
1186 1185 -107 0
-1187 1186 124 0
-1187 -1186 -124 0
1187 -1186 124 0
1187 1186 -124 0
-1188 1187 161 0
-1188 -1187 -161 0
1188 -1187 161 0
1188 1187 -161 0
-1189 1188 162 0
-1189 -1188 -162 0
1189 -1188 162 0
1189 1188 -162 0
-1190 1189 163 0
-1190 -1189 -163 0
1190 -1189 163 0
1190 1189 -163 0
-1191 1190 164 0
-1191 -1190 -164 0
1191 -1190 164 0
1191 1190 -164 0
-1192 1191 165 0
-1192 -1191 -165 0
1192 -1191 165 0
1192 1191 -165 0
-1193 1192 168 0
-1193 -1192 -168 0
1193 -1192 168 0
1193 1192 -168 0
-1194 1193 170 0
-1194 -1193 -170 0
1194 -1193 170 0
1194 1193 -170 0
-1195 1194 173 0
-1195 -1194 -173 0
1195 -1194 173 0
1195 1194 -173 0
-1196 1195 176 0
-1196 -1195 -176 0
1196 -1195 176 0
1196 1195 -176 0
-1197 1196 179 0
-1197 -1196 -179 0
1197 -1196 179 0
1197 1196 -179 0
-1198 1197 181 0
-1198 -1197 -181 0
1198 -1197 181 0
1198 1197 -181 0
-1199 1198 184 0
-1199 -1198 -184 0
1199 -1198 184 0
1199 1198 -184 0
-1200 1199 185 0
-1200 -1199 -185 0
1200 -1199 185 0
1200 1199 -185 0
-1201 1200 187 0
-1201 -1200 -187 0
1201 -1200 187 0
1201 1200 -187 0
-1202 1201 188 0
-1202 -1201 -188 0
1202 -1201 188 0
1202 1201 -188 0
-1203 1202 194 0
-1203 -1202 -194 0
1203 -1202 194 0
1203 1202 -194 0
-1204 1203 195 0
-1204 -1203 -195 0
1204 -1203 195 0
1204 1203 -195 0
-1205 1204 196 0
-1205 -1204 -196 0
1205 -1204 196 0
1205 1204 -196 0
-1206 1205 197 0
-1206 -1205 -197 0
1206 -1205 197 0
1206 1205 -197 0
-1207 1206 198 0
-1207 -1206 -198 0
1207 -1206 198 0
1207 1206 -198 0
-1208 1207 201 0
-1208 -1207 -201 0
1208 -1207 201 0
1208 1207 -201 0
-1209 1208 202 0
-1209 -1208 -202 0
1209 -1208 202 0
1209 1208 -202 0
-1210 1209 204 0
-1210 -1209 -204 0
1210 -1209 204 0
1210 1209 -204 0
-1211 1210 205 0
-1211 -1210 -205 0
1211 -1210 205 0
1211 1210 -205 0
-1212 1211 206 0
-1212 -1211 -206 0
1212 -1211 206 0
1212 1211 -206 0
-1213 1212 207 0
-1213 -1212 -207 0
1213 -1212 207 0
1213 1212 -207 0
-1214 1213 208 0
-1214 -1213 -208 0
1214 -1213 208 0
1214 1213 -208 0
-1215 1214 209 0
-1215 -1214 -209 0
1215 -1214 209 0
1215 1214 -209 0
-1216 1215 212 0
-1216 -1215 -212 0
1216 -1215 212 0
1216 1215 -212 0
-1217 1216 213 0
-1217 -1216 -213 0
1217 -1216 213 0
1217 1216 -213 0
-1218 1217 214 0
-1218 -1217 -214 0
1218 -1217 214 0
1218 1217 -214 0
-1219 1218 215 0
-1219 -1218 -215 0
1219 -1218 215 0
1219 1218 -215 0
-1220 1219 216 0
-1220 -1219 -216 0
1220 -1219 216 0
1220 1219 -216 0
-1220 0
-1221 57 59 0
-1221 -57 -59 0
1221 -57 59 0
1221 57 -59 0
-1222 1221 60 0
-1222 -1221 -60 0
1222 -1221 60 0
1222 1221 -60 0
-1223 1222 61 0
-1223 -1222 -61 0
1223 -1222 61 0
1223 1222 -61 0
-1224 1223 63 0
-1224 -1223 -63 0
1224 -1223 63 0
1224 1223 -63 0
-1225 1224 66 0
-1225 -1224 -66 0
1225 -1224 66 0
1225 1224 -66 0
-1226 1225 67 0
-1226 -1225 -67 0
1226 -1225 67 0
1226 1225 -67 0
-1227 1226 68 0
-1227 -1226 -68 0
1227 -1226 68 0
1227 1226 -68 0
-1228 1227 69 0
-1228 -1227 -69 0
1228 -1227 69 0
1228 1227 -69 0
-1229 1228 71 0
-1229 -1228 -71 0
1229 -1228 71 0
1229 1228 -71 0
-1230 1229 72 0
-1230 -1229 -72 0
1230 -1229 72 0
1230 1229 -72 0
-1231 1230 73 0
-1231 -1230 -73 0
1231 -1230 73 0
1231 1230 -73 0
-1232 1231 74 0
-1232 -1231 -74 0
1232 -1231 74 0
1232 1231 -74 0
-1233 1232 76 0
-1233 -1232 -76 0
1233 -1232 76 0
1233 1232 -76 0
-1234 1233 77 0
-1234 -1233 -77 0
1234 -1233 77 0
1234 1233 -77 0
-1235 1234 79 0
-1235 -1234 -79 0
1235 -1234 79 0
1235 1234 -79 0
-1236 1235 80 0
-1236 -1235 -80 0
1236 -1235 80 0
1236 1235 -80 0
-1237 1236 84 0
-1237 -1236 -84 0
1237 -1236 84 0
1237 1236 -84 0
-1238 1237 85 0
-1238 -1237 -85 0
1238 -1237 85 0
1238 1237 -85 0
-1239 1238 89 0
-1239 -1238 -89 0
1239 -1238 89 0
1239 1238 -89 0
-1240 1239 90 0
-1240 -1239 -90 0
1240 -1239 90 0
1240 1239 -90 0
-1241 1240 91 0
-1241 -1240 -91 0
1241 -1240 91 0
1241 1240 -91 0
-1242 1241 92 0
-1242 -1241 -92 0
1242 -1241 92 0
1242 1241 -92 0
-1243 1242 93 0
-1243 -1242 -93 0
1243 -1242 93 0
1243 1242 -93 0
-1244 1243 94 0
-1244 -1243 -94 0
1244 -1243 94 0
1244 1243 -94 0
-1245 1244 96 0
-1245 -1244 -96 0
1245 -1244 96 0
1245 1244 -96 0
-1246 1245 98 0
-1246 -1245 -98 0
1246 -1245 98 0
1246 1245 -98 0
-1247 1246 99 0
-1247 -1246 -99 0
1247 -1246 99 0
1247 1246 -99 0
-1248 1247 104 0
-1248 -1247 -104 0
1248 -1247 104 0
1248 1247 -104 0
-1249 1248 105 0
-1249 -1248 -105 0
1249 -1248 105 0
1249 1248 -105 0
-1250 1249 125 0
-1250 -1249 -125 0
1250 -1249 125 0
1250 1249 -125 0
-1251 1250 161 0
-1251 -1250 -161 0
1251 -1250 161 0
1251 1250 -161 0
-1252 1251 164 0
-1252 -1251 -164 0
1252 -1251 164 0
1252 1251 -164 0
-1253 1252 166 0
-1253 -1252 -166 0
1253 -1252 166 0
1253 1252 -166 0
-1254 1253 167 0
-1254 -1253 -167 0
1254 -1253 167 0
1254 1253 -167 0
-1255 1254 169 0
-1255 -1254 -169 0
1255 -1254 169 0
1255 1254 -169 0
-1256 1255 170 0
-1256 -1255 -170 0
1256 -1255 170 0
1256 1255 -170 0
-1257 1256 171 0
-1257 -1256 -171 0
1257 -1256 171 0
1257 1256 -171 0
-1258 1257 172 0
-1258 -1257 -172 0
1258 -1257 172 0
1258 1257 -172 0
-1259 1258 173 0
-1259 -1258 -173 0
1259 -1258 173 0
1259 1258 -173 0
-1260 1259 174 0
-1260 -1259 -174 0
1260 -1259 174 0
1260 1259 -174 0
-1261 1260 175 0
-1261 -1260 -175 0
1261 -1260 175 0
1261 1260 -175 0
-1262 1261 179 0
-1262 -1261 -179 0
1262 -1261 179 0
1262 1261 -179 0
-1263 1262 180 0
-1263 -1262 -180 0
1263 -1262 180 0
1263 1262 -180 0
-1264 1263 181 0
-1264 -1263 -181 0
1264 -1263 181 0
1264 1263 -181 0
-1265 1264 185 0
-1265 -1264 -185 0
1265 -1264 185 0
1265 1264 -185 0
-1266 1265 187 0
-1266 -1265 -187 0
1266 -1265 187 0
1266 1265 -187 0
-1267 1266 189 0
-1267 -1266 -189 0
1267 -1266 189 0
1267 1266 -189 0
-1268 1267 192 0
-1268 -1267 -192 0
1268 -1267 192 0
1268 1267 -192 0
-1269 1268 195 0
-1269 -1268 -195 0
1269 -1268 195 0
1269 1268 -195 0
-1270 1269 196 0
-1270 -1269 -196 0
1270 -1269 196 0
1270 1269 -196 0
-1271 1270 199 0
-1271 -1270 -199 0
1271 -1270 199 0
1271 1270 -199 0
-1272 1271 200 0
-1272 -1271 -200 0
1272 -1271 200 0
1272 1271 -200 0
-1273 1272 202 0
-1273 -1272 -202 0
1273 -1272 202 0
1273 1272 -202 0
-1274 1273 206 0
-1274 -1273 -206 0
1274 -1273 206 0
1274 1273 -206 0
-1275 1274 208 0
-1275 -1274 -208 0
1275 -1274 208 0
1275 1274 -208 0
-1276 1275 209 0
-1276 -1275 -209 0
1276 -1275 209 0
1276 1275 -209 0
-1277 1276 211 0
-1277 -1276 -211 0
1277 -1276 211 0
1277 1276 -211 0
-1278 1277 213 0
-1278 -1277 -213 0
1278 -1277 213 0
1278 1277 -213 0
-1279 1278 214 0
-1279 -1278 -214 0
1279 -1278 214 0
1279 1278 -214 0
-1280 1279 215 0
-1280 -1279 -215 0
1280 -1279 215 0
1280 1279 -215 0
-1281 1280 216 0
-1281 -1280 -216 0
1281 -1280 216 0
1281 1280 -216 0
-1281 0
-1282 57 65 0
-1282 -57 -65 0
1282 -57 65 0
1282 57 -65 0
-1283 1282 67 0
-1283 -1282 -67 0
1283 -1282 67 0
1283 1282 -67 0
-1284 1283 70 0
-1284 -1283 -70 0
1284 -1283 70 0
1284 1283 -70 0
-1285 1284 71 0
-1285 -1284 -71 0
1285 -1284 71 0
1285 1284 -71 0
-1286 1285 73 0
-1286 -1285 -73 0
1286 -1285 73 0
1286 1285 -73 0
-1287 1286 74 0
-1287 -1286 -74 0
1287 -1286 74 0
1287 1286 -74 0
-1288 1287 76 0
-1288 -1287 -76 0
1288 -1287 76 0
1288 1287 -76 0
-1289 1288 77 0
-1289 -1288 -77 0
1289 -1288 77 0
1289 1288 -77 0
-1290 1289 81 0
-1290 -1289 -81 0
1290 -1289 81 0
1290 1289 -81 0
-1291 1290 82 0
-1291 -1290 -82 0
1291 -1290 82 0
1291 1290 -82 0
-1292 1291 83 0
-1292 -1291 -83 0
1292 -1291 83 0
1292 1291 -83 0
-1293 1292 85 0
-1293 -1292 -85 0
1293 -1292 85 0
1293 1292 -85 0
-1294 1293 87 0
-1294 -1293 -87 0
1294 -1293 87 0
1294 1293 -87 0
-1295 1294 89 0
-1295 -1294 -89 0
1295 -1294 89 0
1295 1294 -89 0
-1296 1295 92 0
-1296 -1295 -92 0
1296 -1295 92 0
1296 1295 -92 0
-1297 1296 95 0
-1297 -1296 -95 0
1297 -1296 95 0
1297 1296 -95 0
-1298 1297 96 0
-1298 -1297 -96 0
1298 -1297 96 0
1298 1297 -96 0
-1299 1298 97 0
-1299 -1298 -97 0
1299 -1298 97 0
1299 1298 -97 0
-1300 1299 98 0
-1300 -1299 -98 0
1300 -1299 98 0
1300 1299 -98 0
-1301 1300 99 0
-1301 -1300 -99 0
1301 -1300 99 0
1301 1300 -99 0
-1302 1301 101 0
-1302 -1301 -101 0
1302 -1301 101 0
1302 1301 -101 0
-1303 1302 104 0
-1303 -1302 -104 0
1303 -1302 104 0
1303 1302 -104 0
-1304 1303 106 0
-1304 -1303 -106 0
1304 -1303 106 0
1304 1303 -106 0
-1305 1304 107 0
-1305 -1304 -107 0
1305 -1304 107 0
1305 1304 -107 0
-1306 1305 108 0
-1306 -1305 -108 0
1306 -1305 108 0
1306 1305 -108 0
-1307 1306 126 0
-1307 -1306 -126 0
1307 -1306 126 0
1307 1306 -126 0
-1308 1307 162 0
-1308 -1307 -162 0
1308 -1307 162 0
1308 1307 -162 0
-1309 1308 165 0
-1309 -1308 -165 0
1309 -1308 165 0
1309 1308 -165 0
-1310 1309 167 0
-1310 -1309 -167 0
1310 -1309 167 0
1310 1309 -167 0
-1311 1310 168 0
-1311 -1310 -168 0
1311 -1310 168 0
1311 1310 -168 0
-1312 1311 169 0
-1312 -1311 -169 0
1312 -1311 169 0
1312 1311 -169 0
-1313 1312 170 0
-1313 -1312 -170 0
1313 -1312 170 0
1313 1312 -170 0
-1314 1313 171 0
-1314 -1313 -171 0
1314 -1313 171 0
1314 1313 -171 0
-1315 1314 172 0
-1315 -1314 -172 0
1315 -1314 172 0
1315 1314 -172 0
-1316 1315 173 0
-1316 -1315 -173 0
1316 -1315 173 0
1316 1315 -173 0
-1317 1316 174 0
-1317 -1316 -174 0
1317 -1316 174 0
1317 1316 -174 0
-1318 1317 175 0
-1318 -1317 -175 0
1318 -1317 175 0
1318 1317 -175 0
-1319 1318 176 0
-1319 -1318 -176 0
1319 -1318 176 0
1319 1318 -176 0
-1320 1319 180 0
-1320 -1319 -180 0
1320 -1319 180 0
1320 1319 -180 0
-1321 1320 182 0
-1321 -1320 -182 0
1321 -1320 182 0
1321 1320 -182 0
-1322 1321 186 0
-1322 -1321 -186 0
1322 -1321 186 0
1322 1321 -186 0
-1323 1322 187 0
-1323 -1322 -187 0
1323 -1322 187 0
1323 1322 -187 0
-1324 1323 188 0
-1324 -1323 -188 0
1324 -1323 188 0
1324 1323 -188 0
-1325 1324 190 0
-1325 -1324 -190 0
1325 -1324 190 0
1325 1324 -190 0
-1326 1325 196 0
-1326 -1325 -196 0
1326 -1325 196 0
1326 1325 -196 0
-1327 1326 197 0
-1327 -1326 -197 0
1327 -1326 197 0
1327 1326 -197 0
-1328 1327 200 0
-1328 -1327 -200 0
1328 -1327 200 0
1328 1327 -200 0
-1329 1328 201 0
-1329 -1328 -201 0
1329 -1328 201 0
1329 1328 -201 0
-1330 1329 203 0
-1330 -1329 -203 0
1330 -1329 203 0
1330 1329 -203 0
-1331 1330 207 0
-1331 -1330 -207 0
1331 -1330 207 0
1331 1330 -207 0
-1332 1331 209 0
-1332 -1331 -209 0
1332 -1331 209 0
1332 1331 -209 0
-1333 1332 210 0
-1333 -1332 -210 0
1333 -1332 210 0
1333 1332 -210 0
-1334 1333 211 0
-1334 -1333 -211 0
1334 -1333 211 0
1334 1333 -211 0
-1335 1334 212 0
-1335 -1334 -212 0
1335 -1334 212 0
1335 1334 -212 0
-1336 1335 214 0
-1336 -1335 -214 0
1336 -1335 214 0
1336 1335 -214 0
-1337 1336 215 0
-1337 -1336 -215 0
1337 -1336 215 0
1337 1336 -215 0
-1338 1337 216 0
-1338 -1337 -216 0
1338 -1337 216 0
1338 1337 -216 0
-1338 0
-1339 53 57 0
-1339 -53 -57 0
1339 -53 57 0
1339 53 -57 0
-1340 1339 60 0
-1340 -1339 -60 0
1340 -1339 60 0
1340 1339 -60 0
-1341 1340 61 0
-1341 -1340 -61 0
1341 -1340 61 0
1341 1340 -61 0
-1342 1341 63 0
-1342 -1341 -63 0
1342 -1341 63 0
1342 1341 -63 0
-1343 1342 65 0
-1343 -1342 -65 0
1343 -1342 65 0
1343 1342 -65 0
-1344 1343 67 0
-1344 -1343 -67 0
1344 -1343 67 0
1344 1343 -67 0
-1345 1344 70 0
-1345 -1344 -70 0
1345 -1344 70 0
1345 1344 -70 0
-1346 1345 72 0
-1346 -1345 -72 0
1346 -1345 72 0
1346 1345 -72 0
-1347 1346 79 0
-1347 -1346 -79 0
1347 -1346 79 0
1347 1346 -79 0
-1348 1347 80 0
-1348 -1347 -80 0
1348 -1347 80 0
1348 1347 -80 0
-1349 1348 81 0
-1349 -1348 -81 0
1349 -1348 81 0
1349 1348 -81 0
-1350 1349 85 0
-1350 -1349 -85 0
1350 -1349 85 0
1350 1349 -85 0
-1351 1350 90 0
-1351 -1350 -90 0
1351 -1350 90 0
1351 1350 -90 0
-1352 1351 93 0
-1352 -1351 -93 0
1352 -1351 93 0
1352 1351 -93 0
-1353 1352 96 0
-1353 -1352 -96 0
1353 -1352 96 0
1353 1352 -96 0
-1354 1353 98 0
-1354 -1353 -98 0
1354 -1353 98 0
1354 1353 -98 0
-1355 1354 100 0
-1355 -1354 -100 0
1355 -1354 100 0
1355 1354 -100 0
-1356 1355 101 0
-1356 -1355 -101 0
1356 -1355 101 0
1356 1355 -101 0
-1357 1356 102 0
-1357 -1356 -102 0
1357 -1356 102 0
1357 1356 -102 0
-1358 1357 106 0
-1358 -1357 -106 0
1358 -1357 106 0
1358 1357 -106 0
-1359 1358 107 0
-1359 -1358 -107 0
1359 -1358 107 0
1359 1358 -107 0
-1360 1359 127 0
-1360 -1359 -127 0
1360 -1359 127 0
1360 1359 -127 0
-1361 1360 162 0
-1361 -1360 -162 0
1361 -1360 162 0
1361 1360 -162 0
-1362 1361 163 0
-1362 -1361 -163 0
1362 -1361 163 0
1362 1361 -163 0
-1363 1362 166 0
-1363 -1362 -166 0
1363 -1362 166 0
1363 1362 -166 0
-1364 1363 167 0
-1364 -1363 -167 0
1364 -1363 167 0
1364 1363 -167 0
-1365 1364 168 0
-1365 -1364 -168 0
1365 -1364 168 0
1365 1364 -168 0
-1366 1365 169 0
-1366 -1365 -169 0
1366 -1365 169 0
1366 1365 -169 0
-1367 1366 172 0
-1367 -1366 -172 0
1367 -1366 172 0
1367 1366 -172 0
-1368 1367 175 0
-1368 -1367 -175 0
1368 -1367 175 0
1368 1367 -175 0
-1369 1368 177 0
-1369 -1368 -177 0
1369 -1368 177 0
1369 1368 -177 0
-1370 1369 180 0
-1370 -1369 -180 0
1370 -1369 180 0
1370 1369 -180 0
-1371 1370 183 0
-1371 -1370 -183 0
1371 -1370 183 0
1371 1370 -183 0
-1372 1371 184 0
-1372 -1371 -184 0
1372 -1371 184 0
1372 1371 -184 0
-1373 1372 186 0
-1373 -1372 -186 0
1373 -1372 186 0
1373 1372 -186 0
-1374 1373 187 0
-1374 -1373 -187 0
1374 -1373 187 0
1374 1373 -187 0
-1375 1374 188 0
-1375 -1374 -188 0
1375 -1374 188 0
1375 1374 -188 0
-1376 1375 190 0
-1376 -1375 -190 0
1376 -1375 190 0
1376 1375 -190 0
-1377 1376 192 0
-1377 -1376 -192 0
1377 -1376 192 0
1377 1376 -192 0
-1378 1377 194 0
-1378 -1377 -194 0
1378 -1377 194 0
1378 1377 -194 0
-1379 1378 199 0
-1379 -1378 -199 0
1379 -1378 199 0
1379 1378 -199 0
-1380 1379 201 0
-1380 -1379 -201 0
1380 -1379 201 0
1380 1379 -201 0
-1381 1380 202 0
-1381 -1380 -202 0
1381 -1380 202 0
1381 1380 -202 0
-1382 1381 203 0
-1382 -1381 -203 0
1382 -1381 203 0
1382 1381 -203 0
-1383 1382 204 0
-1383 -1382 -204 0
1383 -1382 204 0
1383 1382 -204 0
-1384 1383 206 0
-1384 -1383 -206 0
1384 -1383 206 0
1384 1383 -206 0
-1385 1384 208 0
-1385 -1384 -208 0
1385 -1384 208 0
1385 1384 -208 0
-1386 1385 209 0
-1386 -1385 -209 0
1386 -1385 209 0
1386 1385 -209 0
-1387 1386 211 0
-1387 -1386 -211 0
1387 -1386 211 0
1387 1386 -211 0
-1388 1387 212 0
-1388 -1387 -212 0
1388 -1387 212 0
1388 1387 -212 0
-1389 1388 213 0
-1389 -1388 -213 0
1389 -1388 213 0
1389 1388 -213 0
-1390 1389 214 0
-1390 -1389 -214 0
1390 -1389 214 0
1390 1389 -214 0
-1391 1390 216 0
-1391 -1390 -216 0
1391 -1390 216 0
1391 1390 -216 0
-1391 0
-1392 53 54 0
-1392 -53 -54 0
1392 -53 54 0
1392 53 -54 0
-1393 1392 57 0
-1393 -1392 -57 0
1393 -1392 57 0
1393 1392 -57 0
-1394 1393 58 0
-1394 -1393 -58 0
1394 -1393 58 0
1394 1393 -58 0
-1395 1394 59 0
-1395 -1394 -59 0
1395 -1394 59 0
1395 1394 -59 0
-1396 1395 60 0
-1396 -1395 -60 0
1396 -1395 60 0
1396 1395 -60 0
-1397 1396 61 0
-1397 -1396 -61 0
1397 -1396 61 0
1397 1396 -61 0
-1398 1397 63 0
-1398 -1397 -63 0
1398 -1397 63 0
1398 1397 -63 0
-1399 1398 66 0
-1399 -1398 -66 0
1399 -1398 66 0
1399 1398 -66 0
-1400 1399 68 0
-1400 -1399 -68 0
1400 -1399 68 0
1400 1399 -68 0
-1401 1400 69 0
-1401 -1400 -69 0
1401 -1400 69 0
1401 1400 -69 0
-1402 1401 71 0
-1402 -1401 -71 0
1402 -1401 71 0
1402 1401 -71 0
-1403 1402 73 0
-1403 -1402 -73 0
1403 -1402 73 0
1403 1402 -73 0
-1404 1403 74 0
-1404 -1403 -74 0
1404 -1403 74 0
1404 1403 -74 0
-1405 1404 75 0
-1405 -1404 -75 0
1405 -1404 75 0
1405 1404 -75 0
-1406 1405 76 0
-1406 -1405 -76 0
1406 -1405 76 0
1406 1405 -76 0
-1407 1406 77 0
-1407 -1406 -77 0
1407 -1406 77 0
1407 1406 -77 0
-1408 1407 78 0
-1408 -1407 -78 0
1408 -1407 78 0
1408 1407 -78 0
-1409 1408 79 0
-1409 -1408 -79 0
1409 -1408 79 0
1409 1408 -79 0
-1410 1409 81 0
-1410 -1409 -81 0
1410 -1409 81 0
1410 1409 -81 0
-1411 1410 82 0
-1411 -1410 -82 0
1411 -1410 82 0
1411 1410 -82 0
-1412 1411 84 0
-1412 -1411 -84 0
1412 -1411 84 0
1412 1411 -84 0
-1413 1412 86 0
-1413 -1412 -86 0
1413 -1412 86 0
1413 1412 -86 0
-1414 1413 87 0
-1414 -1413 -87 0
1414 -1413 87 0
1414 1413 -87 0
-1415 1414 88 0
-1415 -1414 -88 0
1415 -1414 88 0
1415 1414 -88 0
-1416 1415 90 0
-1416 -1415 -90 0
1416 -1415 90 0
1416 1415 -90 0
-1417 1416 93 0
-1417 -1416 -93 0
1417 -1416 93 0
1417 1416 -93 0
-1418 1417 94 0
-1418 -1417 -94 0
1418 -1417 94 0
1418 1417 -94 0
-1419 1418 95 0
-1419 -1418 -95 0
1419 -1418 95 0
1419 1418 -95 0
-1420 1419 100 0
-1420 -1419 -100 0
1420 -1419 100 0
1420 1419 -100 0
-1421 1420 101 0
-1421 -1420 -101 0
1421 -1420 101 0
1421 1420 -101 0
-1422 1421 105 0
-1422 -1421 -105 0
1422 -1421 105 0
1422 1421 -105 0
-1423 1422 107 0
-1423 -1422 -107 0
1423 -1422 107 0
1423 1422 -107 0
-1424 1423 108 0
-1424 -1423 -108 0
1424 -1423 108 0
1424 1423 -108 0
-1425 1424 128 0
-1425 -1424 -128 0
1425 -1424 128 0
1425 1424 -128 0
-1426 1425 161 0
-1426 -1425 -161 0
1426 -1425 161 0
1426 1425 -161 0
-1427 1426 162 0
-1427 -1426 -162 0
1427 -1426 162 0
1427 1426 -162 0
-1428 1427 164 0
-1428 -1427 -164 0
1428 -1427 164 0
1428 1427 -164 0
-1429 1428 165 0
-1429 -1428 -165 0
1429 -1428 165 0
1429 1428 -165 0
-1430 1429 168 0
-1430 -1429 -168 0
1430 -1429 168 0
1430 1429 -168 0
-1431 1430 169 0
-1431 -1430 -169 0
1431 -1430 169 0
1431 1430 -169 0
-1432 1431 172 0
-1432 -1431 -172 0
1432 -1431 172 0
1432 1431 -172 0
-1433 1432 176 0
-1433 -1432 -176 0
1433 -1432 176 0
1433 1432 -176 0
-1434 1433 177 0
-1434 -1433 -177 0
1434 -1433 177 0
1434 1433 -177 0
-1435 1434 178 0
-1435 -1434 -178 0
1435 -1434 178 0
1435 1434 -178 0
-1436 1435 179 0
-1436 -1435 -179 0
1436 -1435 179 0
1436 1435 -179 0
-1437 1436 182 0
-1437 -1436 -182 0
1437 -1436 182 0
1437 1436 -182 0
-1438 1437 184 0
-1438 -1437 -184 0
1438 -1437 184 0
1438 1437 -184 0
-1439 1438 185 0
-1439 -1438 -185 0
1439 -1438 185 0
1439 1438 -185 0
-1440 1439 186 0
-1440 -1439 -186 0
1440 -1439 186 0
1440 1439 -186 0
-1441 1440 189 0
-1441 -1440 -189 0
1441 -1440 189 0
1441 1440 -189 0
-1442 1441 191 0
-1442 -1441 -191 0
1442 -1441 191 0
1442 1441 -191 0
-1443 1442 192 0
-1443 -1442 -192 0
1443 -1442 192 0
1443 1442 -192 0
-1444 1443 193 0
-1444 -1443 -193 0
1444 -1443 193 0
1444 1443 -193 0
-1445 1444 195 0
-1445 -1444 -195 0
1445 -1444 195 0
1445 1444 -195 0
-1446 1445 197 0
-1446 -1445 -197 0
1446 -1445 197 0
1446 1445 -197 0
-1447 1446 198 0
-1447 -1446 -198 0
1447 -1446 198 0
1447 1446 -198 0
-1448 1447 199 0
-1448 -1447 -199 0
1448 -1447 199 0
1448 1447 -199 0
-1449 1448 202 0
-1449 -1448 -202 0
1449 -1448 202 0
1449 1448 -202 0
-1450 1449 204 0
-1450 -1449 -204 0
1450 -1449 204 0
1450 1449 -204 0
-1451 1450 209 0
-1451 -1450 -209 0
1451 -1450 209 0
1451 1450 -209 0
-1452 1451 211 0
-1452 -1451 -211 0
1452 -1451 211 0
1452 1451 -211 0
-1453 1452 212 0
-1453 -1452 -212 0
1453 -1452 212 0
1453 1452 -212 0
-1454 1453 213 0
-1454 -1453 -213 0
1454 -1453 213 0
1454 1453 -213 0
-1455 1454 214 0
-1455 -1454 -214 0
1455 -1454 214 0
1455 1454 -214 0
-1456 1455 215 0
-1456 -1455 -215 0
1456 -1455 215 0
1456 1455 -215 0
-1456 0
-1457 57 58 0
-1457 -57 -58 0
1457 -57 58 0
1457 57 -58 0
-1458 1457 61 0
-1458 -1457 -61 0
1458 -1457 61 0
1458 1457 -61 0
-1459 1458 62 0
-1459 -1458 -62 0
1459 -1458 62 0
1459 1458 -62 0
-1460 1459 64 0
-1460 -1459 -64 0
1460 -1459 64 0
1460 1459 -64 0
-1461 1460 65 0
-1461 -1460 -65 0
1461 -1460 65 0
1461 1460 -65 0
-1462 1461 66 0
-1462 -1461 -66 0
1462 -1461 66 0
1462 1461 -66 0
-1463 1462 67 0
-1463 -1462 -67 0
1463 -1462 67 0
1463 1462 -67 0
-1464 1463 68 0
-1464 -1463 -68 0
1464 -1463 68 0
1464 1463 -68 0
-1465 1464 74 0
-1465 -1464 -74 0
1465 -1464 74 0
1465 1464 -74 0
-1466 1465 75 0
-1466 -1465 -75 0
1466 -1465 75 0
1466 1465 -75 0
-1467 1466 77 0
-1467 -1466 -77 0
1467 -1466 77 0
1467 1466 -77 0
-1468 1467 78 0
-1468 -1467 -78 0
1468 -1467 78 0
1468 1467 -78 0
-1469 1468 79 0
-1469 -1468 -79 0
1469 -1468 79 0
1469 1468 -79 0
-1470 1469 81 0
-1470 -1469 -81 0
1470 -1469 81 0
1470 1469 -81 0
-1471 1470 83 0
-1471 -1470 -83 0
1471 -1470 83 0
1471 1470 -83 0
-1472 1471 85 0
-1472 -1471 -85 0
1472 -1471 85 0
1472 1471 -85 0
-1473 1472 86 0
-1473 -1472 -86 0
1473 -1472 86 0
1473 1472 -86 0
-1474 1473 88 0
-1474 -1473 -88 0
1474 -1473 88 0
1474 1473 -88 0
-1475 1474 90 0
-1475 -1474 -90 0
1475 -1474 90 0
1475 1474 -90 0
-1476 1475 93 0
-1476 -1475 -93 0
1476 -1475 93 0
1476 1475 -93 0
-1477 1476 96 0
-1477 -1476 -96 0
1477 -1476 96 0
1477 1476 -96 0
-1478 1477 97 0
-1478 -1477 -97 0
1478 -1477 97 0
1478 1477 -97 0
-1479 1478 99 0
-1479 -1478 -99 0
1479 -1478 99 0
1479 1478 -99 0
-1480 1479 102 0
-1480 -1479 -102 0
1480 -1479 102 0
1480 1479 -102 0
-1481 1480 103 0
-1481 -1480 -103 0
1481 -1480 103 0
1481 1480 -103 0
-1482 1481 105 0
-1482 -1481 -105 0
1482 -1481 105 0
1482 1481 -105 0
-1483 1482 107 0
-1483 -1482 -107 0
1483 -1482 107 0
1483 1482 -107 0
-1484 1483 129 0
-1484 -1483 -129 0
1484 -1483 129 0
1484 1483 -129 0
-1485 1484 161 0
-1485 -1484 -161 0
1485 -1484 161 0
1485 1484 -161 0
-1486 1485 166 0
-1486 -1485 -166 0
1486 -1485 166 0
1486 1485 -166 0
-1487 1486 167 0
-1487 -1486 -167 0
1487 -1486 167 0
1487 1486 -167 0
-1488 1487 169 0
-1488 -1487 -169 0
1488 -1487 169 0
1488 1487 -169 0
-1489 1488 172 0
-1489 -1488 -172 0
1489 -1488 172 0
1489 1488 -172 0
-1490 1489 175 0
-1490 -1489 -175 0
1490 -1489 175 0
1490 1489 -175 0
-1491 1490 178 0
-1491 -1490 -178 0
1491 -1490 178 0
1491 1490 -178 0
-1492 1491 180 0
-1492 -1491 -180 0
1492 -1491 180 0
1492 1491 -180 0
-1493 1492 182 0
-1493 -1492 -182 0
1493 -1492 182 0
1493 1492 -182 0
-1494 1493 183 0
-1494 -1493 -183 0
1494 -1493 183 0
1494 1493 -183 0
-1495 1494 185 0
-1495 -1494 -185 0
1495 -1494 185 0
1495 1494 -185 0
-1496 1495 188 0
-1496 -1495 -188 0
1496 -1495 188 0
1496 1495 -188 0
-1497 1496 190 0
-1497 -1496 -190 0
1497 -1496 190 0
1497 1496 -190 0
-1498 1497 194 0
-1498 -1497 -194 0
1498 -1497 194 0
1498 1497 -194 0
-1499 1498 196 0
-1499 -1498 -196 0
1499 -1498 196 0
1499 1498 -196 0
-1500 1499 197 0
-1500 -1499 -197 0
1500 -1499 197 0
1500 1499 -197 0
-1501 1500 199 0
-1501 -1500 -199 0
1501 -1500 199 0
1501 1500 -199 0
-1502 1501 207 0
-1502 -1501 -207 0
1502 -1501 207 0
1502 1501 -207 0
-1503 1502 212 0
-1503 -1502 -212 0
1503 -1502 212 0
1503 1502 -212 0
-1504 1503 213 0
-1504 -1503 -213 0
1504 -1503 213 0
1504 1503 -213 0
-1505 1504 214 0
-1505 -1504 -214 0
1505 -1504 214 0
1505 1504 -214 0
-1506 1505 215 0
-1506 -1505 -215 0
1506 -1505 215 0
1506 1505 -215 0
-1507 1506 216 0
-1507 -1506 -216 0
1507 -1506 216 0
1507 1506 -216 0
-1507 0
-1508 58 59 0
-1508 -58 -59 0
1508 -58 59 0
1508 58 -59 0
-1509 1508 61 0
-1509 -1508 -61 0
1509 -1508 61 0
1509 1508 -61 0
-1510 1509 62 0
-1510 -1509 -62 0
1510 -1509 62 0
1510 1509 -62 0
-1511 1510 63 0
-1511 -1510 -63 0
1511 -1510 63 0
1511 1510 -63 0
-1512 1511 65 0
-1512 -1511 -65 0
1512 -1511 65 0
1512 1511 -65 0
-1513 1512 66 0
-1513 -1512 -66 0
1513 -1512 66 0
1513 1512 -66 0
-1514 1513 68 0
-1514 -1513 -68 0
1514 -1513 68 0
1514 1513 -68 0
-1515 1514 69 0
-1515 -1514 -69 0
1515 -1514 69 0
1515 1514 -69 0
-1516 1515 73 0
-1516 -1515 -73 0
1516 -1515 73 0
1516 1515 -73 0
-1517 1516 75 0
-1517 -1516 -75 0
1517 -1516 75 0
1517 1516 -75 0
-1518 1517 76 0
-1518 -1517 -76 0
1518 -1517 76 0
1518 1517 -76 0
-1519 1518 78 0
-1519 -1518 -78 0
1519 -1518 78 0
1519 1518 -78 0
-1520 1519 80 0
-1520 -1519 -80 0
1520 -1519 80 0
1520 1519 -80 0
-1521 1520 82 0
-1521 -1520 -82 0
1521 -1520 82 0
1521 1520 -82 0
-1522 1521 84 0
-1522 -1521 -84 0
1522 -1521 84 0
1522 1521 -84 0
-1523 1522 85 0
-1523 -1522 -85 0
1523 -1522 85 0
1523 1522 -85 0
-1524 1523 86 0
-1524 -1523 -86 0
1524 -1523 86 0
1524 1523 -86 0
-1525 1524 87 0
-1525 -1524 -87 0
1525 -1524 87 0
1525 1524 -87 0
-1526 1525 89 0
-1526 -1525 -89 0
1526 -1525 89 0
1526 1525 -89 0
-1527 1526 91 0
-1527 -1526 -91 0
1527 -1526 91 0
1527 1526 -91 0
-1528 1527 94 0
-1528 -1527 -94 0
1528 -1527 94 0
1528 1527 -94 0
-1529 1528 97 0
-1529 -1528 -97 0
1529 -1528 97 0
1529 1528 -97 0
-1530 1529 98 0
-1530 -1529 -98 0
1530 -1529 98 0
1530 1529 -98 0
-1531 1530 100 0
-1531 -1530 -100 0
1531 -1530 100 0
1531 1530 -100 0
-1532 1531 104 0
-1532 -1531 -104 0
1532 -1531 104 0
1532 1531 -104 0
-1533 1532 106 0
-1533 -1532 -106 0
1533 -1532 106 0
1533 1532 -106 0
-1534 1533 108 0
-1534 -1533 -108 0
1534 -1533 108 0
1534 1533 -108 0
-1535 1534 130 0
-1535 -1534 -130 0
1535 -1534 130 0
1535 1534 -130 0
-1536 1535 162 0
-1536 -1535 -162 0
1536 -1535 162 0
1536 1535 -162 0
-1537 1536 167 0
-1537 -1536 -167 0
1537 -1536 167 0
1537 1536 -167 0
-1538 1537 168 0
-1538 -1537 -168 0
1538 -1537 168 0
1538 1537 -168 0
-1539 1538 170 0
-1539 -1538 -170 0
1539 -1538 170 0
1539 1538 -170 0
-1540 1539 173 0
-1540 -1539 -173 0
1540 -1539 173 0
1540 1539 -173 0
-1541 1540 175 0
-1541 -1540 -175 0
1541 -1540 175 0
1541 1540 -175 0
-1542 1541 176 0
-1542 -1541 -176 0
1542 -1541 176 0
1542 1541 -176 0
-1543 1542 179 0
-1543 -1542 -179 0
1543 -1542 179 0
1543 1542 -179 0
-1544 1543 183 0
-1544 -1543 -183 0
1544 -1543 183 0
1544 1543 -183 0
-1545 1544 184 0
-1545 -1544 -184 0
1545 -1544 184 0
1545 1544 -184 0
-1546 1545 186 0
-1546 -1545 -186 0
1546 -1545 186 0
1546 1545 -186 0
-1547 1546 189 0
-1547 -1546 -189 0
1547 -1546 189 0
1547 1546 -189 0
-1548 1547 191 0
-1548 -1547 -191 0
1548 -1547 191 0
1548 1547 -191 0
-1549 1548 195 0
-1549 -1548 -195 0
1549 -1548 195 0
1549 1548 -195 0
-1550 1549 197 0
-1550 -1549 -197 0
1550 -1549 197 0
1550 1549 -197 0
-1551 1550 198 0
-1551 -1550 -198 0
1551 -1550 198 0
1551 1550 -198 0
-1552 1551 200 0
-1552 -1551 -200 0
1552 -1551 200 0
1552 1551 -200 0
-1553 1552 208 0
-1553 -1552 -208 0
1553 -1552 208 0
1553 1552 -208 0
-1554 1553 211 0
-1554 -1553 -211 0
1554 -1553 211 0
1554 1553 -211 0
-1555 1554 213 0
-1555 -1554 -213 0
1555 -1554 213 0
1555 1554 -213 0
-1556 1555 214 0
-1556 -1555 -214 0
1556 -1555 214 0
1556 1555 -214 0
-1557 1556 215 0
-1557 -1556 -215 0
1557 -1556 215 0
1557 1556 -215 0
-1558 1557 216 0
-1558 -1557 -216 0
1558 -1557 216 0
1558 1557 -216 0
-1558 0
-1559 53 58 0
-1559 -53 -58 0
1559 -53 58 0
1559 53 -58 0
-1560 1559 60 0
-1560 -1559 -60 0
1560 -1559 60 0
1560 1559 -60 0
-1561 1560 61 0
-1561 -1560 -61 0
1561 -1560 61 0
1561 1560 -61 0
-1562 1561 62 0
-1562 -1561 -62 0
1562 -1561 62 0
1562 1561 -62 0
-1563 1562 64 0
-1563 -1562 -64 0
1563 -1562 64 0
1563 1562 -64 0
-1564 1563 65 0
-1564 -1563 -65 0
1564 -1563 65 0
1564 1563 -65 0
-1565 1564 66 0
-1565 -1564 -66 0
1565 -1564 66 0
1565 1564 -66 0
-1566 1565 67 0
-1566 -1565 -67 0
1566 -1565 67 0
1566 1565 -67 0
-1567 1566 68 0
-1567 -1566 -68 0
1567 -1566 68 0
1567 1566 -68 0
-1568 1567 69 0
-1568 -1567 -69 0
1568 -1567 69 0
1568 1567 -69 0
-1569 1568 70 0
-1569 -1568 -70 0
1569 -1568 70 0
1569 1568 -70 0
-1570 1569 71 0
-1570 -1569 -71 0
1570 -1569 71 0
1570 1569 -71 0
-1571 1570 72 0
-1571 -1570 -72 0
1571 -1570 72 0
1571 1570 -72 0
-1572 1571 73 0
-1572 -1571 -73 0
1572 -1571 73 0
1572 1571 -73 0
-1573 1572 76 0
-1573 -1572 -76 0
1573 -1572 76 0
1573 1572 -76 0
-1574 1573 79 0
-1574 -1573 -79 0
1574 -1573 79 0
1574 1573 -79 0
-1575 1574 81 0
-1575 -1574 -81 0
1575 -1574 81 0
1575 1574 -81 0
-1576 1575 82 0
-1576 -1575 -82 0
1576 -1575 82 0
1576 1575 -82 0
-1577 1576 84 0
-1577 -1576 -84 0
1577 -1576 84 0
1577 1576 -84 0
-1578 1577 85 0
-1578 -1577 -85 0
1578 -1577 85 0
1578 1577 -85 0
-1579 1578 87 0
-1579 -1578 -87 0
1579 -1578 87 0
1579 1578 -87 0
-1580 1579 89 0
-1580 -1579 -89 0
1580 -1579 89 0
1580 1579 -89 0
-1581 1580 90 0
-1581 -1580 -90 0
1581 -1580 90 0
1581 1580 -90 0
-1582 1581 92 0
-1582 -1581 -92 0
1582 -1581 92 0
1582 1581 -92 0
-1583 1582 94 0
-1583 -1582 -94 0
1583 -1582 94 0
1583 1582 -94 0
-1584 1583 96 0
-1584 -1583 -96 0
1584 -1583 96 0
1584 1583 -96 0
-1585 1584 102 0
-1585 -1584 -102 0
1585 -1584 102 0
1585 1584 -102 0
-1586 1585 103 0
-1586 -1585 -103 0
1586 -1585 103 0
1586 1585 -103 0
-1587 1586 104 0
-1587 -1586 -104 0
1587 -1586 104 0
1587 1586 -104 0
-1588 1587 105 0
-1588 -1587 -105 0
1588 -1587 105 0
1588 1587 -105 0
-1589 1588 108 0
-1589 -1588 -108 0
1589 -1588 108 0
1589 1588 -108 0
-1590 1589 131 0
-1590 -1589 -131 0
1590 -1589 131 0
1590 1589 -131 0
-1591 1590 161 0
-1591 -1590 -161 0
1591 -1590 161 0
1591 1590 -161 0
-1592 1591 162 0
-1592 -1591 -162 0
1592 -1591 162 0
1592 1591 -162 0
-1593 1592 165 0
-1593 -1592 -165 0
1593 -1592 165 0
1593 1592 -165 0
-1594 1593 167 0
-1594 -1593 -167 0
1594 -1593 167 0
1594 1593 -167 0
-1595 1594 168 0
-1595 -1594 -168 0
1595 -1594 168 0
1595 1594 -168 0
-1596 1595 169 0
-1596 -1595 -169 0
1596 -1595 169 0
1596 1595 -169 0
-1597 1596 170 0
-1597 -1596 -170 0
1597 -1596 170 0
1597 1596 -170 0
-1598 1597 171 0
-1598 -1597 -171 0
1598 -1597 171 0
1598 1597 -171 0
-1599 1598 172 0
-1599 -1598 -172 0
1599 -1598 172 0
1599 1598 -172 0
-1600 1599 173 0
-1600 -1599 -173 0
1600 -1599 173 0
1600 1599 -173 0
-1601 1600 174 0
-1601 -1600 -174 0
1601 -1600 174 0
1601 1600 -174 0
-1602 1601 175 0
-1602 -1601 -175 0
1602 -1601 175 0
1602 1601 -175 0
-1603 1602 176 0
-1603 -1602 -176 0
1603 -1602 176 0
1603 1602 -176 0
-1604 1603 179 0
-1604 -1603 -179 0
1604 -1603 179 0
1604 1603 -179 0
-1605 1604 180 0
-1605 -1604 -180 0
1605 -1604 180 0
1605 1604 -180 0
-1606 1605 182 0
-1606 -1605 -182 0
1606 -1605 182 0
1606 1605 -182 0
-1607 1606 184 0
-1607 -1606 -184 0
1607 -1606 184 0
1607 1606 -184 0
-1608 1607 185 0
-1608 -1607 -185 0
1608 -1607 185 0
1608 1607 -185 0
-1609 1608 186 0
-1609 -1608 -186 0
1609 -1608 186 0
1609 1608 -186 0
-1610 1609 187 0
-1610 -1609 -187 0
1610 -1609 187 0
1610 1609 -187 0
-1611 1610 188 0
-1611 -1610 -188 0
1611 -1610 188 0
1611 1610 -188 0
-1612 1611 190 0
-1612 -1611 -190 0
1612 -1611 190 0
1612 1611 -190 0
-1613 1612 196 0
-1613 -1612 -196 0
1613 -1612 196 0
1613 1612 -196 0
-1614 1613 197 0
-1614 -1613 -197 0
1614 -1613 197 0
1614 1613 -197 0
-1615 1614 200 0
-1615 -1614 -200 0
1615 -1614 200 0
1615 1614 -200 0
-1616 1615 201 0
-1616 -1615 -201 0
1616 -1615 201 0
1616 1615 -201 0
-1617 1616 203 0
-1617 -1616 -203 0
1617 -1616 203 0
1617 1616 -203 0
-1618 1617 207 0
-1618 -1617 -207 0
1618 -1617 207 0
1618 1617 -207 0
-1619 1618 209 0
-1619 -1618 -209 0
1619 -1618 209 0
1619 1618 -209 0
-1620 1619 210 0
-1620 -1619 -210 0
1620 -1619 210 0
1620 1619 -210 0
-1621 1620 211 0
-1621 -1620 -211 0
1621 -1620 211 0
1621 1620 -211 0
-1622 1621 212 0
-1622 -1621 -212 0
1622 -1621 212 0
1622 1621 -212 0
-1623 1622 214 0
-1623 -1622 -214 0
1623 -1622 214 0
1623 1622 -214 0
-1624 1623 215 0
-1624 -1623 -215 0
1624 -1623 215 0
1624 1623 -215 0
-1625 1624 216 0
-1625 -1624 -216 0
1625 -1624 216 0
1625 1624 -216 0
-1625 0
-1626 53 54 0
-1626 -53 -54 0
1626 -53 54 0
1626 53 -54 0
-1627 1626 57 0
-1627 -1626 -57 0
1627 -1626 57 0
1627 1626 -57 0
-1628 1627 60 0
-1628 -1627 -60 0
1628 -1627 60 0
1628 1627 -60 0
-1629 1628 64 0
-1629 -1628 -64 0
1629 -1628 64 0
1629 1628 -64 0
-1630 1629 65 0
-1630 -1629 -65 0
1630 -1629 65 0
1630 1629 -65 0
-1631 1630 66 0
-1631 -1630 -66 0
1631 -1630 66 0
1631 1630 -66 0
-1632 1631 68 0
-1632 -1631 -68 0
1632 -1631 68 0
1632 1631 -68 0
-1633 1632 70 0
-1633 -1632 -70 0
1633 -1632 70 0
1633 1632 -70 0
-1634 1633 71 0
-1634 -1633 -71 0
1634 -1633 71 0
1634 1633 -71 0
-1635 1634 72 0
-1635 -1634 -72 0
1635 -1634 72 0
1635 1634 -72 0
-1636 1635 73 0
-1636 -1635 -73 0
1636 -1635 73 0
1636 1635 -73 0
-1637 1636 75 0
-1637 -1636 -75 0
1637 -1636 75 0
1637 1636 -75 0
-1638 1637 76 0
-1638 -1637 -76 0
1638 -1637 76 0
1638 1637 -76 0
-1639 1638 78 0
-1639 -1638 -78 0
1639 -1638 78 0
1639 1638 -78 0
-1640 1639 82 0
-1640 -1639 -82 0
1640 -1639 82 0
1640 1639 -82 0
-1641 1640 83 0
-1641 -1640 -83 0
1641 -1640 83 0
1641 1640 -83 0
-1642 1641 84 0
-1642 -1641 -84 0
1642 -1641 84 0
1642 1641 -84 0
-1643 1642 86 0
-1643 -1642 -86 0
1643 -1642 86 0
1643 1642 -86 0
-1644 1643 87 0
-1644 -1643 -87 0
1644 -1643 87 0
1644 1643 -87 0
-1645 1644 99 0
-1645 -1644 -99 0
1645 -1644 99 0
1645 1644 -99 0
-1646 1645 100 0
-1646 -1645 -100 0
1646 -1645 100 0
1646 1645 -100 0
-1647 1646 102 0
-1647 -1646 -102 0
1647 -1646 102 0
1647 1646 -102 0
-1648 1647 103 0
-1648 -1647 -103 0
1648 -1647 103 0
1648 1647 -103 0
-1649 1648 104 0
-1649 -1648 -104 0
1649 -1648 104 0
1649 1648 -104 0
-1650 1649 106 0
-1650 -1649 -106 0
1650 -1649 106 0
1650 1649 -106 0
-1651 1650 132 0
-1651 -1650 -132 0
1651 -1650 132 0
1651 1650 -132 0
-1652 1651 161 0
-1652 -1651 -161 0
1652 -1651 161 0
1652 1651 -161 0
-1653 1652 165 0
-1653 -1652 -165 0
1653 -1652 165 0
1653 1652 -165 0
-1654 1653 166 0
-1654 -1653 -166 0
1654 -1653 166 0
1654 1653 -166 0
-1655 1654 167 0
-1655 -1654 -167 0
1655 -1654 167 0
1655 1654 -167 0
-1656 1655 168 0
-1656 -1655 -168 0
1656 -1655 168 0
1656 1655 -168 0
-1657 1656 171 0
-1657 -1656 -171 0
1657 -1656 171 0
1657 1656 -171 0
-1658 1657 174 0
-1658 -1657 -174 0
1658 -1657 174 0
1658 1657 -174 0
-1659 1658 176 0
-1659 -1658 -176 0
1659 -1658 176 0
1659 1658 -176 0
-1660 1659 179 0
-1660 -1659 -179 0
1660 -1659 179 0
1660 1659 -179 0
-1661 1660 180 0
-1661 -1660 -180 0
1661 -1660 180 0
1661 1660 -180 0
-1662 1661 182 0
-1662 -1661 -182 0
1662 -1661 182 0
1662 1661 -182 0
-1663 1662 183 0
-1663 -1662 -183 0
1663 -1662 183 0
1663 1662 -183 0
-1664 1663 185 0
-1664 -1663 -185 0
1664 -1663 185 0
1664 1663 -185 0
-1665 1664 187 0
-1665 -1664 -187 0
1665 -1664 187 0
1665 1664 -187 0
-1666 1665 189 0
-1666 -1665 -189 0
1666 -1665 189 0
1666 1665 -189 0
-1667 1666 191 0
-1667 -1666 -191 0
1667 -1666 191 0
1667 1666 -191 0
-1668 1667 192 0
-1668 -1667 -192 0
1668 -1667 192 0
1668 1667 -192 0
-1669 1668 193 0
-1669 -1668 -193 0
1669 -1668 193 0
1669 1668 -193 0
-1670 1669 200 0
-1670 -1669 -200 0
1670 -1669 200 0
1670 1669 -200 0
-1671 1670 201 0
-1671 -1670 -201 0
1671 -1670 201 0
1671 1670 -201 0
-1672 1671 202 0
-1672 -1671 -202 0
1672 -1671 202 0
1672 1671 -202 0
-1673 1672 203 0
-1673 -1672 -203 0
1673 -1672 203 0
1673 1672 -203 0
-1674 1673 204 0
-1674 -1673 -204 0
1674 -1673 204 0
1674 1673 -204 0
-1675 1674 205 0
-1675 -1674 -205 0
1675 -1674 205 0
1675 1674 -205 0
-1676 1675 207 0
-1676 -1675 -207 0
1676 -1675 207 0
1676 1675 -207 0
-1677 1676 208 0
-1677 -1676 -208 0
1677 -1676 208 0
1677 1676 -208 0
-1678 1677 211 0
-1678 -1677 -211 0
1678 -1677 211 0
1678 1677 -211 0
-1679 1678 212 0
-1679 -1678 -212 0
1679 -1678 212 0
1679 1678 -212 0
-1680 1679 213 0
-1680 -1679 -213 0
1680 -1679 213 0
1680 1679 -213 0
-1681 1680 215 0
-1681 -1680 -215 0
1681 -1680 215 0
1681 1680 -215 0
-1682 1681 216 0
-1682 -1681 -216 0
1682 -1681 216 0
1682 1681 -216 0
-1682 0
-1683 58 59 0
-1683 -58 -59 0
1683 -58 59 0
1683 58 -59 0
-1684 1683 60 0
-1684 -1683 -60 0
1684 -1683 60 0
1684 1683 -60 0
-1685 1684 61 0
-1685 -1684 -61 0
1685 -1684 61 0
1685 1684 -61 0
-1686 1685 63 0
-1686 -1685 -63 0
1686 -1685 63 0
1686 1685 -63 0
-1687 1686 65 0
-1687 -1686 -65 0
1687 -1686 65 0
1687 1686 -65 0
-1688 1687 66 0
-1688 -1687 -66 0
1688 -1687 66 0
1688 1687 -66 0
-1689 1688 69 0
-1689 -1688 -69 0
1689 -1688 69 0
1689 1688 -69 0
-1690 1689 72 0
-1690 -1689 -72 0
1690 -1689 72 0
1690 1689 -72 0
-1691 1690 73 0
-1691 -1690 -73 0
1691 -1690 73 0
1691 1690 -73 0
-1692 1691 74 0
-1692 -1691 -74 0
1692 -1691 74 0
1692 1691 -74 0
-1693 1692 76 0
-1693 -1692 -76 0
1693 -1692 76 0
1693 1692 -76 0
-1694 1693 77 0
-1694 -1693 -77 0
1694 -1693 77 0
1694 1693 -77 0
-1695 1694 78 0
-1695 -1694 -78 0
1695 -1694 78 0
1695 1694 -78 0
-1696 1695 80 0
-1696 -1695 -80 0
1696 -1695 80 0
1696 1695 -80 0
-1697 1696 81 0
-1697 -1696 -81 0
1697 -1696 81 0
1697 1696 -81 0
-1698 1697 82 0
-1698 -1697 -82 0
1698 -1697 82 0
1698 1697 -82 0
-1699 1698 86 0
-1699 -1698 -86 0
1699 -1698 86 0
1699 1698 -86 0
-1700 1699 87 0
-1700 -1699 -87 0
1700 -1699 87 0
1700 1699 -87 0
-1701 1700 92 0
-1701 -1700 -92 0
1701 -1700 92 0
1701 1700 -92 0
-1702 1701 97 0
-1702 -1701 -97 0
1702 -1701 97 0
1702 1701 -97 0
-1703 1702 98 0
-1703 -1702 -98 0
1703 -1702 98 0
1703 1702 -98 0
-1704 1703 99 0
-1704 -1703 -99 0
1704 -1703 99 0
1704 1703 -99 0
-1705 1704 101 0
-1705 -1704 -101 0
1705 -1704 101 0
1705 1704 -101 0
-1706 1705 103 0
-1706 -1705 -103 0
1706 -1705 103 0
1706 1705 -103 0
-1707 1706 105 0
-1707 -1706 -105 0
1707 -1706 105 0
1707 1706 -105 0
-1708 1707 106 0
-1708 -1707 -106 0
1708 -1707 106 0
1708 1707 -106 0
-1709 1708 108 0
-1709 -1708 -108 0
1709 -1708 108 0
1709 1708 -108 0
-1710 1709 133 0
-1710 -1709 -133 0
1710 -1709 133 0
1710 1709 -133 0
-1711 1710 161 0
-1711 -1710 -161 0
1711 -1710 161 0
1711 1710 -161 0
-1712 1711 166 0
-1712 -1711 -166 0
1712 -1711 166 0
1712 1711 -166 0
-1713 1712 168 0
-1713 -1712 -168 0
1713 -1712 168 0
1713 1712 -168 0
-1714 1713 169 0
-1714 -1713 -169 0
1714 -1713 169 0
1714 1713 -169 0
-1715 1714 172 0
-1715 -1714 -172 0
1715 -1714 172 0
1715 1714 -172 0
-1716 1715 174 0
-1716 -1715 -174 0
1716 -1715 174 0
1716 1715 -174 0
-1717 1716 177 0
-1717 -1716 -177 0
1717 -1716 177 0
1717 1716 -177 0
-1718 1717 185 0
-1718 -1717 -185 0
1718 -1717 185 0
1718 1717 -185 0
-1719 1718 187 0
-1719 -1718 -187 0
1719 -1718 187 0
1719 1718 -187 0
-1720 1719 188 0
-1720 -1719 -188 0
1720 -1719 188 0
1720 1719 -188 0
-1721 1720 190 0
-1721 -1720 -190 0
1721 -1720 190 0
1721 1720 -190 0
-1722 1721 191 0
-1722 -1721 -191 0
1722 -1721 191 0
1722 1721 -191 0
-1723 1722 192 0
-1723 -1722 -192 0
1723 -1722 192 0
1723 1722 -192 0
-1724 1723 193 0
-1724 -1723 -193 0
1724 -1723 193 0
1724 1723 -193 0
-1725 1724 198 0
-1725 -1724 -198 0
1725 -1724 198 0
1725 1724 -198 0
-1726 1725 201 0
-1726 -1725 -201 0
1726 -1725 201 0
1726 1725 -201 0
-1727 1726 204 0
-1727 -1726 -204 0
1727 -1726 204 0
1727 1726 -204 0
-1728 1727 206 0
-1728 -1727 -206 0
1728 -1727 206 0
1728 1727 -206 0
-1729 1728 207 0
-1729 -1728 -207 0
1729 -1728 207 0
1729 1728 -207 0
-1730 1729 210 0
-1730 -1729 -210 0
1730 -1729 210 0
1730 1729 -210 0
-1731 1730 211 0
-1731 -1730 -211 0
1731 -1730 211 0
1731 1730 -211 0
-1732 1731 214 0
-1732 -1731 -214 0
1732 -1731 214 0
1732 1731 -214 0
-1733 1732 215 0
-1733 -1732 -215 0
1733 -1732 215 0
1733 1732 -215 0
-1733 0
-1734 57 58 0
-1734 -57 -58 0
1734 -57 58 0
1734 57 -58 0
-1735 1734 59 0
-1735 -1734 -59 0
1735 -1734 59 0
1735 1734 -59 0
-1736 1735 65 0
-1736 -1735 -65 0
1736 -1735 65 0
1736 1735 -65 0
-1737 1736 66 0
-1737 -1736 -66 0
1737 -1736 66 0
1737 1736 -66 0
-1738 1737 67 0
-1738 -1737 -67 0
1738 -1737 67 0
1738 1737 -67 0
-1739 1738 68 0
-1739 -1738 -68 0
1739 -1738 68 0
1739 1738 -68 0
-1740 1739 69 0
-1740 -1739 -69 0
1740 -1739 69 0
1740 1739 -69 0
-1741 1740 70 0
-1741 -1740 -70 0
1741 -1740 70 0
1741 1740 -70 0
-1742 1741 71 0
-1742 -1741 -71 0
1742 -1741 71 0
1742 1741 -71 0
-1743 1742 72 0
-1743 -1742 -72 0
1743 -1742 72 0
1743 1742 -72 0
-1744 1743 74 0
-1744 -1743 -74 0
1744 -1743 74 0
1744 1743 -74 0
-1745 1744 76 0
-1745 -1744 -76 0
1745 -1744 76 0
1745 1744 -76 0
-1746 1745 77 0
-1746 -1745 -77 0
1746 -1745 77 0
1746 1745 -77 0
-1747 1746 79 0
-1747 -1746 -79 0
1747 -1746 79 0
1747 1746 -79 0
-1748 1747 80 0
-1748 -1747 -80 0
1748 -1747 80 0
1748 1747 -80 0
-1749 1748 81 0
-1749 -1748 -81 0
1749 -1748 81 0
1749 1748 -81 0
-1750 1749 86 0
-1750 -1749 -86 0
1750 -1749 86 0
1750 1749 -86 0
-1751 1750 88 0
-1751 -1750 -88 0
1751 -1750 88 0
1751 1750 -88 0
-1752 1751 89 0
-1752 -1751 -89 0
1752 -1751 89 0
1752 1751 -89 0
-1753 1752 90 0
-1753 -1752 -90 0
1753 -1752 90 0
1753 1752 -90 0
-1754 1753 91 0
-1754 -1753 -91 0
1754 -1753 91 0
1754 1753 -91 0
-1755 1754 94 0
-1755 -1754 -94 0
1755 -1754 94 0
1755 1754 -94 0
-1756 1755 96 0
-1756 -1755 -96 0
1756 -1755 96 0
1756 1755 -96 0
-1757 1756 97 0
-1757 -1756 -97 0
1757 -1756 97 0
1757 1756 -97 0
-1758 1757 99 0
-1758 -1757 -99 0
1758 -1757 99 0
1758 1757 -99 0
-1759 1758 101 0
-1759 -1758 -101 0
1759 -1758 101 0
1759 1758 -101 0
-1760 1759 102 0
-1760 -1759 -102 0
1760 -1759 102 0
1760 1759 -102 0
-1761 1760 103 0
-1761 -1760 -103 0
1761 -1760 103 0
1761 1760 -103 0
-1762 1761 105 0
-1762 -1761 -105 0
1762 -1761 105 0
1762 1761 -105 0
-1763 1762 106 0
-1763 -1762 -106 0
1763 -1762 106 0
1763 1762 -106 0
-1764 1763 108 0
-1764 -1763 -108 0
1764 -1763 108 0
1764 1763 -108 0
-1765 1764 134 0
-1765 -1764 -134 0
1765 -1764 134 0
1765 1764 -134 0
-1766 1765 162 0
-1766 -1765 -162 0
1766 -1765 162 0
1766 1765 -162 0
-1767 1766 163 0
-1767 -1766 -163 0
1767 -1766 163 0
1767 1766 -163 0
-1768 1767 167 0
-1768 -1767 -167 0
1768 -1767 167 0
1768 1767 -167 0
-1769 1768 169 0
-1769 -1768 -169 0
1769 -1768 169 0
1769 1768 -169 0
-1770 1769 170 0
-1770 -1769 -170 0
1770 -1769 170 0
1770 1769 -170 0
-1771 1770 173 0
-1771 -1770 -173 0
1771 -1770 173 0
1771 1770 -173 0
-1772 1771 178 0
-1772 -1771 -178 0
1772 -1771 178 0
1772 1771 -178 0
-1773 1772 186 0
-1773 -1772 -186 0
1773 -1772 186 0
1773 1772 -186 0
-1774 1773 187 0
-1774 -1773 -187 0
1774 -1773 187 0
1774 1773 -187 0
-1775 1774 188 0
-1775 -1774 -188 0
1775 -1774 188 0
1775 1774 -188 0
-1776 1775 189 0
-1776 -1775 -189 0
1776 -1775 189 0
1776 1775 -189 0
-1777 1776 191 0
-1777 -1776 -191 0
1777 -1776 191 0
1777 1776 -191 0
-1778 1777 192 0
-1778 -1777 -192 0
1778 -1777 192 0
1778 1777 -192 0
-1779 1778 193 0
-1779 -1778 -193 0
1779 -1778 193 0
1779 1778 -193 0
-1780 1779 194 0
-1780 -1779 -194 0
1780 -1779 194 0
1780 1779 -194 0
-1781 1780 199 0
-1781 -1780 -199 0
1781 -1780 199 0
1781 1780 -199 0
-1782 1781 202 0
-1782 -1781 -202 0
1782 -1781 202 0
1782 1781 -202 0
-1783 1782 205 0
-1783 -1782 -205 0
1783 -1782 205 0
1783 1782 -205 0
-1784 1783 207 0
-1784 -1783 -207 0
1784 -1783 207 0
1784 1783 -207 0
-1785 1784 208 0
-1785 -1784 -208 0
1785 -1784 208 0
1785 1784 -208 0
-1786 1785 212 0
-1786 -1785 -212 0
1786 -1785 212 0
1786 1785 -212 0
-1787 1786 215 0
-1787 -1786 -215 0
1787 -1786 215 0
1787 1786 -215 0
-1788 1787 216 0
-1788 -1787 -216 0
1788 -1787 216 0
1788 1787 -216 0
-1788 0
-1789 53 60 0
-1789 -53 -60 0
1789 -53 60 0
1789 53 -60 0
-1790 1789 61 0
-1790 -1789 -61 0
1790 -1789 61 0
1790 1789 -61 0
-1791 1790 63 0
-1791 -1790 -63 0
1791 -1790 63 0
1791 1790 -63 0
-1792 1791 65 0
-1792 -1791 -65 0
1792 -1791 65 0
1792 1791 -65 0
-1793 1792 66 0
-1793 -1792 -66 0
1793 -1792 66 0
1793 1792 -66 0
-1794 1793 69 0
-1794 -1793 -69 0
1794 -1793 69 0
1794 1793 -69 0
-1795 1794 70 0
-1795 -1794 -70 0
1795 -1794 70 0
1795 1794 -70 0
-1796 1795 74 0
-1796 -1795 -74 0
1796 -1795 74 0
1796 1795 -74 0
-1797 1796 75 0
-1797 -1796 -75 0
1797 -1796 75 0
1797 1796 -75 0
-1798 1797 78 0
-1798 -1797 -78 0
1798 -1797 78 0
1798 1797 -78 0
-1799 1798 80 0
-1799 -1798 -80 0
1799 -1798 80 0
1799 1798 -80 0
-1800 1799 81 0
-1800 -1799 -81 0
1800 -1799 81 0
1800 1799 -81 0
-1801 1800 83 0
-1801 -1800 -83 0
1801 -1800 83 0
1801 1800 -83 0
-1802 1801 84 0
-1802 -1801 -84 0
1802 -1801 84 0
1802 1801 -84 0
-1803 1802 86 0
-1803 -1802 -86 0
1803 -1802 86 0
1803 1802 -86 0
-1804 1803 87 0
-1804 -1803 -87 0
1804 -1803 87 0
1804 1803 -87 0
-1805 1804 88 0
-1805 -1804 -88 0
1805 -1804 88 0
1805 1804 -88 0
-1806 1805 90 0
-1806 -1805 -90 0
1806 -1805 90 0
1806 1805 -90 0
-1807 1806 91 0
-1807 -1806 -91 0
1807 -1806 91 0
1807 1806 -91 0
-1808 1807 92 0
-1808 -1807 -92 0
1808 -1807 92 0
1808 1807 -92 0
-1809 1808 94 0
-1809 -1808 -94 0
1809 -1808 94 0
1809 1808 -94 0
-1810 1809 96 0
-1810 -1809 -96 0
1810 -1809 96 0
1810 1809 -96 0
-1811 1810 97 0
-1811 -1810 -97 0
1811 -1810 97 0
1811 1810 -97 0
-1812 1811 99 0
-1812 -1811 -99 0
1812 -1811 99 0
1812 1811 -99 0
-1813 1812 100 0
-1813 -1812 -100 0
1813 -1812 100 0
1813 1812 -100 0
-1814 1813 101 0
-1814 -1813 -101 0
1814 -1813 101 0
1814 1813 -101 0
-1815 1814 103 0
-1815 -1814 -103 0
1815 -1814 103 0
1815 1814 -103 0
-1816 1815 106 0
-1816 -1815 -106 0
1816 -1815 106 0
1816 1815 -106 0
-1817 1816 108 0
-1817 -1816 -108 0
1817 -1816 108 0
1817 1816 -108 0
-1818 1817 135 0
-1818 -1817 -135 0
1818 -1817 135 0
1818 1817 -135 0
-1819 1818 161 0
-1819 -1818 -161 0
1819 -1818 161 0
1819 1818 -161 0
-1820 1819 162 0
-1820 -1819 -162 0
1820 -1819 162 0
1820 1819 -162 0
-1821 1820 163 0
-1821 -1820 -163 0
1821 -1820 163 0
1821 1820 -163 0
-1822 1821 164 0
-1822 -1821 -164 0
1822 -1821 164 0
1822 1821 -164 0
-1823 1822 165 0
-1823 -1822 -165 0
1823 -1822 165 0
1823 1822 -165 0
-1824 1823 167 0
-1824 -1823 -167 0
1824 -1823 167 0
1824 1823 -167 0
-1825 1824 168 0
-1825 -1824 -168 0
1825 -1824 168 0
1825 1824 -168 0
-1826 1825 169 0
-1826 -1825 -169 0
1826 -1825 169 0
1826 1825 -169 0
-1827 1826 171 0
-1827 -1826 -171 0
1827 -1826 171 0
1827 1826 -171 0
-1828 1827 172 0
-1828 -1827 -172 0
1828 -1827 172 0
1828 1827 -172 0
-1829 1828 173 0
-1829 -1828 -173 0
1829 -1828 173 0
1829 1828 -173 0
-1830 1829 174 0
-1830 -1829 -174 0
1830 -1829 174 0
1830 1829 -174 0
-1831 1830 175 0
-1831 -1830 -175 0
1831 -1830 175 0
1831 1830 -175 0
-1832 1831 177 0
-1832 -1831 -177 0
1832 -1831 177 0
1832 1831 -177 0
-1833 1832 182 0
-1833 -1832 -182 0
1833 -1832 182 0
1833 1832 -182 0
-1834 1833 186 0
-1834 -1833 -186 0
1834 -1833 186 0
1834 1833 -186 0
-1835 1834 189 0
-1835 -1834 -189 0
1835 -1834 189 0
1835 1834 -189 0
-1836 1835 190 0
-1836 -1835 -190 0
1836 -1835 190 0
1836 1835 -190 0
-1837 1836 193 0
-1837 -1836 -193 0
1837 -1836 193 0
1837 1836 -193 0
-1838 1837 194 0
-1838 -1837 -194 0
1838 -1837 194 0
1838 1837 -194 0
-1839 1838 195 0
-1839 -1838 -195 0
1839 -1838 195 0
1839 1838 -195 0
-1840 1839 197 0
-1840 -1839 -197 0
1840 -1839 197 0
1840 1839 -197 0
-1841 1840 198 0
-1841 -1840 -198 0
1841 -1840 198 0
1841 1840 -198 0
-1842 1841 206 0
-1842 -1841 -206 0
1842 -1841 206 0
1842 1841 -206 0
-1843 1842 207 0
-1843 -1842 -207 0
1843 -1842 207 0
1843 1842 -207 0
-1844 1843 208 0
-1844 -1843 -208 0
1844 -1843 208 0
1844 1843 -208 0
-1845 1844 209 0
-1845 -1844 -209 0
1845 -1844 209 0
1845 1844 -209 0
-1846 1845 210 0
-1846 -1845 -210 0
1846 -1845 210 0
1846 1845 -210 0
-1847 1846 211 0
-1847 -1846 -211 0
1847 -1846 211 0
1847 1846 -211 0
-1848 1847 213 0
-1848 -1847 -213 0
1848 -1847 213 0
1848 1847 -213 0
-1849 1848 216 0
-1849 -1848 -216 0
1849 -1848 216 0
1849 1848 -216 0
-1849 0
-1850 53 54 0
-1850 -53 -54 0
1850 -53 54 0
1850 53 -54 0
-1851 1850 57 0
-1851 -1850 -57 0
1851 -1850 57 0
1851 1850 -57 0
-1852 1851 59 0
-1852 -1851 -59 0
1852 -1851 59 0
1852 1851 -59 0
-1853 1852 60 0
-1853 -1852 -60 0
1853 -1852 60 0
1853 1852 -60 0
-1854 1853 63 0
-1854 -1853 -63 0
1854 -1853 63 0
1854 1853 -63 0
-1855 1854 66 0
-1855 -1854 -66 0
1855 -1854 66 0
1855 1854 -66 0
-1856 1855 67 0
-1856 -1855 -67 0
1856 -1855 67 0
1856 1855 -67 0
-1857 1856 69 0
-1857 -1856 -69 0
1857 -1856 69 0
1857 1856 -69 0
-1858 1857 70 0
-1858 -1857 -70 0
1858 -1857 70 0
1858 1857 -70 0
-1859 1858 71 0
-1859 -1858 -71 0
1859 -1858 71 0
1859 1858 -71 0
-1860 1859 74 0
-1860 -1859 -74 0
1860 -1859 74 0
1860 1859 -74 0
-1861 1860 77 0
-1861 -1860 -77 0
1861 -1860 77 0
1861 1860 -77 0
-1862 1861 78 0
-1862 -1861 -78 0
1862 -1861 78 0
1862 1861 -78 0
-1863 1862 80 0
-1863 -1862 -80 0
1863 -1862 80 0
1863 1862 -80 0
-1864 1863 81 0
-1864 -1863 -81 0
1864 -1863 81 0
1864 1863 -81 0
-1865 1864 82 0
-1865 -1864 -82 0
1865 -1864 82 0
1865 1864 -82 0
-1866 1865 89 0
-1866 -1865 -89 0
1866 -1865 89 0
1866 1865 -89 0
-1867 1866 90 0
-1867 -1866 -90 0
1867 -1866 90 0
1867 1866 -90 0
-1868 1867 92 0
-1868 -1867 -92 0
1868 -1867 92 0
1868 1867 -92 0
-1869 1868 97 0
-1869 -1868 -97 0
1869 -1868 97 0
1869 1868 -97 0
-1870 1869 98 0
-1870 -1869 -98 0
1870 -1869 98 0
1870 1869 -98 0
-1871 1870 99 0
-1871 -1870 -99 0
1871 -1870 99 0
1871 1870 -99 0
-1872 1871 101 0
-1872 -1871 -101 0
1872 -1871 101 0
1872 1871 -101 0
-1873 1872 103 0
-1873 -1872 -103 0
1873 -1872 103 0
1873 1872 -103 0
-1874 1873 104 0
-1874 -1873 -104 0
1874 -1873 104 0
1874 1873 -104 0
-1875 1874 105 0
-1875 -1874 -105 0
1875 -1874 105 0
1875 1874 -105 0
-1876 1875 107 0
-1876 -1875 -107 0
1876 -1875 107 0
1876 1875 -107 0
-1877 1876 136 0
-1877 -1876 -136 0
1877 -1876 136 0
1877 1876 -136 0
-1878 1877 161 0
-1878 -1877 -161 0
1878 -1877 161 0
1878 1877 -161 0
-1879 1878 164 0
-1879 -1878 -164 0
1879 -1878 164 0
1879 1878 -164 0
-1880 1879 166 0
-1880 -1879 -166 0
1880 -1879 166 0
1880 1879 -166 0
-1881 1880 167 0
-1881 -1880 -167 0
1881 -1880 167 0
1881 1880 -167 0
-1882 1881 168 0
-1882 -1881 -168 0
1882 -1881 168 0
1882 1881 -168 0
-1883 1882 174 0
-1883 -1882 -174 0
1883 -1882 174 0
1883 1882 -174 0
-1884 1883 175 0
-1884 -1883 -175 0
1884 -1883 175 0
1884 1883 -175 0
-1885 1884 176 0
-1885 -1884 -176 0
1885 -1884 176 0
1885 1884 -176 0
-1886 1885 177 0
-1886 -1885 -177 0
1886 -1885 177 0
1886 1885 -177 0
-1887 1886 178 0
-1887 -1886 -178 0
1887 -1886 178 0
1887 1886 -178 0
-1888 1887 179 0
-1888 -1887 -179 0
1888 -1887 179 0
1888 1887 -179 0
-1889 1888 182 0
-1889 -1888 -182 0
1889 -1888 182 0
1889 1888 -182 0
-1890 1889 183 0
-1890 -1889 -183 0
1890 -1889 183 0
1890 1889 -183 0
-1891 1890 186 0
-1891 -1890 -186 0
1891 -1890 186 0
1891 1890 -186 0
-1892 1891 187 0
-1892 -1891 -187 0
1892 -1891 187 0
1892 1891 -187 0
-1893 1892 188 0
-1893 -1892 -188 0
1893 -1892 188 0
1893 1892 -188 0
-1894 1893 190 0
-1894 -1893 -190 0
1894 -1893 190 0
1894 1893 -190 0
-1895 1894 191 0
-1895 -1894 -191 0
1895 -1894 191 0
1895 1894 -191 0
-1896 1895 192 0
-1896 -1895 -192 0
1896 -1895 192 0
1896 1895 -192 0
-1897 1896 194 0
-1897 -1896 -194 0
1897 -1896 194 0
1897 1896 -194 0
-1898 1897 195 0
-1898 -1897 -195 0
1898 -1897 195 0
1898 1897 -195 0
-1899 1898 196 0
-1899 -1898 -196 0
1899 -1898 196 0
1899 1898 -196 0
-1900 1899 197 0
-1900 -1899 -197 0
1900 -1899 197 0
1900 1899 -197 0
-1901 1900 200 0
-1901 -1900 -200 0
1901 -1900 200 0
1901 1900 -200 0
-1902 1901 203 0
-1902 -1901 -203 0
1902 -1901 203 0
1902 1901 -203 0
-1903 1902 205 0
-1903 -1902 -205 0
1903 -1902 205 0
1903 1902 -205 0
-1904 1903 208 0
-1904 -1903 -208 0
1904 -1903 208 0
1904 1903 -208 0
-1905 1904 209 0
-1905 -1904 -209 0
1905 -1904 209 0
1905 1904 -209 0
-1906 1905 211 0
-1906 -1905 -211 0
1906 -1905 211 0
1906 1905 -211 0
-1907 1906 212 0
-1907 -1906 -212 0
1907 -1906 212 0
1907 1906 -212 0
-1908 1907 214 0
-1908 -1907 -214 0
1908 -1907 214 0
1908 1907 -214 0
-1908 0
-1909 53 57 0
-1909 -53 -57 0
1909 -53 57 0
1909 53 -57 0
-1910 1909 61 0
-1910 -1909 -61 0
1910 -1909 61 0
1910 1909 -61 0
-1911 1910 63 0
-1911 -1910 -63 0
1911 -1910 63 0
1911 1910 -63 0
-1912 1911 64 0
-1912 -1911 -64 0
1912 -1911 64 0
1912 1911 -64 0
-1913 1912 66 0
-1913 -1912 -66 0
1913 -1912 66 0
1913 1912 -66 0
-1914 1913 68 0
-1914 -1913 -68 0
1914 -1913 68 0
1914 1913 -68 0
-1915 1914 69 0
-1915 -1914 -69 0
1915 -1914 69 0
1915 1914 -69 0
-1916 1915 72 0
-1916 -1915 -72 0
1916 -1915 72 0
1916 1915 -72 0
-1917 1916 74 0
-1917 -1916 -74 0
1917 -1916 74 0
1917 1916 -74 0
-1918 1917 75 0
-1918 -1917 -75 0
1918 -1917 75 0
1918 1917 -75 0
-1919 1918 76 0
-1919 -1918 -76 0
1919 -1918 76 0
1919 1918 -76 0
-1920 1919 77 0
-1920 -1919 -77 0
1920 -1919 77 0
1920 1919 -77 0
-1921 1920 78 0
-1921 -1920 -78 0
1921 -1920 78 0
1921 1920 -78 0
-1922 1921 80 0
-1922 -1921 -80 0
1922 -1921 80 0
1922 1921 -80 0
-1923 1922 82 0
-1923 -1922 -82 0
1923 -1922 82 0
1923 1922 -82 0
-1924 1923 84 0
-1924 -1923 -84 0
1924 -1923 84 0
1924 1923 -84 0
-1925 1924 87 0
-1925 -1924 -87 0
1925 -1924 87 0
1925 1924 -87 0
-1926 1925 88 0
-1926 -1925 -88 0
1926 -1925 88 0
1926 1925 -88 0
-1927 1926 96 0
-1927 -1926 -96 0
1927 -1926 96 0
1927 1926 -96 0
-1928 1927 97 0
-1928 -1927 -97 0
1928 -1927 97 0
1928 1927 -97 0
-1929 1928 99 0
-1929 -1928 -99 0
1929 -1928 99 0
1929 1928 -99 0
-1930 1929 100 0
-1930 -1929 -100 0
1930 -1929 100 0
1930 1929 -100 0
-1931 1930 108 0
-1931 -1930 -108 0
1931 -1930 108 0
1931 1930 -108 0
-1932 1931 137 0
-1932 -1931 -137 0
1932 -1931 137 0
1932 1931 -137 0
-1933 1932 162 0
-1933 -1932 -162 0
1933 -1932 162 0
1933 1932 -162 0
-1934 1933 163 0
-1934 -1933 -163 0
1934 -1933 163 0
1934 1933 -163 0
-1935 1934 165 0
-1935 -1934 -165 0
1935 -1934 165 0
1935 1934 -165 0
-1936 1935 167 0
-1936 -1935 -167 0
1936 -1935 167 0
1936 1935 -167 0
-1937 1936 168 0
-1937 -1936 -168 0
1937 -1936 168 0
1937 1936 -168 0
-1938 1937 169 0
-1938 -1937 -169 0
1938 -1937 169 0
1938 1937 -169 0
-1939 1938 176 0
-1939 -1938 -176 0
1939 -1938 176 0
1939 1938 -176 0
-1940 1939 177 0
-1940 -1939 -177 0
1940 -1939 177 0
1940 1939 -177 0
-1941 1940 178 0
-1941 -1940 -178 0
1941 -1940 178 0
1941 1940 -178 0
-1942 1941 179 0
-1942 -1941 -179 0
1942 -1941 179 0
1942 1941 -179 0
-1943 1942 180 0
-1943 -1942 -180 0
1943 -1942 180 0
1943 1942 -180 0
-1944 1943 181 0
-1944 -1943 -181 0
1944 -1943 181 0
1944 1943 -181 0
-1945 1944 183 0
-1945 -1944 -183 0
1945 -1944 183 0
1945 1944 -183 0
-1946 1945 184 0
-1946 -1945 -184 0
1946 -1945 184 0
1946 1945 -184 0
-1947 1946 187 0
-1947 -1946 -187 0
1947 -1946 187 0
1947 1946 -187 0
-1948 1947 188 0
-1948 -1947 -188 0
1948 -1947 188 0
1948 1947 -188 0
-1949 1948 189 0
-1949 -1948 -189 0
1949 -1948 189 0
1949 1948 -189 0
-1950 1949 191 0
-1950 -1949 -191 0
1950 -1949 191 0
1950 1949 -191 0
-1951 1950 192 0
-1951 -1950 -192 0
1951 -1950 192 0
1951 1950 -192 0
-1952 1951 195 0
-1952 -1951 -195 0
1952 -1951 195 0
1952 1951 -195 0
-1953 1952 196 0
-1953 -1952 -196 0
1953 -1952 196 0
1953 1952 -196 0
-1954 1953 197 0
-1954 -1953 -197 0
1954 -1953 197 0
1954 1953 -197 0
-1955 1954 198 0
-1955 -1954 -198 0
1955 -1954 198 0
1955 1954 -198 0
-1956 1955 201 0
-1956 -1955 -201 0
1956 -1955 201 0
1956 1955 -201 0
-1957 1956 204 0
-1957 -1956 -204 0
1957 -1956 204 0
1957 1956 -204 0
-1958 1957 206 0
-1958 -1957 -206 0
1958 -1957 206 0
1958 1957 -206 0
-1959 1958 209 0
-1959 -1958 -209 0
1959 -1958 209 0
1959 1958 -209 0
-1960 1959 210 0
-1960 -1959 -210 0
1960 -1959 210 0
1960 1959 -210 0
-1961 1960 212 0
-1961 -1960 -212 0
1961 -1960 212 0
1961 1960 -212 0
-1962 1961 213 0
-1962 -1961 -213 0
1962 -1961 213 0
1962 1961 -213 0
-1963 1962 215 0
-1963 -1962 -215 0
1963 -1962 215 0
1963 1962 -215 0
-1963 0
-1964 53 54 0
-1964 -53 -54 0
1964 -53 54 0
1964 53 -54 0
-1965 1964 59 0
-1965 -1964 -59 0
1965 -1964 59 0
1965 1964 -59 0
-1966 1965 61 0
-1966 -1965 -61 0
1966 -1965 61 0
1966 1965 -61 0
-1967 1966 62 0
-1967 -1966 -62 0
1967 -1966 62 0
1967 1966 -62 0
-1968 1967 63 0
-1968 -1967 -63 0
1968 -1967 63 0
1968 1967 -63 0
-1969 1968 64 0
-1969 -1968 -64 0
1969 -1968 64 0
1969 1968 -64 0
-1970 1969 68 0
-1970 -1969 -68 0
1970 -1969 68 0
1970 1969 -68 0
-1971 1970 69 0
-1971 -1970 -69 0
1971 -1970 69 0
1971 1970 -69 0
-1972 1971 70 0
-1972 -1971 -70 0
1972 -1971 70 0
1972 1971 -70 0
-1973 1972 71 0
-1973 -1972 -71 0
1973 -1972 71 0
1973 1972 -71 0
-1974 1973 72 0
-1974 -1973 -72 0
1974 -1973 72 0
1974 1973 -72 0
-1975 1974 73 0
-1975 -1974 -73 0
1975 -1974 73 0
1975 1974 -73 0
-1976 1975 74 0
-1976 -1975 -74 0
1976 -1975 74 0
1976 1975 -74 0
-1977 1976 75 0
-1977 -1976 -75 0
1977 -1976 75 0
1977 1976 -75 0
-1978 1977 76 0
-1978 -1977 -76 0
1978 -1977 76 0
1978 1977 -76 0
-1979 1978 78 0
-1979 -1978 -78 0
1979 -1978 78 0
1979 1978 -78 0
-1980 1979 79 0
-1980 -1979 -79 0
1980 -1979 79 0
1980 1979 -79 0
-1981 1980 81 0
-1981 -1980 -81 0
1981 -1980 81 0
1981 1980 -81 0
-1982 1981 82 0
-1982 -1981 -82 0
1982 -1981 82 0
1982 1981 -82 0
-1983 1982 84 0
-1983 -1982 -84 0
1983 -1982 84 0
1983 1982 -84 0
-1984 1983 85 0
-1984 -1983 -85 0
1984 -1983 85 0
1984 1983 -85 0
-1985 1984 86 0
-1985 -1984 -86 0
1985 -1984 86 0
1985 1984 -86 0
-1986 1985 91 0
-1986 -1985 -91 0
1986 -1985 91 0
1986 1985 -91 0
-1987 1986 94 0
-1987 -1986 -94 0
1987 -1986 94 0
1987 1986 -94 0
-1988 1987 95 0
-1988 -1987 -95 0
1988 -1987 95 0
1988 1987 -95 0
-1989 1988 96 0
-1989 -1988 -96 0
1989 -1988 96 0
1989 1988 -96 0
-1990 1989 99 0
-1990 -1989 -99 0
1990 -1989 99 0
1990 1989 -99 0
-1991 1990 100 0
-1991 -1990 -100 0
1991 -1990 100 0
1991 1990 -100 0
-1992 1991 102 0
-1992 -1991 -102 0
1992 -1991 102 0
1992 1991 -102 0
-1993 1992 103 0
-1993 -1992 -103 0
1993 -1992 103 0
1993 1992 -103 0
-1994 1993 104 0
-1994 -1993 -104 0
1994 -1993 104 0
1994 1993 -104 0
-1995 1994 107 0
-1995 -1994 -107 0
1995 -1994 107 0
1995 1994 -107 0
-1996 1995 108 0
-1996 -1995 -108 0
1996 -1995 108 0
1996 1995 -108 0
-1997 1996 138 0
-1997 -1996 -138 0
1997 -1996 138 0
1997 1996 -138 0
-1998 1997 161 0
-1998 -1997 -161 0
1998 -1997 161 0
1998 1997 -161 0
-1999 1998 162 0
-1999 -1998 -162 0
1999 -1998 162 0
1999 1998 -162 0
-2000 1999 164 0
-2000 -1999 -164 0
2000 -1999 164 0
2000 1999 -164 0
-2001 2000 165 0
-2001 -2000 -165 0
2001 -2000 165 0
2001 2000 -165 0
-2002 2001 166 0
-2002 -2001 -166 0
2002 -2001 166 0
2002 2001 -166 0
-2003 2002 167 0
-2003 -2002 -167 0
2003 -2002 167 0
2003 2002 -167 0
-2004 2003 168 0
-2004 -2003 -168 0
2004 -2003 168 0
2004 2003 -168 0
-2005 2004 169 0
-2005 -2004 -169 0
2005 -2004 169 0
2005 2004 -169 0
-2006 2005 172 0
-2006 -2005 -172 0
2006 -2005 172 0
2006 2005 -172 0
-2007 2006 173 0
-2007 -2006 -173 0
2007 -2006 173 0
2007 2006 -173 0
-2008 2007 178 0
-2008 -2007 -178 0
2008 -2007 178 0
2008 2007 -178 0
-2009 2008 180 0
-2009 -2008 -180 0
2009 -2008 180 0
2009 2008 -180 0
-2010 2009 181 0
-2010 -2009 -181 0
2010 -2009 181 0
2010 2009 -181 0
-2011 2010 184 0
-2011 -2010 -184 0
2011 -2010 184 0
2011 2010 -184 0
-2012 2011 185 0
-2012 -2011 -185 0
2012 -2011 185 0
2012 2011 -185 0
-2013 2012 186 0
-2013 -2012 -186 0
2013 -2012 186 0
2013 2012 -186 0
-2014 2013 189 0
-2014 -2013 -189 0
2014 -2013 189 0
2014 2013 -189 0
-2015 2014 190 0
-2015 -2014 -190 0
2015 -2014 190 0
2015 2014 -190 0
-2016 2015 196 0
-2016 -2015 -196 0
2016 -2015 196 0
2016 2015 -196 0
-2017 2016 199 0
-2017 -2016 -199 0
2017 -2016 199 0
2017 2016 -199 0
-2018 2017 200 0
-2018 -2017 -200 0
2018 -2017 200 0
2018 2017 -200 0
-2019 2018 202 0
-2019 -2018 -202 0
2019 -2018 202 0
2019 2018 -202 0
-2020 2019 203 0
-2020 -2019 -203 0
2020 -2019 203 0
2020 2019 -203 0
-2021 2020 205 0
-2021 -2020 -205 0
2021 -2020 205 0
2021 2020 -205 0
-2022 2021 213 0
-2022 -2021 -213 0
2022 -2021 213 0
2022 2021 -213 0
-2023 2022 214 0
-2023 -2022 -214 0
2023 -2022 214 0
2023 2022 -214 0
-2024 2023 216 0
-2024 -2023 -216 0
2024 -2023 216 0
2024 2023 -216 0
-2024 0
-2025 53 58 0
-2025 -53 -58 0
2025 -53 58 0
2025 53 -58 0
-2026 2025 59 0
-2026 -2025 -59 0
2026 -2025 59 0
2026 2025 -59 0
-2027 2026 61 0
-2027 -2026 -61 0
2027 -2026 61 0
2027 2026 -61 0
-2028 2027 68 0
-2028 -2027 -68 0
2028 -2027 68 0
2028 2027 -68 0
-2029 2028 73 0
-2029 -2028 -73 0
2029 -2028 73 0
2029 2028 -73 0
-2030 2029 79 0
-2030 -2029 -79 0
2030 -2029 79 0
2030 2029 -79 0
-2031 2030 80 0
-2031 -2030 -80 0
2031 -2030 80 0
2031 2030 -80 0
-2032 2031 82 0
-2032 -2031 -82 0
2032 -2031 82 0
2032 2031 -82 0
-2033 2032 83 0
-2033 -2032 -83 0
2033 -2032 83 0
2033 2032 -83 0
-2034 2033 84 0
-2034 -2033 -84 0
2034 -2033 84 0
2034 2033 -84 0
-2035 2034 85 0
-2035 -2034 -85 0
2035 -2034 85 0
2035 2034 -85 0
-2036 2035 87 0
-2036 -2035 -87 0
2036 -2035 87 0
2036 2035 -87 0
-2037 2036 89 0
-2037 -2036 -89 0
2037 -2036 89 0
2037 2036 -89 0
-2038 2037 90 0
-2038 -2037 -90 0
2038 -2037 90 0
2038 2037 -90 0
-2039 2038 92 0
-2039 -2038 -92 0
2039 -2038 92 0
2039 2038 -92 0
-2040 2039 93 0
-2040 -2039 -93 0
2040 -2039 93 0
2040 2039 -93 0
-2041 2040 97 0
-2041 -2040 -97 0
2041 -2040 97 0
2041 2040 -97 0
-2042 2041 98 0
-2042 -2041 -98 0
2042 -2041 98 0
2042 2041 -98 0
-2043 2042 100 0
-2043 -2042 -100 0
2043 -2042 100 0
2043 2042 -100 0
-2044 2043 101 0
-2044 -2043 -101 0
2044 -2043 101 0
2044 2043 -101 0
-2045 2044 102 0
-2045 -2044 -102 0
2045 -2044 102 0
2045 2044 -102 0
-2046 2045 103 0
-2046 -2045 -103 0
2046 -2045 103 0
2046 2045 -103 0
-2047 2046 104 0
-2047 -2046 -104 0
2047 -2046 104 0
2047 2046 -104 0
-2048 2047 106 0
-2048 -2047 -106 0
2048 -2047 106 0
2048 2047 -106 0
-2049 2048 107 0
-2049 -2048 -107 0
2049 -2048 107 0
2049 2048 -107 0
-2050 2049 139 0
-2050 -2049 -139 0
2050 -2049 139 0
2050 2049 -139 0
-2051 2050 161 0
-2051 -2050 -161 0
2051 -2050 161 0
2051 2050 -161 0
-2052 2051 162 0
-2052 -2051 -162 0
2052 -2051 162 0
2052 2051 -162 0
-2053 2052 167 0
-2053 -2052 -167 0
2053 -2052 167 0
2053 2052 -167 0
-2054 2053 169 0
-2054 -2053 -169 0
2054 -2053 169 0
2054 2053 -169 0
-2055 2054 171 0
-2055 -2054 -171 0
2055 -2054 171 0
2055 2054 -171 0
-2056 2055 172 0
-2056 -2055 -172 0
2056 -2055 172 0
2056 2055 -172 0
-2057 2056 175 0
-2057 -2056 -175 0
2057 -2056 175 0
2057 2056 -175 0
-2058 2057 177 0
-2058 -2057 -177 0
2058 -2057 177 0
2058 2057 -177 0
-2059 2058 180 0
-2059 -2058 -180 0
2059 -2058 180 0
2059 2058 -180 0
-2060 2059 181 0
-2060 -2059 -181 0
2060 -2059 181 0
2060 2059 -181 0
-2061 2060 182 0
-2061 -2060 -182 0
2061 -2060 182 0
2061 2060 -182 0
-2062 2061 183 0
-2062 -2061 -183 0
2062 -2061 183 0
2062 2061 -183 0
-2063 2062 184 0
-2063 -2062 -184 0
2063 -2062 184 0
2063 2062 -184 0
-2064 2063 188 0
-2064 -2063 -188 0
2064 -2063 188 0
2064 2063 -188 0
-2065 2064 190 0
-2065 -2064 -190 0
2065 -2064 190 0
2065 2064 -190 0
-2066 2065 194 0
-2066 -2065 -194 0
2066 -2065 194 0
2066 2065 -194 0
-2067 2066 195 0
-2067 -2066 -195 0
2067 -2066 195 0
2067 2066 -195 0
-2068 2067 199 0
-2068 -2067 -199 0
2068 -2067 199 0
2068 2067 -199 0
-2069 2068 200 0
-2069 -2068 -200 0
2069 -2068 200 0
2069 2068 -200 0
-2070 2069 202 0
-2070 -2069 -202 0
2070 -2069 202 0
2070 2069 -202 0
-2071 2070 203 0
-2071 -2070 -203 0
2071 -2070 203 0
2071 2070 -203 0
-2072 2071 204 0
-2072 -2071 -204 0
2072 -2071 204 0
2072 2071 -204 0
-2073 2072 205 0
-2073 -2072 -205 0
2073 -2072 205 0
2073 2072 -205 0
-2074 2073 206 0
-2074 -2073 -206 0
2074 -2073 206 0
2074 2073 -206 0
-2075 2074 208 0
-2075 -2074 -208 0
2075 -2074 208 0
2075 2074 -208 0
-2076 2075 209 0
-2076 -2075 -209 0
2076 -2075 209 0
2076 2075 -209 0
-2077 2076 211 0
-2077 -2076 -211 0
2077 -2076 211 0
2077 2076 -211 0
-2078 2077 212 0
-2078 -2077 -212 0
2078 -2077 212 0
2078 2077 -212 0
-2079 2078 213 0
-2079 -2078 -213 0
2079 -2078 213 0
2079 2078 -213 0
-2079 0
-2080 53 54 0
-2080 -53 -54 0
2080 -53 54 0
2080 53 -54 0
-2081 2080 58 0
-2081 -2080 -58 0
2081 -2080 58 0
2081 2080 -58 0
-2082 2081 60 0
-2082 -2081 -60 0
2082 -2081 60 0
2082 2081 -60 0
-2083 2082 62 0
-2083 -2082 -62 0
2083 -2082 62 0
2083 2082 -62 0
-2084 2083 63 0
-2084 -2083 -63 0
2084 -2083 63 0
2084 2083 -63 0
-2085 2084 65 0
-2085 -2084 -65 0
2085 -2084 65 0
2085 2084 -65 0
-2086 2085 67 0
-2086 -2085 -67 0
2086 -2085 67 0
2086 2085 -67 0
-2087 2086 68 0
-2087 -2086 -68 0
2087 -2086 68 0
2087 2086 -68 0
-2088 2087 69 0
-2088 -2087 -69 0
2088 -2087 69 0
2088 2087 -69 0
-2089 2088 71 0
-2089 -2088 -71 0
2089 -2088 71 0
2089 2088 -71 0
-2090 2089 72 0
-2090 -2089 -72 0
2090 -2089 72 0
2090 2089 -72 0
-2091 2090 77 0
-2091 -2090 -77 0
2091 -2090 77 0
2091 2090 -77 0
-2092 2091 79 0
-2092 -2091 -79 0
2092 -2091 79 0
2092 2091 -79 0
-2093 2092 80 0
-2093 -2092 -80 0
2093 -2092 80 0
2093 2092 -80 0
-2094 2093 81 0
-2094 -2093 -81 0
2094 -2093 81 0
2094 2093 -81 0
-2095 2094 82 0
-2095 -2094 -82 0
2095 -2094 82 0
2095 2094 -82 0
-2096 2095 89 0
-2096 -2095 -89 0
2096 -2095 89 0
2096 2095 -89 0
-2097 2096 90 0
-2097 -2096 -90 0
2097 -2096 90 0
2097 2096 -90 0
-2098 2097 93 0
-2098 -2097 -93 0
2098 -2097 93 0
2098 2097 -93 0
-2099 2098 95 0
-2099 -2098 -95 0
2099 -2098 95 0
2099 2098 -95 0
-2100 2099 96 0
-2100 -2099 -96 0
2100 -2099 96 0
2100 2099 -96 0
-2101 2100 97 0
-2101 -2100 -97 0
2101 -2100 97 0
2101 2100 -97 0
-2102 2101 105 0
-2102 -2101 -105 0
2102 -2101 105 0
2102 2101 -105 0
-2103 2102 140 0
-2103 -2102 -140 0
2103 -2102 140 0
2103 2102 -140 0
-2104 2103 161 0
-2104 -2103 -161 0
2104 -2103 161 0
2104 2103 -161 0
-2105 2104 163 0
-2105 -2104 -163 0
2105 -2104 163 0
2105 2104 -163 0
-2106 2105 165 0
-2106 -2105 -165 0
2106 -2105 165 0
2106 2105 -165 0
-2107 2106 167 0
-2107 -2106 -167 0
2107 -2106 167 0
2107 2106 -167 0
-2108 2107 168 0
-2108 -2107 -168 0
2108 -2107 168 0
2108 2107 -168 0
-2109 2108 169 0
-2109 -2108 -169 0
2109 -2108 169 0
2109 2108 -169 0
-2110 2109 176 0
-2110 -2109 -176 0
2110 -2109 176 0
2110 2109 -176 0
-2111 2110 177 0
-2111 -2110 -177 0
2111 -2110 177 0
2111 2110 -177 0
-2112 2111 178 0
-2112 -2111 -178 0
2112 -2111 178 0
2112 2111 -178 0
-2113 2112 179 0
-2113 -2112 -179 0
2113 -2112 179 0
2113 2112 -179 0
-2114 2113 181 0
-2114 -2113 -181 0
2114 -2113 181 0
2114 2113 -181 0
-2115 2114 183 0
-2115 -2114 -183 0
2115 -2114 183 0
2115 2114 -183 0
-2116 2115 184 0
-2116 -2115 -184 0
2116 -2115 184 0
2116 2115 -184 0
-2117 2116 185 0
-2117 -2116 -185 0
2117 -2116 185 0
2117 2116 -185 0
-2118 2117 186 0
-2118 -2117 -186 0
2118 -2117 186 0
2118 2117 -186 0
-2119 2118 187 0
-2119 -2118 -187 0
2119 -2118 187 0
2119 2118 -187 0
-2120 2119 188 0
-2120 -2119 -188 0
2120 -2119 188 0
2120 2119 -188 0
-2121 2120 189 0
-2121 -2120 -189 0
2121 -2120 189 0
2121 2120 -189 0
-2122 2121 191 0
-2122 -2121 -191 0
2122 -2121 191 0
2122 2121 -191 0
-2123 2122 192 0
-2123 -2122 -192 0
2123 -2122 192 0
2123 2122 -192 0
-2124 2123 193 0
-2124 -2123 -193 0
2124 -2123 193 0
2124 2123 -193 0
-2125 2124 195 0
-2125 -2124 -195 0
2125 -2124 195 0
2125 2124 -195 0
-2126 2125 196 0
-2126 -2125 -196 0
2126 -2125 196 0
2126 2125 -196 0
-2127 2126 197 0
-2127 -2126 -197 0
2127 -2126 197 0
2127 2126 -197 0
-2128 2127 198 0
-2128 -2127 -198 0
2128 -2127 198 0
2128 2127 -198 0
-2129 2128 199 0
-2129 -2128 -199 0
2129 -2128 199 0
2129 2128 -199 0
-2130 2129 201 0
-2130 -2129 -201 0
2130 -2129 201 0
2130 2129 -201 0
-2131 2130 204 0
-2131 -2130 -204 0
2131 -2130 204 0
2131 2130 -204 0
-2132 2131 206 0
-2132 -2131 -206 0
2132 -2131 206 0
2132 2131 -206 0
-2133 2132 209 0
-2133 -2132 -209 0
2133 -2132 209 0
2133 2132 -209 0
-2134 2133 212 0
-2134 -2133 -212 0
2134 -2133 212 0
2134 2133 -212 0
-2135 2134 213 0
-2135 -2134 -213 0
2135 -2134 213 0
2135 2134 -213 0
-2136 2135 214 0
-2136 -2135 -214 0
2136 -2135 214 0
2136 2135 -214 0
-2136 0
-2137 53 57 0
-2137 -53 -57 0
2137 -53 57 0
2137 53 -57 0
-2138 2137 58 0
-2138 -2137 -58 0
2138 -2137 58 0
2138 2137 -58 0
-2139 2138 59 0
-2139 -2138 -59 0
2139 -2138 59 0
2139 2138 -59 0
-2140 2139 60 0
-2140 -2139 -60 0
2140 -2139 60 0
2140 2139 -60 0
-2141 2140 64 0
-2141 -2140 -64 0
2141 -2140 64 0
2141 2140 -64 0
-2142 2141 67 0
-2142 -2141 -67 0
2142 -2141 67 0
2142 2141 -67 0
-2143 2142 68 0
-2143 -2142 -68 0
2143 -2142 68 0
2143 2142 -68 0
-2144 2143 71 0
-2144 -2143 -71 0
2144 -2143 71 0
2144 2143 -71 0
-2145 2144 72 0
-2145 -2144 -72 0
2145 -2144 72 0
2145 2144 -72 0
-2146 2145 73 0
-2146 -2145 -73 0
2146 -2145 73 0
2146 2145 -73 0
-2147 2146 74 0
-2147 -2146 -74 0
2147 -2146 74 0
2147 2146 -74 0
-2148 2147 76 0
-2148 -2147 -76 0
2148 -2147 76 0
2148 2147 -76 0
-2149 2148 77 0
-2149 -2148 -77 0
2149 -2148 77 0
2149 2148 -77 0
-2150 2149 78 0
-2150 -2149 -78 0
2150 -2149 78 0
2150 2149 -78 0
-2151 2150 82 0
-2151 -2150 -82 0
2151 -2150 82 0
2151 2150 -82 0
-2152 2151 84 0
-2152 -2151 -84 0
2152 -2151 84 0
2152 2151 -84 0
-2153 2152 87 0
-2153 -2152 -87 0
2153 -2152 87 0
2153 2152 -87 0
-2154 2153 88 0
-2154 -2153 -88 0
2154 -2153 88 0
2154 2153 -88 0
-2155 2154 91 0
-2155 -2154 -91 0
2155 -2154 91 0
2155 2154 -91 0
-2156 2155 93 0
-2156 -2155 -93 0
2156 -2155 93 0
2156 2155 -93 0
-2157 2156 94 0
-2157 -2156 -94 0
2157 -2156 94 0
2157 2156 -94 0
-2158 2157 97 0
-2158 -2157 -97 0
2158 -2157 97 0
2158 2157 -97 0
-2159 2158 102 0
-2159 -2158 -102 0
2159 -2158 102 0
2159 2158 -102 0
-2160 2159 104 0
-2160 -2159 -104 0
2160 -2159 104 0
2160 2159 -104 0
-2161 2160 105 0
-2161 -2160 -105 0
2161 -2160 105 0
2161 2160 -105 0
-2162 2161 141 0
-2162 -2161 -141 0
2162 -2161 141 0
2162 2161 -141 0
-2163 2162 162 0
-2163 -2162 -162 0
2163 -2162 162 0
2163 2162 -162 0
-2164 2163 163 0
-2164 -2163 -163 0
2164 -2163 163 0
2164 2163 -163 0
-2165 2164 164 0
-2165 -2164 -164 0
2165 -2164 164 0
2165 2164 -164 0
-2166 2165 166 0
-2166 -2165 -166 0
2166 -2165 166 0
2166 2165 -166 0
-2167 2166 168 0
-2167 -2166 -168 0
2167 -2166 168 0
2167 2166 -168 0
-2168 2167 170 0
-2168 -2167 -170 0
2168 -2167 170 0
2168 2167 -170 0
-2169 2168 177 0
-2169 -2168 -177 0
2169 -2168 177 0
2169 2168 -177 0
-2170 2169 178 0
-2170 -2169 -178 0
2170 -2169 178 0
2170 2169 -178 0
-2171 2170 179 0
-2171 -2170 -179 0
2171 -2170 179 0
2171 2170 -179 0
-2172 2171 180 0
-2172 -2171 -180 0
2172 -2171 180 0
2172 2171 -180 0
-2173 2172 181 0
-2173 -2172 -181 0
2173 -2172 181 0
2173 2172 -181 0
-2174 2173 182 0
-2174 -2173 -182 0
2174 -2173 182 0
2174 2173 -182 0
-2175 2174 184 0
-2175 -2174 -184 0
2175 -2174 184 0
2175 2174 -184 0
-2176 2175 185 0
-2176 -2175 -185 0
2176 -2175 185 0
2176 2175 -185 0
-2177 2176 186 0
-2177 -2176 -186 0
2177 -2176 186 0
2177 2176 -186 0
-2178 2177 187 0
-2178 -2177 -187 0
2178 -2177 187 0
2178 2177 -187 0
-2179 2178 188 0
-2179 -2178 -188 0
2179 -2178 188 0
2179 2178 -188 0
-2180 2179 189 0
-2180 -2179 -189 0
2180 -2179 189 0
2180 2179 -189 0
-2181 2180 190 0
-2181 -2180 -190 0
2181 -2180 190 0
2181 2180 -190 0
-2182 2181 192 0
-2182 -2181 -192 0
2182 -2181 192 0
2182 2181 -192 0
-2183 2182 193 0
-2183 -2182 -193 0
2183 -2182 193 0
2183 2182 -193 0
-2184 2183 194 0
-2184 -2183 -194 0
2184 -2183 194 0
2184 2183 -194 0
-2185 2184 196 0
-2185 -2184 -196 0
2185 -2184 196 0
2185 2184 -196 0
-2186 2185 197 0
-2186 -2185 -197 0
2186 -2185 197 0
2186 2185 -197 0
-2187 2186 198 0
-2187 -2186 -198 0
2187 -2186 198 0
2187 2186 -198 0
-2188 2187 199 0
-2188 -2187 -199 0
2188 -2187 199 0
2188 2187 -199 0
-2189 2188 200 0
-2189 -2188 -200 0
2189 -2188 200 0
2189 2188 -200 0
-2190 2189 202 0
-2190 -2189 -202 0
2190 -2189 202 0
2190 2189 -202 0
-2191 2190 207 0
-2191 -2190 -207 0
2191 -2190 207 0
2191 2190 -207 0
-2192 2191 210 0
-2192 -2191 -210 0
2192 -2191 210 0
2192 2191 -210 0
-2193 2192 213 0
-2193 -2192 -213 0
2193 -2192 213 0
2193 2192 -213 0
-2194 2193 214 0
-2194 -2193 -214 0
2194 -2193 214 0
2194 2193 -214 0
-2195 2194 215 0
-2195 -2194 -215 0
2195 -2194 215 0
2195 2194 -215 0
-2195 0
-2196 53 54 0
-2196 -53 -54 0
2196 -53 54 0
2196 53 -54 0
-2197 2196 57 0
-2197 -2196 -57 0
2197 -2196 57 0
2197 2196 -57 0
-2198 2197 58 0
-2198 -2197 -58 0
2198 -2197 58 0
2198 2197 -58 0
-2199 2198 61 0
-2199 -2198 -61 0
2199 -2198 61 0
2199 2198 -61 0
-2200 2199 62 0
-2200 -2199 -62 0
2200 -2199 62 0
2200 2199 -62 0
-2201 2200 63 0
-2201 -2200 -63 0
2201 -2200 63 0
2201 2200 -63 0
-2202 2201 64 0
-2202 -2201 -64 0
2202 -2201 64 0
2202 2201 -64 0
-2203 2202 65 0
-2203 -2202 -65 0
2203 -2202 65 0
2203 2202 -65 0
-2204 2203 68 0
-2204 -2203 -68 0
2204 -2203 68 0
2204 2203 -68 0
-2205 2204 72 0
-2205 -2204 -72 0
2205 -2204 72 0
2205 2204 -72 0
-2206 2205 76 0
-2206 -2205 -76 0
2206 -2205 76 0
2206 2205 -76 0
-2207 2206 80 0
-2207 -2206 -80 0
2207 -2206 80 0
2207 2206 -80 0
-2208 2207 83 0
-2208 -2207 -83 0
2208 -2207 83 0
2208 2207 -83 0
-2209 2208 84 0
-2209 -2208 -84 0
2209 -2208 84 0
2209 2208 -84 0
-2210 2209 85 0
-2210 -2209 -85 0
2210 -2209 85 0
2210 2209 -85 0
-2211 2210 87 0
-2211 -2210 -87 0
2211 -2210 87 0
2211 2210 -87 0
-2212 2211 89 0
-2212 -2211 -89 0
2212 -2211 89 0
2212 2211 -89 0
-2213 2212 90 0
-2213 -2212 -90 0
2213 -2212 90 0
2213 2212 -90 0
-2214 2213 91 0
-2214 -2213 -91 0
2214 -2213 91 0
2214 2213 -91 0
-2215 2214 92 0
-2215 -2214 -92 0
2215 -2214 92 0
2215 2214 -92 0
-2216 2215 93 0
-2216 -2215 -93 0
2216 -2215 93 0
2216 2215 -93 0
-2217 2216 94 0
-2217 -2216 -94 0
2217 -2216 94 0
2217 2216 -94 0
-2218 2217 98 0
-2218 -2217 -98 0
2218 -2217 98 0
2218 2217 -98 0
-2219 2218 99 0
-2219 -2218 -99 0
2219 -2218 99 0
2219 2218 -99 0
-2220 2219 100 0
-2220 -2219 -100 0
2220 -2219 100 0
2220 2219 -100 0
-2221 2220 102 0
-2221 -2220 -102 0
2221 -2220 102 0
2221 2220 -102 0
-2222 2221 106 0
-2222 -2221 -106 0
2222 -2221 106 0
2222 2221 -106 0
-2223 2222 142 0
-2223 -2222 -142 0
2223 -2222 142 0
2223 2222 -142 0
-2224 2223 161 0
-2224 -2223 -161 0
2224 -2223 161 0
2224 2223 -161 0
-2225 2224 162 0
-2225 -2224 -162 0
2225 -2224 162 0
2225 2224 -162 0
-2226 2225 164 0
-2226 -2225 -164 0
2226 -2225 164 0
2226 2225 -164 0
-2227 2226 169 0
-2227 -2226 -169 0
2227 -2226 169 0
2227 2226 -169 0
-2228 2227 170 0
-2228 -2227 -170 0
2228 -2227 170 0
2228 2227 -170 0
-2229 2228 171 0
-2229 -2228 -171 0
2229 -2228 171 0
2229 2228 -171 0
-2230 2229 172 0
-2230 -2229 -172 0
2230 -2229 172 0
2230 2229 -172 0
-2231 2230 173 0
-2231 -2230 -173 0
2231 -2230 173 0
2231 2230 -173 0
-2232 2231 177 0
-2232 -2231 -177 0
2232 -2231 177 0
2232 2231 -177 0
-2233 2232 178 0
-2233 -2232 -178 0
2233 -2232 178 0
2233 2232 -178 0
-2234 2233 180 0
-2234 -2233 -180 0
2234 -2233 180 0
2234 2233 -180 0
-2235 2234 183 0
-2235 -2234 -183 0
2235 -2234 183 0
2235 2234 -183 0
-2236 2235 185 0
-2236 -2235 -185 0
2236 -2235 185 0
2236 2235 -185 0
-2237 2236 189 0
-2237 -2236 -189 0
2237 -2236 189 0
2237 2236 -189 0
-2238 2237 190 0
-2238 -2237 -190 0
2238 -2237 190 0
2238 2237 -190 0
-2239 2238 191 0
-2239 -2238 -191 0
2239 -2238 191 0
2239 2238 -191 0
-2240 2239 192 0
-2240 -2239 -192 0
2240 -2239 192 0
2240 2239 -192 0
-2241 2240 194 0
-2241 -2240 -194 0
2241 -2240 194 0
2241 2240 -194 0
-2242 2241 195 0
-2242 -2241 -195 0
2242 -2241 195 0
2242 2241 -195 0
-2243 2242 201 0
-2243 -2242 -201 0
2243 -2242 201 0
2243 2242 -201 0
-2244 2243 205 0
-2244 -2243 -205 0
2244 -2243 205 0
2244 2243 -205 0
-2245 2244 207 0
-2245 -2244 -207 0
2245 -2244 207 0
2245 2244 -207 0
-2246 2245 208 0
-2246 -2245 -208 0
2246 -2245 208 0
2246 2245 -208 0
-2247 2246 210 0
-2247 -2246 -210 0
2247 -2246 210 0
2247 2246 -210 0
-2248 2247 214 0
-2248 -2247 -214 0
2248 -2247 214 0
2248 2247 -214 0
-2249 2248 215 0
-2249 -2248 -215 0
2249 -2248 215 0
2249 2248 -215 0
-2250 2249 216 0
-2250 -2249 -216 0
2250 -2249 216 0
2250 2249 -216 0
-2250 0
-2251 61 63 0
-2251 -61 -63 0
2251 -61 63 0
2251 61 -63 0
-2252 2251 65 0
-2252 -2251 -65 0
2252 -2251 65 0
2252 2251 -65 0
-2253 2252 69 0
-2253 -2252 -69 0
2253 -2252 69 0
2253 2252 -69 0
-2254 2253 70 0
-2254 -2253 -70 0
2254 -2253 70 0
2254 2253 -70 0
-2255 2254 71 0
-2255 -2254 -71 0
2255 -2254 71 0
2255 2254 -71 0
-2256 2255 75 0
-2256 -2255 -75 0
2256 -2255 75 0
2256 2255 -75 0
-2257 2256 77 0
-2257 -2256 -77 0
2257 -2256 77 0
2257 2256 -77 0
-2258 2257 78 0
-2258 -2257 -78 0
2258 -2257 78 0
2258 2257 -78 0
-2259 2258 83 0
-2259 -2258 -83 0
2259 -2258 83 0
2259 2258 -83 0
-2260 2259 84 0
-2260 -2259 -84 0
2260 -2259 84 0
2260 2259 -84 0
-2261 2260 85 0
-2261 -2260 -85 0
2261 -2260 85 0
2261 2260 -85 0
-2262 2261 86 0
-2262 -2261 -86 0
2262 -2261 86 0
2262 2261 -86 0
-2263 2262 88 0
-2263 -2262 -88 0
2263 -2262 88 0
2263 2262 -88 0
-2264 2263 90 0
-2264 -2263 -90 0
2264 -2263 90 0
2264 2263 -90 0
-2265 2264 91 0
-2265 -2264 -91 0
2265 -2264 91 0
2265 2264 -91 0
-2266 2265 92 0
-2266 -2265 -92 0
2266 -2265 92 0
2266 2265 -92 0
-2267 2266 93 0
-2267 -2266 -93 0
2267 -2266 93 0
2267 2266 -93 0
-2268 2267 94 0
-2268 -2267 -94 0
2268 -2267 94 0
2268 2267 -94 0
-2269 2268 96 0
-2269 -2268 -96 0
2269 -2268 96 0
2269 2268 -96 0
-2270 2269 97 0
-2270 -2269 -97 0
2270 -2269 97 0
2270 2269 -97 0
-2271 2270 98 0
-2271 -2270 -98 0
2271 -2270 98 0
2271 2270 -98 0
-2272 2271 101 0
-2272 -2271 -101 0
2272 -2271 101 0
2272 2271 -101 0
-2273 2272 104 0
-2273 -2272 -104 0
2273 -2272 104 0
2273 2272 -104 0
-2274 2273 106 0
-2274 -2273 -106 0
2274 -2273 106 0
2274 2273 -106 0
-2275 2274 107 0
-2275 -2274 -107 0
2275 -2274 107 0
2275 2274 -107 0
-2276 2275 143 0
-2276 -2275 -143 0
2276 -2275 143 0
2276 2275 -143 0
-2277 2276 161 0
-2277 -2276 -161 0
2277 -2276 161 0
2277 2276 -161 0
-2278 2277 163 0
-2278 -2277 -163 0
2278 -2277 163 0
2278 2277 -163 0
-2279 2278 167 0
-2279 -2278 -167 0
2279 -2278 167 0
2279 2278 -167 0
-2280 2279 169 0
-2280 -2279 -169 0
2280 -2279 169 0
2280 2279 -169 0
-2281 2280 171 0
-2281 -2280 -171 0
2281 -2280 171 0
2281 2280 -171 0
-2282 2281 174 0
-2282 -2281 -174 0
2282 -2281 174 0
2282 2281 -174 0
-2283 2282 177 0
-2283 -2282 -177 0
2283 -2282 177 0
2283 2282 -177 0
-2284 2283 178 0
-2284 -2283 -178 0
2284 -2283 178 0
2284 2283 -178 0
-2285 2284 181 0
-2285 -2284 -181 0
2285 -2284 181 0
2285 2284 -181 0
-2286 2285 182 0
-2286 -2285 -182 0
2286 -2285 182 0
2286 2285 -182 0
-2287 2286 184 0
-2287 -2286 -184 0
2287 -2286 184 0
2287 2286 -184 0
-2288 2287 188 0
-2288 -2287 -188 0
2288 -2287 188 0
2288 2287 -188 0
-2289 2288 190 0
-2289 -2288 -190 0
2289 -2288 190 0
2289 2288 -190 0
-2290 2289 191 0
-2290 -2289 -191 0
2290 -2289 191 0
2290 2289 -191 0
-2291 2290 193 0
-2291 -2290 -193 0
2291 -2290 193 0
2291 2290 -193 0
-2292 2291 195 0
-2292 -2291 -195 0
2292 -2291 195 0
2292 2291 -195 0
-2293 2292 196 0
-2293 -2292 -196 0
2293 -2292 196 0
2293 2292 -196 0
-2294 2293 197 0
-2294 -2293 -197 0
2294 -2293 197 0
2294 2293 -197 0
-2295 2294 198 0
-2295 -2294 -198 0
2295 -2294 198 0
2295 2294 -198 0
-2296 2295 200 0
-2296 -2295 -200 0
2296 -2295 200 0
2296 2295 -200 0
-2297 2296 202 0
-2297 -2296 -202 0
2297 -2296 202 0
2297 2296 -202 0
-2298 2297 203 0
-2298 -2297 -203 0
2298 -2297 203 0
2298 2297 -203 0
-2299 2298 205 0
-2299 -2298 -205 0
2299 -2298 205 0
2299 2298 -205 0
-2300 2299 206 0
-2300 -2299 -206 0
2300 -2299 206 0
2300 2299 -206 0
-2301 2300 207 0
-2301 -2300 -207 0
2301 -2300 207 0
2301 2300 -207 0
-2302 2301 208 0
-2302 -2301 -208 0
2302 -2301 208 0
2302 2301 -208 0
-2303 2302 209 0
-2303 -2302 -209 0
2303 -2302 209 0
2303 2302 -209 0
-2304 2303 210 0
-2304 -2303 -210 0
2304 -2303 210 0
2304 2303 -210 0
-2305 2304 211 0
-2305 -2304 -211 0
2305 -2304 211 0
2305 2304 -211 0
-2306 2305 215 0
-2306 -2305 -215 0
2306 -2305 215 0
2306 2305 -215 0
-2307 2306 216 0
-2307 -2306 -216 0
2307 -2306 216 0
2307 2306 -216 0
-2307 0
-2308 62 64 0
-2308 -62 -64 0
2308 -62 64 0
2308 62 -64 0
-2309 2308 66 0
-2309 -2308 -66 0
2309 -2308 66 0
2309 2308 -66 0
-2310 2309 70 0
-2310 -2309 -70 0
2310 -2309 70 0
2310 2309 -70 0
-2311 2310 71 0
-2311 -2310 -71 0
2311 -2310 71 0
2311 2310 -71 0
-2312 2311 72 0
-2312 -2311 -72 0
2312 -2311 72 0
2312 2311 -72 0
-2313 2312 73 0
-2313 -2312 -73 0
2313 -2312 73 0
2313 2312 -73 0
-2314 2313 76 0
-2314 -2313 -76 0
2314 -2313 76 0
2314 2313 -76 0
-2315 2314 78 0
-2315 -2314 -78 0
2315 -2314 78 0
2315 2314 -78 0
-2316 2315 79 0
-2316 -2315 -79 0
2316 -2315 79 0
2316 2315 -79 0
-2317 2316 84 0
-2317 -2316 -84 0
2317 -2316 84 0
2317 2316 -84 0
-2318 2317 85 0
-2318 -2317 -85 0
2318 -2317 85 0
2318 2317 -85 0
-2319 2318 86 0
-2319 -2318 -86 0
2319 -2318 86 0
2319 2318 -86 0
-2320 2319 87 0
-2320 -2319 -87 0
2320 -2319 87 0
2320 2319 -87 0
-2321 2320 89 0
-2321 -2320 -89 0
2321 -2320 89 0
2321 2320 -89 0
-2322 2321 91 0
-2322 -2321 -91 0
2322 -2321 91 0
2322 2321 -91 0
-2323 2322 92 0
-2323 -2322 -92 0
2323 -2322 92 0
2323 2322 -92 0
-2324 2323 93 0
-2324 -2323 -93 0
2324 -2323 93 0
2324 2323 -93 0
-2325 2324 94 0
-2325 -2324 -94 0
2325 -2324 94 0
2325 2324 -94 0
-2326 2325 95 0
-2326 -2325 -95 0
2326 -2325 95 0
2326 2325 -95 0
-2327 2326 98 0
-2327 -2326 -98 0
2327 -2326 98 0
2327 2326 -98 0
-2328 2327 99 0
-2328 -2327 -99 0
2328 -2327 99 0
2328 2327 -99 0
-2329 2328 102 0
-2329 -2328 -102 0
2329 -2328 102 0
2329 2328 -102 0
-2330 2329 105 0
-2330 -2329 -105 0
2330 -2329 105 0
2330 2329 -105 0
-2331 2330 107 0
-2331 -2330 -107 0
2331 -2330 107 0
2331 2330 -107 0
-2332 2331 108 0
-2332 -2331 -108 0
2332 -2331 108 0
2332 2331 -108 0
-2333 2332 144 0
-2333 -2332 -144 0
2333 -2332 144 0
2333 2332 -144 0
-2334 2333 162 0
-2334 -2333 -162 0
2334 -2333 162 0
2334 2333 -162 0
-2335 2334 164 0
-2335 -2334 -164 0
2335 -2334 164 0
2335 2334 -164 0
-2336 2335 168 0
-2336 -2335 -168 0
2336 -2335 168 0
2336 2335 -168 0
-2337 2336 169 0
-2337 -2336 -169 0
2337 -2336 169 0
2337 2336 -169 0
-2338 2337 170 0
-2338 -2337 -170 0
2338 -2337 170 0
2338 2337 -170 0
-2339 2338 172 0
-2339 -2338 -172 0
2339 -2338 172 0
2339 2338 -172 0
-2340 2339 178 0
-2340 -2339 -178 0
2340 -2339 178 0
2340 2339 -178 0
-2341 2340 179 0
-2341 -2340 -179 0
2341 -2340 179 0
2341 2340 -179 0
-2342 2341 182 0
-2342 -2341 -182 0
2342 -2341 182 0
2342 2341 -182 0
-2343 2342 183 0
-2343 -2342 -183 0
2343 -2342 183 0
2343 2342 -183 0
-2344 2343 185 0
-2344 -2343 -185 0
2344 -2343 185 0
2344 2343 -185 0
-2345 2344 189 0
-2345 -2344 -189 0
2345 -2344 189 0
2345 2344 -189 0
-2346 2345 191 0
-2346 -2345 -191 0
2346 -2345 191 0
2346 2345 -191 0
-2347 2346 192 0
-2347 -2346 -192 0
2347 -2346 192 0
2347 2346 -192 0
-2348 2347 193 0
-2348 -2347 -193 0
2348 -2347 193 0
2348 2347 -193 0
-2349 2348 194 0
-2349 -2348 -194 0
2349 -2348 194 0
2349 2348 -194 0
-2350 2349 196 0
-2350 -2349 -196 0
2350 -2349 196 0
2350 2349 -196 0
-2351 2350 197 0
-2351 -2350 -197 0
2351 -2350 197 0
2351 2350 -197 0
-2352 2351 198 0
-2352 -2351 -198 0
2352 -2351 198 0
2352 2351 -198 0
-2353 2352 201 0
-2353 -2352 -201 0
2353 -2352 201 0
2353 2352 -201 0
-2354 2353 203 0
-2354 -2353 -203 0
2354 -2353 203 0
2354 2353 -203 0
-2355 2354 204 0
-2355 -2354 -204 0
2355 -2354 204 0
2355 2354 -204 0
-2356 2355 205 0
-2356 -2355 -205 0
2356 -2355 205 0
2356 2355 -205 0
-2357 2356 206 0
-2357 -2356 -206 0
2357 -2356 206 0
2357 2356 -206 0
-2358 2357 207 0
-2358 -2357 -207 0
2358 -2357 207 0
2358 2357 -207 0
-2359 2358 208 0
-2359 -2358 -208 0
2359 -2358 208 0
2359 2358 -208 0
-2360 2359 209 0
-2360 -2359 -209 0
2360 -2359 209 0
2360 2359 -209 0
-2361 2360 210 0
-2361 -2360 -210 0
2361 -2360 210 0
2361 2360 -210 0
-2362 2361 211 0
-2362 -2361 -211 0
2362 -2361 211 0
2362 2361 -211 0
-2363 2362 212 0
-2363 -2362 -212 0
2363 -2362 212 0
2363 2362 -212 0
-2364 2363 216 0
-2364 -2363 -216 0
2364 -2363 216 0
2364 2363 -216 0
-2364 0
-2365 53 58 0
-2365 -53 -58 0
2365 -53 58 0
2365 53 -58 0
-2366 2365 59 0
-2366 -2365 -59 0
2366 -2365 59 0
2366 2365 -59 0
-2367 2366 60 0
-2367 -2366 -60 0
2367 -2366 60 0
2367 2366 -60 0
-2368 2367 61 0
-2368 -2367 -61 0
2368 -2367 61 0
2368 2367 -61 0
-2369 2368 63 0
-2369 -2368 -63 0
2369 -2368 63 0
2369 2368 -63 0
-2370 2369 64 0
-2370 -2369 -64 0
2370 -2369 64 0
2370 2369 -64 0
-2371 2370 65 0
-2371 -2370 -65 0
2371 -2370 65 0
2371 2370 -65 0
-2372 2371 69 0
-2372 -2371 -69 0
2372 -2371 69 0
2372 2371 -69 0
-2373 2372 70 0
-2373 -2372 -70 0
2373 -2372 70 0
2373 2372 -70 0
-2374 2373 71 0
-2374 -2373 -71 0
2374 -2373 71 0
2374 2373 -71 0
-2375 2374 73 0
-2375 -2374 -73 0
2375 -2374 73 0
2375 2374 -73 0
-2376 2375 74 0
-2376 -2375 -74 0
2376 -2375 74 0
2376 2375 -74 0
-2377 2376 80 0
-2377 -2376 -80 0
2377 -2376 80 0
2377 2376 -80 0
-2378 2377 84 0
-2378 -2377 -84 0
2378 -2377 84 0
2378 2377 -84 0
-2379 2378 86 0
-2379 -2378 -86 0
2379 -2378 86 0
2379 2378 -86 0
-2380 2379 88 0
-2380 -2379 -88 0
2380 -2379 88 0
2380 2379 -88 0
-2381 2380 89 0
-2381 -2380 -89 0
2381 -2380 89 0
2381 2380 -89 0
-2382 2381 96 0
-2382 -2381 -96 0
2382 -2381 96 0
2382 2381 -96 0
-2383 2382 97 0
-2383 -2382 -97 0
2383 -2382 97 0
2383 2382 -97 0
-2384 2383 102 0
-2384 -2383 -102 0
2384 -2383 102 0
2384 2383 -102 0
-2385 2384 103 0
-2385 -2384 -103 0
2385 -2384 103 0
2385 2384 -103 0
-2386 2385 104 0
-2386 -2385 -104 0
2386 -2385 104 0
2386 2385 -104 0
-2387 2386 106 0
-2387 -2386 -106 0
2387 -2386 106 0
2387 2386 -106 0
-2388 2387 107 0
-2388 -2387 -107 0
2388 -2387 107 0
2388 2387 -107 0
-2389 2388 108 0
-2389 -2388 -108 0
2389 -2388 108 0
2389 2388 -108 0
-2390 2389 145 0
-2390 -2389 -145 0
2390 -2389 145 0
2390 2389 -145 0
-2391 2390 162 0
-2391 -2390 -162 0
2391 -2390 162 0
2391 2390 -162 0
-2392 2391 163 0
-2392 -2391 -163 0
2392 -2391 163 0
2392 2391 -163 0
-2393 2392 166 0
-2393 -2392 -166 0
2393 -2392 166 0
2393 2392 -166 0
-2394 2393 169 0
-2394 -2393 -169 0
2394 -2393 169 0
2394 2393 -169 0
-2395 2394 171 0
-2395 -2394 -171 0
2395 -2394 171 0
2395 2394 -171 0
-2396 2395 174 0
-2396 -2395 -174 0
2396 -2395 174 0
2396 2395 -174 0
-2397 2396 177 0
-2397 -2396 -177 0
2397 -2396 177 0
2397 2396 -177 0
-2398 2397 178 0
-2398 -2397 -178 0
2398 -2397 178 0
2398 2397 -178 0
-2399 2398 181 0
-2399 -2398 -181 0
2399 -2398 181 0
2399 2398 -181 0
-2400 2399 182 0
-2400 -2399 -182 0
2400 -2399 182 0
2400 2399 -182 0
-2401 2400 184 0
-2401 -2400 -184 0
2401 -2400 184 0
2401 2400 -184 0
-2402 2401 185 0
-2402 -2401 -185 0
2402 -2401 185 0
2402 2401 -185 0
-2403 2402 188 0
-2403 -2402 -188 0
2403 -2402 188 0
2403 2402 -188 0
-2404 2403 193 0
-2404 -2403 -193 0
2404 -2403 193 0
2404 2403 -193 0
-2405 2404 195 0
-2405 -2404 -195 0
2405 -2404 195 0
2405 2404 -195 0
-2406 2405 196 0
-2406 -2405 -196 0
2406 -2405 196 0
2406 2405 -196 0
-2407 2406 197 0
-2407 -2406 -197 0
2407 -2406 197 0
2407 2406 -197 0
-2408 2407 198 0
-2408 -2407 -198 0
2408 -2407 198 0
2408 2407 -198 0
-2409 2408 200 0
-2409 -2408 -200 0
2409 -2408 200 0
2409 2408 -200 0
-2410 2409 202 0
-2410 -2409 -202 0
2410 -2409 202 0
2410 2409 -202 0
-2411 2410 203 0
-2411 -2410 -203 0
2411 -2410 203 0
2411 2410 -203 0
-2412 2411 204 0
-2412 -2411 -204 0
2412 -2411 204 0
2412 2411 -204 0
-2413 2412 205 0
-2413 -2412 -205 0
2413 -2412 205 0
2413 2412 -205 0
-2414 2413 206 0
-2414 -2413 -206 0
2414 -2413 206 0
2414 2413 -206 0
-2415 2414 207 0
-2415 -2414 -207 0
2415 -2414 207 0
2415 2414 -207 0
-2416 2415 208 0
-2416 -2415 -208 0
2416 -2415 208 0
2416 2415 -208 0
-2417 2416 209 0
-2417 -2416 -209 0
2417 -2416 209 0
2417 2416 -209 0
-2418 2417 211 0
-2418 -2417 -211 0
2418 -2417 211 0
2418 2417 -211 0
-2419 2418 214 0
-2419 -2418 -214 0
2419 -2418 214 0
2419 2418 -214 0
-2420 2419 215 0
-2420 -2419 -215 0
2420 -2419 215 0
2420 2419 -215 0
-2421 2420 216 0
-2421 -2420 -216 0
2421 -2420 216 0
2421 2420 -216 0
-2421 0
-2422 53 54 0
-2422 -53 -54 0
2422 -53 54 0
2422 53 -54 0
-2423 2422 57 0
-2423 -2422 -57 0
2423 -2422 57 0
2423 2422 -57 0
-2424 2423 61 0
-2424 -2423 -61 0
2424 -2423 61 0
2424 2423 -61 0
-2425 2424 63 0
-2425 -2424 -63 0
2425 -2424 63 0
2425 2424 -63 0
-2426 2425 65 0
-2426 -2425 -65 0
2426 -2425 65 0
2426 2425 -65 0
-2427 2426 66 0
-2427 -2426 -66 0
2427 -2426 66 0
2427 2426 -66 0
-2428 2427 67 0
-2428 -2427 -67 0
2428 -2427 67 0
2428 2427 -67 0
-2429 2428 69 0
-2429 -2428 -69 0
2429 -2428 69 0
2429 2428 -69 0
-2430 2429 70 0
-2430 -2429 -70 0
2430 -2429 70 0
2430 2429 -70 0
-2431 2430 71 0
-2431 -2430 -71 0
2431 -2430 71 0
2431 2430 -71 0
-2432 2431 72 0
-2432 -2431 -72 0
2432 -2431 72 0
2432 2431 -72 0
-2433 2432 73 0
-2433 -2432 -73 0
2433 -2432 73 0
2433 2432 -73 0
-2434 2433 76 0
-2434 -2433 -76 0
2434 -2433 76 0
2434 2433 -76 0
-2435 2434 77 0
-2435 -2434 -77 0
2435 -2434 77 0
2435 2434 -77 0
-2436 2435 78 0
-2436 -2435 -78 0
2436 -2435 78 0
2436 2435 -78 0
-2437 2436 80 0
-2437 -2436 -80 0
2437 -2436 80 0
2437 2436 -80 0
-2438 2437 81 0
-2438 -2437 -81 0
2438 -2437 81 0
2438 2437 -81 0
-2439 2438 84 0
-2439 -2438 -84 0
2439 -2438 84 0
2439 2438 -84 0
-2440 2439 85 0
-2440 -2439 -85 0
2440 -2439 85 0
2440 2439 -85 0
-2441 2440 88 0
-2441 -2440 -88 0
2441 -2440 88 0
2441 2440 -88 0
-2442 2441 89 0
-2442 -2441 -89 0
2442 -2441 89 0
2442 2441 -89 0
-2443 2442 93 0
-2443 -2442 -93 0
2443 -2442 93 0
2443 2442 -93 0
-2444 2443 95 0
-2444 -2443 -95 0
2444 -2443 95 0
2444 2443 -95 0
-2445 2444 98 0
-2445 -2444 -98 0
2445 -2444 98 0
2445 2444 -98 0
-2446 2445 99 0
-2446 -2445 -99 0
2446 -2445 99 0
2446 2445 -99 0
-2447 2446 100 0
-2447 -2446 -100 0
2447 -2446 100 0
2447 2446 -100 0
-2448 2447 102 0
-2448 -2447 -102 0
2448 -2447 102 0
2448 2447 -102 0
-2449 2448 103 0
-2449 -2448 -103 0
2449 -2448 103 0
2449 2448 -103 0
-2450 2449 104 0
-2450 -2449 -104 0
2450 -2449 104 0
2450 2449 -104 0
-2451 2450 107 0
-2451 -2450 -107 0
2451 -2450 107 0
2451 2450 -107 0
-2452 2451 108 0
-2452 -2451 -108 0
2452 -2451 108 0
2452 2451 -108 0
-2453 2452 146 0
-2453 -2452 -146 0
2453 -2452 146 0
2453 2452 -146 0
-2454 2453 161 0
-2454 -2453 -161 0
2454 -2453 161 0
2454 2453 -161 0
-2455 2454 162 0
-2455 -2454 -162 0
2455 -2454 162 0
2455 2454 -162 0
-2456 2455 163 0
-2456 -2455 -163 0
2456 -2455 163 0
2456 2455 -163 0
-2457 2456 164 0
-2457 -2456 -164 0
2457 -2456 164 0
2457 2456 -164 0
-2458 2457 165 0
-2458 -2457 -165 0
2458 -2457 165 0
2458 2457 -165 0
-2459 2458 173 0
-2459 -2458 -173 0
2459 -2458 173 0
2459 2458 -173 0
-2460 2459 175 0
-2460 -2459 -175 0
2460 -2459 175 0
2460 2459 -175 0
-2461 2460 177 0
-2461 -2460 -177 0
2461 -2460 177 0
2461 2460 -177 0
-2462 2461 178 0
-2462 -2461 -178 0
2462 -2461 178 0
2462 2461 -178 0
-2463 2462 181 0
-2463 -2462 -181 0
2463 -2462 181 0
2463 2462 -181 0
-2464 2463 183 0
-2464 -2463 -183 0
2464 -2463 183 0
2464 2463 -183 0
-2465 2464 185 0
-2465 -2464 -185 0
2465 -2464 185 0
2465 2464 -185 0
-2466 2465 187 0
-2466 -2465 -187 0
2466 -2465 187 0
2466 2465 -187 0
-2467 2466 188 0
-2467 -2466 -188 0
2467 -2466 188 0
2467 2466 -188 0
-2468 2467 189 0
-2468 -2467 -189 0
2468 -2467 189 0
2468 2467 -189 0
-2469 2468 192 0
-2469 -2468 -192 0
2469 -2468 192 0
2469 2468 -192 0
-2470 2469 194 0
-2470 -2469 -194 0
2470 -2469 194 0
2470 2469 -194 0
-2471 2470 196 0
-2471 -2470 -196 0
2471 -2470 196 0
2471 2470 -196 0
-2472 2471 199 0
-2472 -2471 -199 0
2472 -2471 199 0
2472 2471 -199 0
-2473 2472 200 0
-2473 -2472 -200 0
2473 -2472 200 0
2473 2472 -200 0
-2474 2473 201 0
-2474 -2473 -201 0
2474 -2473 201 0
2474 2473 -201 0
-2475 2474 204 0
-2475 -2474 -204 0
2475 -2474 204 0
2475 2474 -204 0
-2476 2475 206 0
-2476 -2475 -206 0
2476 -2475 206 0
2476 2475 -206 0
-2477 2476 208 0
-2477 -2476 -208 0
2477 -2476 208 0
2477 2476 -208 0
-2478 2477 209 0
-2478 -2477 -209 0
2478 -2477 209 0
2478 2477 -209 0
-2479 2478 211 0
-2479 -2478 -211 0
2479 -2478 211 0
2479 2478 -211 0
-2480 2479 212 0
-2480 -2479 -212 0
2480 -2479 212 0
2480 2479 -212 0
-2481 2480 215 0
-2481 -2480 -215 0
2481 -2480 215 0
2481 2480 -215 0
-2482 2481 216 0
-2482 -2481 -216 0
2482 -2481 216 0
2482 2481 -216 0
-2482 0
-2483 59 68 0
-2483 -59 -68 0
2483 -59 68 0
2483 59 -68 0
-2484 2483 72 0
-2484 -2483 -72 0
2484 -2483 72 0
2484 2483 -72 0
-2485 2484 73 0
-2485 -2484 -73 0
2485 -2484 73 0
2485 2484 -73 0
-2486 2485 74 0
-2486 -2485 -74 0
2486 -2485 74 0
2486 2485 -74 0
-2487 2486 75 0
-2487 -2486 -75 0
2487 -2486 75 0
2487 2486 -75 0
-2488 2487 77 0
-2488 -2487 -77 0
2488 -2487 77 0
2488 2487 -77 0
-2489 2488 82 0
-2489 -2488 -82 0
2489 -2488 82 0
2489 2488 -82 0
-2490 2489 83 0
-2490 -2489 -83 0
2490 -2489 83 0
2490 2489 -83 0
-2491 2490 86 0
-2491 -2490 -86 0
2491 -2490 86 0
2491 2490 -86 0
-2492 2491 89 0
-2492 -2491 -89 0
2492 -2491 89 0
2492 2491 -89 0
-2493 2492 90 0
-2493 -2492 -90 0
2493 -2492 90 0
2493 2492 -90 0
-2494 2493 91 0
-2494 -2493 -91 0
2494 -2493 91 0
2494 2493 -91 0
-2495 2494 94 0
-2495 -2494 -94 0
2495 -2494 94 0
2495 2494 -94 0
-2496 2495 95 0
-2496 -2495 -95 0
2496 -2495 95 0
2496 2495 -95 0
-2497 2496 97 0
-2497 -2496 -97 0
2497 -2496 97 0
2497 2496 -97 0
-2498 2497 98 0
-2498 -2497 -98 0
2498 -2497 98 0
2498 2497 -98 0
-2499 2498 101 0
-2499 -2498 -101 0
2499 -2498 101 0
2499 2498 -101 0
-2500 2499 103 0
-2500 -2499 -103 0
2500 -2499 103 0
2500 2499 -103 0
-2501 2500 105 0
-2501 -2500 -105 0
2501 -2500 105 0
2501 2500 -105 0
-2502 2501 106 0
-2502 -2501 -106 0
2502 -2501 106 0
2502 2501 -106 0
-2503 2502 108 0
-2503 -2502 -108 0
2503 -2502 108 0
2503 2502 -108 0
-2504 2503 147 0
-2504 -2503 -147 0
2504 -2503 147 0
2504 2503 -147 0
-2505 2504 161 0
-2505 -2504 -161 0
2505 -2504 161 0
2505 2504 -161 0
-2506 2505 163 0
-2506 -2505 -163 0
2506 -2505 163 0
2506 2505 -163 0
-2507 2506 164 0
-2507 -2506 -164 0
2507 -2506 164 0
2507 2506 -164 0
-2508 2507 166 0
-2508 -2507 -166 0
2508 -2507 166 0
2508 2507 -166 0
-2509 2508 167 0
-2509 -2508 -167 0
2509 -2508 167 0
2509 2508 -167 0
-2510 2509 169 0
-2510 -2509 -169 0
2510 -2509 169 0
2510 2509 -169 0
-2511 2510 170 0
-2511 -2510 -170 0
2511 -2510 170 0
2511 2510 -170 0
-2512 2511 172 0
-2512 -2511 -172 0
2512 -2511 172 0
2512 2511 -172 0
-2513 2512 173 0
-2513 -2512 -173 0
2513 -2512 173 0
2513 2512 -173 0
-2514 2513 174 0
-2514 -2513 -174 0
2514 -2513 174 0
2514 2513 -174 0
-2515 2514 175 0
-2515 -2514 -175 0
2515 -2514 175 0
2515 2514 -175 0
-2516 2515 176 0
-2516 -2515 -176 0
2516 -2515 176 0
2516 2515 -176 0
-2517 2516 177 0
-2517 -2516 -177 0
2517 -2516 177 0
2517 2516 -177 0
-2518 2517 178 0
-2518 -2517 -178 0
2518 -2517 178 0
2518 2517 -178 0
-2519 2518 181 0
-2519 -2518 -181 0
2519 -2518 181 0
2519 2518 -181 0
-2520 2519 184 0
-2520 -2519 -184 0
2520 -2519 184 0
2520 2519 -184 0
-2521 2520 189 0
-2521 -2520 -189 0
2521 -2520 189 0
2521 2520 -189 0
-2522 2521 190 0
-2522 -2521 -190 0
2522 -2521 190 0
2522 2521 -190 0
-2523 2522 192 0
-2523 -2522 -192 0
2523 -2522 192 0
2523 2522 -192 0
-2524 2523 193 0
-2524 -2523 -193 0
2524 -2523 193 0
2524 2523 -193 0
-2525 2524 195 0
-2525 -2524 -195 0
2525 -2524 195 0
2525 2524 -195 0
-2526 2525 198 0
-2526 -2525 -198 0
2526 -2525 198 0
2526 2525 -198 0
-2527 2526 199 0
-2527 -2526 -199 0
2527 -2526 199 0
2527 2526 -199 0
-2528 2527 201 0
-2528 -2527 -201 0
2528 -2527 201 0
2528 2527 -201 0
-2529 2528 202 0
-2529 -2528 -202 0
2529 -2528 202 0
2529 2528 -202 0
-2530 2529 203 0
-2530 -2529 -203 0
2530 -2529 203 0
2530 2529 -203 0
-2531 2530 209 0
-2531 -2530 -209 0
2531 -2530 209 0
2531 2530 -209 0
-2532 2531 211 0
-2532 -2531 -211 0
2532 -2531 211 0
2532 2531 -211 0
-2533 2532 212 0
-2533 -2532 -212 0
2533 -2532 212 0
2533 2532 -212 0
-2534 2533 213 0
-2534 -2533 -213 0
2534 -2533 213 0
2534 2533 -213 0
-2535 2534 216 0
-2535 -2534 -216 0
2535 -2534 216 0
2535 2534 -216 0
-2535 0
-2536 60 67 0
-2536 -60 -67 0
2536 -60 67 0
2536 60 -67 0
-2537 2536 69 0
-2537 -2536 -69 0
2537 -2536 69 0
2537 2536 -69 0
-2538 2537 74 0
-2538 -2537 -74 0
2538 -2537 74 0
2538 2537 -74 0
-2539 2538 75 0
-2539 -2538 -75 0
2539 -2538 75 0
2539 2538 -75 0
-2540 2539 76 0
-2540 -2539 -76 0
2540 -2539 76 0
2540 2539 -76 0
-2541 2540 78 0
-2541 -2540 -78 0
2541 -2540 78 0
2541 2540 -78 0
-2542 2541 83 0
-2542 -2541 -83 0
2542 -2541 83 0
2542 2541 -83 0
-2543 2542 84 0
-2543 -2542 -84 0
2543 -2542 84 0
2543 2542 -84 0
-2544 2543 85 0
-2544 -2543 -85 0
2544 -2543 85 0
2544 2543 -85 0
-2545 2544 87 0
-2545 -2544 -87 0
2545 -2544 87 0
2545 2544 -87 0
-2546 2545 90 0
-2546 -2545 -90 0
2546 -2545 90 0
2546 2545 -90 0
-2547 2546 92 0
-2547 -2546 -92 0
2547 -2546 92 0
2547 2546 -92 0
-2548 2547 95 0
-2548 -2547 -95 0
2548 -2547 95 0
2548 2547 -95 0
-2549 2548 96 0
-2549 -2548 -96 0
2549 -2548 96 0
2549 2548 -96 0
-2550 2549 98 0
-2550 -2549 -98 0
2550 -2549 98 0
2550 2549 -98 0
-2551 2550 99 0
-2551 -2550 -99 0
2551 -2550 99 0
2551 2550 -99 0
-2552 2551 102 0
-2552 -2551 -102 0
2552 -2551 102 0
2552 2551 -102 0
-2553 2552 103 0
-2553 -2552 -103 0
2553 -2552 103 0
2553 2552 -103 0
-2554 2553 104 0
-2554 -2553 -104 0
2554 -2553 104 0
2554 2553 -104 0
-2555 2554 106 0
-2555 -2554 -106 0
2555 -2554 106 0
2555 2554 -106 0
-2556 2555 107 0
-2556 -2555 -107 0
2556 -2555 107 0
2556 2555 -107 0
-2557 2556 148 0
-2557 -2556 -148 0
2557 -2556 148 0
2557 2556 -148 0
-2558 2557 162 0
-2558 -2557 -162 0
2558 -2557 162 0
2558 2557 -162 0
-2559 2558 164 0
-2559 -2558 -164 0
2559 -2558 164 0
2559 2558 -164 0
-2560 2559 165 0
-2560 -2559 -165 0
2560 -2559 165 0
2560 2559 -165 0
-2561 2560 167 0
-2561 -2560 -167 0
2561 -2560 167 0
2561 2560 -167 0
-2562 2561 168 0
-2562 -2561 -168 0
2562 -2561 168 0
2562 2561 -168 0
-2563 2562 169 0
-2563 -2562 -169 0
2563 -2562 169 0
2563 2562 -169 0
-2564 2563 170 0
-2564 -2563 -170 0
2564 -2563 170 0
2564 2563 -170 0
-2565 2564 171 0
-2565 -2564 -171 0
2565 -2564 171 0
2565 2564 -171 0
-2566 2565 173 0
-2566 -2565 -173 0
2566 -2565 173 0
2566 2565 -173 0
-2567 2566 174 0
-2567 -2566 -174 0
2567 -2566 174 0
2567 2566 -174 0
-2568 2567 176 0
-2568 -2567 -176 0
2568 -2567 176 0
2568 2567 -176 0
-2569 2568 177 0
-2569 -2568 -177 0
2569 -2568 177 0
2569 2568 -177 0
-2570 2569 178 0
-2570 -2569 -178 0
2570 -2569 178 0
2570 2569 -178 0
-2571 2570 179 0
-2571 -2570 -179 0
2571 -2570 179 0
2571 2570 -179 0
-2572 2571 182 0
-2572 -2571 -182 0
2572 -2571 182 0
2572 2571 -182 0
-2573 2572 185 0
-2573 -2572 -185 0
2573 -2572 185 0
2573 2572 -185 0
-2574 2573 187 0
-2574 -2573 -187 0
2574 -2573 187 0
2574 2573 -187 0
-2575 2574 190 0
-2575 -2574 -190 0
2575 -2574 190 0
2575 2574 -190 0
-2576 2575 191 0
-2576 -2575 -191 0
2576 -2575 191 0
2576 2575 -191 0
-2577 2576 193 0
-2577 -2576 -193 0
2577 -2576 193 0
2577 2576 -193 0
-2578 2577 194 0
-2578 -2577 -194 0
2578 -2577 194 0
2578 2577 -194 0
-2579 2578 196 0
-2579 -2578 -196 0
2579 -2578 196 0
2579 2578 -196 0
-2580 2579 200 0
-2580 -2579 -200 0
2580 -2579 200 0
2580 2579 -200 0
-2581 2580 202 0
-2581 -2580 -202 0
2581 -2580 202 0
2581 2580 -202 0
-2582 2581 203 0
-2582 -2581 -203 0
2582 -2581 203 0
2582 2581 -203 0
-2583 2582 204 0
-2583 -2582 -204 0
2583 -2582 204 0
2583 2582 -204 0
-2584 2583 210 0
-2584 -2583 -210 0
2584 -2583 210 0
2584 2583 -210 0
-2585 2584 211 0
-2585 -2584 -211 0
2585 -2584 211 0
2585 2584 -211 0
-2586 2585 212 0
-2586 -2585 -212 0
2586 -2585 212 0
2586 2585 -212 0
-2587 2586 213 0
-2587 -2586 -213 0
2587 -2586 213 0
2587 2586 -213 0
-2588 2587 214 0
-2588 -2587 -214 0
2588 -2587 214 0
2588 2587 -214 0
-2588 0
-2589 53 57 0
-2589 -53 -57 0
2589 -53 57 0
2589 53 -57 0
-2590 2589 59 0
-2590 -2589 -59 0
2590 -2589 59 0
2590 2589 -59 0
-2591 2590 60 0
-2591 -2590 -60 0
2591 -2590 60 0
2591 2590 -60 0
-2592 2591 61 0
-2592 -2591 -61 0
2592 -2591 61 0
2592 2591 -61 0
-2593 2592 62 0
-2593 -2592 -62 0
2593 -2592 62 0
2593 2592 -62 0
-2594 2593 63 0
-2594 -2593 -63 0
2594 -2593 63 0
2594 2593 -63 0
-2595 2594 64 0
-2595 -2594 -64 0
2595 -2594 64 0
2595 2594 -64 0
-2596 2595 67 0
-2596 -2595 -67 0
2596 -2595 67 0
2596 2595 -67 0
-2597 2596 68 0
-2597 -2596 -68 0
2597 -2596 68 0
2597 2596 -68 0
-2598 2597 69 0
-2598 -2597 -69 0
2598 -2597 69 0
2598 2597 -69 0
-2599 2598 70 0
-2599 -2598 -70 0
2599 -2598 70 0
2599 2598 -70 0
-2600 2599 74 0
-2600 -2599 -74 0
2600 -2599 74 0
2600 2599 -74 0
-2601 2600 78 0
-2601 -2600 -78 0
2601 -2600 78 0
2601 2600 -78 0
-2602 2601 80 0
-2602 -2601 -80 0
2602 -2601 80 0
2602 2601 -80 0
-2603 2602 86 0
-2603 -2602 -86 0
2603 -2602 86 0
2603 2602 -86 0
-2604 2603 87 0
-2604 -2603 -87 0
2604 -2603 87 0
2604 2603 -87 0
-2605 2604 90 0
-2605 -2604 -90 0
2605 -2604 90 0
2605 2604 -90 0
-2606 2605 95 0
-2606 -2605 -95 0
2606 -2605 95 0
2606 2605 -95 0
-2607 2606 96 0
-2607 -2606 -96 0
2607 -2606 96 0
2607 2606 -96 0
-2608 2607 102 0
-2608 -2607 -102 0
2608 -2607 102 0
2608 2607 -102 0
-2609 2608 104 0
-2609 -2608 -104 0
2609 -2608 104 0
2609 2608 -104 0
-2610 2609 107 0
-2610 -2609 -107 0
2610 -2609 107 0
2610 2609 -107 0
-2611 2610 108 0
-2611 -2610 -108 0
2611 -2610 108 0
2611 2610 -108 0
-2612 2611 149 0
-2612 -2611 -149 0
2612 -2611 149 0
2612 2611 -149 0
-2613 2612 161 0
-2613 -2612 -161 0
2613 -2612 161 0
2613 2612 -161 0
-2614 2613 162 0
-2614 -2613 -162 0
2614 -2613 162 0
2614 2613 -162 0
-2615 2614 166 0
-2615 -2614 -166 0
2615 -2614 166 0
2615 2614 -166 0
-2616 2615 167 0
-2616 -2615 -167 0
2616 -2615 167 0
2616 2615 -167 0
-2617 2616 168 0
-2617 -2616 -168 0
2617 -2616 168 0
2617 2616 -168 0
-2618 2617 171 0
-2618 -2617 -171 0
2618 -2617 171 0
2618 2617 -171 0
-2619 2618 173 0
-2619 -2618 -173 0
2619 -2618 173 0
2619 2618 -173 0
-2620 2619 174 0
-2620 -2619 -174 0
2620 -2619 174 0
2620 2619 -174 0
-2621 2620 175 0
-2621 -2620 -175 0
2621 -2620 175 0
2621 2620 -175 0
-2622 2621 178 0
-2622 -2621 -178 0
2622 -2621 178 0
2622 2621 -178 0
-2623 2622 180 0
-2623 -2622 -180 0
2623 -2622 180 0
2623 2622 -180 0
-2624 2623 181 0
-2624 -2623 -181 0
2624 -2623 181 0
2624 2623 -181 0
-2625 2624 182 0
-2625 -2624 -182 0
2625 -2624 182 0
2625 2624 -182 0
-2626 2625 183 0
-2626 -2625 -183 0
2626 -2625 183 0
2626 2625 -183 0
-2627 2626 187 0
-2627 -2626 -187 0
2627 -2626 187 0
2627 2626 -187 0
-2628 2627 191 0
-2628 -2627 -191 0
2628 -2627 191 0
2628 2627 -191 0
-2629 2628 193 0
-2629 -2628 -193 0
2629 -2628 193 0
2629 2628 -193 0
-2630 2629 194 0
-2630 -2629 -194 0
2630 -2629 194 0
2630 2629 -194 0
-2631 2630 195 0
-2631 -2630 -195 0
2631 -2630 195 0
2631 2630 -195 0
-2632 2631 198 0
-2632 -2631 -198 0
2632 -2631 198 0
2632 2631 -198 0
-2633 2632 199 0
-2633 -2632 -199 0
2633 -2632 199 0
2633 2632 -199 0
-2634 2633 200 0
-2634 -2633 -200 0
2634 -2633 200 0
2634 2633 -200 0
-2635 2634 201 0
-2635 -2634 -201 0
2635 -2634 201 0
2635 2634 -201 0
-2636 2635 204 0
-2636 -2635 -204 0
2636 -2635 204 0
2636 2635 -204 0
-2637 2636 205 0
-2637 -2636 -205 0
2637 -2636 205 0
2637 2636 -205 0
-2638 2637 207 0
-2638 -2637 -207 0
2638 -2637 207 0
2638 2637 -207 0
-2639 2638 210 0
-2639 -2638 -210 0
2639 -2638 210 0
2639 2638 -210 0
-2640 2639 212 0
-2640 -2639 -212 0
2640 -2639 212 0
2640 2639 -212 0
-2641 2640 213 0
-2641 -2640 -213 0
2641 -2640 213 0
2641 2640 -213 0
-2642 2641 214 0
-2642 -2641 -214 0
2642 -2641 214 0
2642 2641 -214 0
-2643 2642 215 0
-2643 -2642 -215 0
2643 -2642 215 0
2643 2642 -215 0
-2643 0
-2644 53 54 0
-2644 -53 -54 0
2644 -53 54 0
2644 53 -54 0
-2645 2644 57 0
-2645 -2644 -57 0
2645 -2644 57 0
2645 2644 -57 0
-2646 2645 58 0
-2646 -2645 -58 0
2646 -2645 58 0
2646 2645 -58 0
-2647 2646 59 0
-2647 -2646 -59 0
2647 -2646 59 0
2647 2646 -59 0
-2648 2647 61 0
-2648 -2647 -61 0
2648 -2647 61 0
2648 2647 -61 0
-2649 2648 65 0
-2649 -2648 -65 0
2649 -2648 65 0
2649 2648 -65 0
-2650 2649 67 0
-2650 -2649 -67 0
2650 -2649 67 0
2650 2649 -67 0
-2651 2650 68 0
-2651 -2650 -68 0
2651 -2650 68 0
2651 2650 -68 0
-2652 2651 70 0
-2652 -2651 -70 0
2652 -2651 70 0
2652 2651 -70 0
-2653 2652 71 0
-2653 -2652 -71 0
2653 -2652 71 0
2653 2652 -71 0
-2654 2653 74 0
-2654 -2653 -74 0
2654 -2653 74 0
2654 2653 -74 0
-2655 2654 76 0
-2655 -2654 -76 0
2655 -2654 76 0
2655 2654 -76 0
-2656 2655 77 0
-2656 -2655 -77 0
2656 -2655 77 0
2656 2655 -77 0
-2657 2656 78 0
-2657 -2656 -78 0
2657 -2656 78 0
2657 2656 -78 0
-2658 2657 79 0
-2658 -2657 -79 0
2658 -2657 79 0
2658 2657 -79 0
-2659 2658 80 0
-2659 -2658 -80 0
2659 -2658 80 0
2659 2658 -80 0
-2660 2659 81 0
-2660 -2659 -81 0
2660 -2659 81 0
2660 2659 -81 0
-2661 2660 84 0
-2661 -2660 -84 0
2661 -2660 84 0
2661 2660 -84 0
-2662 2661 90 0
-2662 -2661 -90 0
2662 -2661 90 0
2662 2661 -90 0
-2663 2662 93 0
-2663 -2662 -93 0
2663 -2662 93 0
2663 2662 -93 0
-2664 2663 95 0
-2664 -2663 -95 0
2664 -2663 95 0
2664 2663 -95 0
-2665 2664 96 0
-2665 -2664 -96 0
2665 -2664 96 0
2665 2664 -96 0
-2666 2665 99 0
-2666 -2665 -99 0
2666 -2665 99 0
2666 2665 -99 0
-2667 2666 100 0
-2667 -2666 -100 0
2667 -2666 100 0
2667 2666 -100 0
-2668 2667 102 0
-2668 -2667 -102 0
2668 -2667 102 0
2668 2667 -102 0
-2669 2668 103 0
-2669 -2668 -103 0
2669 -2668 103 0
2669 2668 -103 0
-2670 2669 108 0
-2670 -2669 -108 0
2670 -2669 108 0
2670 2669 -108 0
-2671 2670 150 0
-2671 -2670 -150 0
2671 -2670 150 0
2671 2670 -150 0
-2672 2671 161 0
-2672 -2671 -161 0
2672 -2671 161 0
2672 2671 -161 0
-2673 2672 165 0
-2673 -2672 -165 0
2673 -2672 165 0
2673 2672 -165 0
-2674 2673 168 0
-2674 -2673 -168 0
2674 -2673 168 0
2674 2673 -168 0
-2675 2674 170 0
-2675 -2674 -170 0
2675 -2674 170 0
2675 2674 -170 0
-2676 2675 173 0
-2676 -2675 -173 0
2676 -2675 173 0
2676 2675 -173 0
-2677 2676 174 0
-2677 -2676 -174 0
2677 -2676 174 0
2677 2676 -174 0
-2678 2677 176 0
-2678 -2677 -176 0
2678 -2677 176 0
2678 2677 -176 0
-2679 2678 177 0
-2679 -2678 -177 0
2679 -2678 177 0
2679 2678 -177 0
-2680 2679 181 0
-2680 -2679 -181 0
2680 -2679 181 0
2680 2679 -181 0
-2681 2680 183 0
-2681 -2680 -183 0
2681 -2680 183 0
2681 2680 -183 0
-2682 2681 184 0
-2682 -2681 -184 0
2682 -2681 184 0
2682 2681 -184 0
-2683 2682 186 0
-2683 -2682 -186 0
2683 -2682 186 0
2683 2682 -186 0
-2684 2683 187 0
-2684 -2683 -187 0
2684 -2683 187 0
2684 2683 -187 0
-2685 2684 194 0
-2685 -2684 -194 0
2685 -2684 194 0
2685 2684 -194 0
-2686 2685 195 0
-2686 -2685 -195 0
2686 -2685 195 0
2686 2685 -195 0
-2687 2686 196 0
-2687 -2686 -196 0
2687 -2686 196 0
2687 2686 -196 0
-2688 2687 197 0
-2688 -2687 -197 0
2688 -2687 197 0
2688 2687 -197 0
-2689 2688 198 0
-2689 -2688 -198 0
2689 -2688 198 0
2689 2688 -198 0
-2690 2689 199 0
-2690 -2689 -199 0
2690 -2689 199 0
2690 2689 -199 0
-2691 2690 201 0
-2691 -2690 -201 0
2691 -2690 201 0
2691 2690 -201 0
-2692 2691 202 0
-2692 -2691 -202 0
2692 -2691 202 0
2692 2691 -202 0
-2693 2692 203 0
-2693 -2692 -203 0
2693 -2692 203 0
2693 2692 -203 0
-2694 2693 205 0
-2694 -2693 -205 0
2694 -2693 205 0
2694 2693 -205 0
-2695 2694 206 0
-2695 -2694 -206 0
2695 -2694 206 0
2695 2694 -206 0
-2696 2695 207 0
-2696 -2695 -207 0
2696 -2695 207 0
2696 2695 -207 0
-2697 2696 208 0
-2697 -2696 -208 0
2697 -2696 208 0
2697 2696 -208 0
-2698 2697 210 0
-2698 -2697 -210 0
2698 -2697 210 0
2698 2697 -210 0
-2699 2698 213 0
-2699 -2698 -213 0
2699 -2698 213 0
2699 2698 -213 0
-2700 2699 214 0
-2700 -2699 -214 0
2700 -2699 214 0
2700 2699 -214 0
-2701 2700 215 0
-2701 -2700 -215 0
2701 -2700 215 0
2701 2700 -215 0
-2702 2701 216 0
-2702 -2701 -216 0
2702 -2701 216 0
2702 2701 -216 0
-2702 0
-2703 61 62 0
-2703 -61 -62 0
2703 -61 62 0
2703 61 -62 0
-2704 2703 63 0
-2704 -2703 -63 0
2704 -2703 63 0
2704 2703 -63 0
-2705 2704 64 0
-2705 -2704 -64 0
2705 -2704 64 0
2705 2704 -64 0
-2706 2705 65 0
-2706 -2705 -65 0
2706 -2705 65 0
2706 2705 -65 0
-2707 2706 67 0
-2707 -2706 -67 0
2707 -2706 67 0
2707 2706 -67 0
-2708 2707 73 0
-2708 -2707 -73 0
2708 -2707 73 0
2708 2707 -73 0
-2709 2708 75 0
-2709 -2708 -75 0
2709 -2708 75 0
2709 2708 -75 0
-2710 2709 77 0
-2710 -2709 -77 0
2710 -2709 77 0
2710 2709 -77 0
-2711 2710 79 0
-2711 -2710 -79 0
2711 -2710 79 0
2711 2710 -79 0
-2712 2711 80 0
-2712 -2711 -80 0
2712 -2711 80 0
2712 2711 -80 0
-2713 2712 82 0
-2713 -2712 -82 0
2713 -2712 82 0
2713 2712 -82 0
-2714 2713 83 0
-2714 -2713 -83 0
2714 -2713 83 0
2714 2713 -83 0
-2715 2714 84 0
-2715 -2714 -84 0
2715 -2714 84 0
2715 2714 -84 0
-2716 2715 86 0
-2716 -2715 -86 0
2716 -2715 86 0
2716 2715 -86 0
-2717 2716 87 0
-2717 -2716 -87 0
2717 -2716 87 0
2717 2716 -87 0
-2718 2717 88 0
-2718 -2717 -88 0
2718 -2717 88 0
2718 2717 -88 0
-2719 2718 92 0
-2719 -2718 -92 0
2719 -2718 92 0
2719 2718 -92 0
-2720 2719 96 0
-2720 -2719 -96 0
2720 -2719 96 0
2720 2719 -96 0
-2721 2720 97 0
-2721 -2720 -97 0
2721 -2720 97 0
2721 2720 -97 0
-2722 2721 99 0
-2722 -2721 -99 0
2722 -2721 99 0
2722 2721 -99 0
-2723 2722 102 0
-2723 -2722 -102 0
2723 -2722 102 0
2723 2722 -102 0
-2724 2723 103 0
-2724 -2723 -103 0
2724 -2723 103 0
2724 2723 -103 0
-2725 2724 104 0
-2725 -2724 -104 0
2725 -2724 104 0
2725 2724 -104 0
-2726 2725 106 0
-2726 -2725 -106 0
2726 -2725 106 0
2726 2725 -106 0
-2727 2726 107 0
-2727 -2726 -107 0
2727 -2726 107 0
2727 2726 -107 0
-2728 2727 151 0
-2728 -2727 -151 0
2728 -2727 151 0
2728 2727 -151 0
-2729 2728 161 0
-2729 -2728 -161 0
2729 -2728 161 0
2729 2728 -161 0
-2730 2729 164 0
-2730 -2729 -164 0
2730 -2729 164 0
2730 2729 -164 0
-2731 2730 165 0
-2731 -2730 -165 0
2731 -2730 165 0
2731 2730 -165 0
-2732 2731 166 0
-2732 -2731 -166 0
2732 -2731 166 0
2732 2731 -166 0
-2733 2732 167 0
-2733 -2732 -167 0
2733 -2732 167 0
2733 2732 -167 0
-2734 2733 168 0
-2734 -2733 -168 0
2734 -2733 168 0
2734 2733 -168 0
-2735 2734 169 0
-2735 -2734 -169 0
2735 -2734 169 0
2735 2734 -169 0
-2736 2735 172 0
-2736 -2735 -172 0
2736 -2735 172 0
2736 2735 -172 0
-2737 2736 173 0
-2737 -2736 -173 0
2737 -2736 173 0
2737 2736 -173 0
-2738 2737 178 0
-2738 -2737 -178 0
2738 -2737 178 0
2738 2737 -178 0
-2739 2738 180 0
-2739 -2738 -180 0
2739 -2738 180 0
2739 2738 -180 0
-2740 2739 181 0
-2740 -2739 -181 0
2740 -2739 181 0
2740 2739 -181 0
-2741 2740 184 0
-2741 -2740 -184 0
2741 -2740 184 0
2741 2740 -184 0
-2742 2741 185 0
-2742 -2741 -185 0
2742 -2741 185 0
2742 2741 -185 0
-2743 2742 186 0
-2743 -2742 -186 0
2743 -2742 186 0
2743 2742 -186 0
-2744 2743 189 0
-2744 -2743 -189 0
2744 -2743 189 0
2744 2743 -189 0
-2745 2744 190 0
-2745 -2744 -190 0
2745 -2744 190 0
2745 2744 -190 0
-2746 2745 196 0
-2746 -2745 -196 0
2746 -2745 196 0
2746 2745 -196 0
-2747 2746 199 0
-2747 -2746 -199 0
2747 -2746 199 0
2747 2746 -199 0
-2748 2747 200 0
-2748 -2747 -200 0
2748 -2747 200 0
2748 2747 -200 0
-2749 2748 202 0
-2749 -2748 -202 0
2749 -2748 202 0
2749 2748 -202 0
-2750 2749 203 0
-2750 -2749 -203 0
2750 -2749 203 0
2750 2749 -203 0
-2751 2750 205 0
-2751 -2750 -205 0
2751 -2750 205 0
2751 2750 -205 0
-2752 2751 210 0
-2752 -2751 -210 0
2752 -2751 210 0
2752 2751 -210 0
-2753 2752 213 0
-2753 -2752 -213 0
2753 -2752 213 0
2753 2752 -213 0
-2754 2753 214 0
-2754 -2753 -214 0
2754 -2753 214 0
2754 2753 -214 0
-2755 2754 215 0
-2755 -2754 -215 0
2755 -2754 215 0
2755 2754 -215 0
-2755 0
-2756 62 63 0
-2756 -62 -63 0
2756 -62 63 0
2756 62 -63 0
-2757 2756 64 0
-2757 -2756 -64 0
2757 -2756 64 0
2757 2756 -64 0
-2758 2757 65 0
-2758 -2757 -65 0
2758 -2757 65 0
2758 2757 -65 0
-2759 2758 66 0
-2759 -2758 -66 0
2759 -2758 66 0
2759 2758 -66 0
-2760 2759 68 0
-2760 -2759 -68 0
2760 -2759 68 0
2760 2759 -68 0
-2761 2760 74 0
-2761 -2760 -74 0
2761 -2760 74 0
2761 2760 -74 0
-2762 2761 76 0
-2762 -2761 -76 0
2762 -2761 76 0
2762 2761 -76 0
-2763 2762 78 0
-2763 -2762 -78 0
2763 -2762 78 0
2763 2762 -78 0
-2764 2763 79 0
-2764 -2763 -79 0
2764 -2763 79 0
2764 2763 -79 0
-2765 2764 80 0
-2765 -2764 -80 0
2765 -2764 80 0
2765 2764 -80 0
-2766 2765 81 0
-2766 -2765 -81 0
2766 -2765 81 0
2766 2765 -81 0
-2767 2766 83 0
-2767 -2766 -83 0
2767 -2766 83 0
2767 2766 -83 0
-2768 2767 84 0
-2768 -2767 -84 0
2768 -2767 84 0
2768 2767 -84 0
-2769 2768 87 0
-2769 -2768 -87 0
2769 -2768 87 0
2769 2768 -87 0
-2770 2769 88 0
-2770 -2769 -88 0
2770 -2769 88 0
2770 2769 -88 0
-2771 2770 89 0
-2771 -2770 -89 0
2771 -2770 89 0
2771 2770 -89 0
-2772 2771 91 0
-2772 -2771 -91 0
2772 -2771 91 0
2772 2771 -91 0
-2773 2772 93 0
-2773 -2772 -93 0
2773 -2772 93 0
2773 2772 -93 0
-2774 2773 97 0
-2774 -2773 -97 0
2774 -2773 97 0
2774 2773 -97 0
-2775 2774 98 0
-2775 -2774 -98 0
2775 -2774 98 0
2775 2774 -98 0
-2776 2775 100 0
-2776 -2775 -100 0
2776 -2775 100 0
2776 2775 -100 0
-2777 2776 104 0
-2777 -2776 -104 0
2777 -2776 104 0
2777 2776 -104 0
-2778 2777 105 0
-2778 -2777 -105 0
2778 -2777 105 0
2778 2777 -105 0
-2779 2778 107 0
-2779 -2778 -107 0
2779 -2778 107 0
2779 2778 -107 0
-2780 2779 108 0
-2780 -2779 -108 0
2780 -2779 108 0
2780 2779 -108 0
-2781 2780 152 0
-2781 -2780 -152 0
2781 -2780 152 0
2781 2780 -152 0
-2782 2781 162 0
-2782 -2781 -162 0
2782 -2781 162 0
2782 2781 -162 0
-2783 2782 163 0
-2783 -2782 -163 0
2783 -2782 163 0
2783 2782 -163 0
-2784 2783 165 0
-2784 -2783 -165 0
2784 -2783 165 0
2784 2783 -165 0
-2785 2784 166 0
-2785 -2784 -166 0
2785 -2784 166 0
2785 2784 -166 0
-2786 2785 167 0
-2786 -2785 -167 0
2786 -2785 167 0
2786 2785 -167 0
-2787 2786 168 0
-2787 -2786 -168 0
2787 -2786 168 0
2787 2786 -168 0
-2788 2787 170 0
-2788 -2787 -170 0
2788 -2787 170 0
2788 2787 -170 0
-2789 2788 173 0
-2789 -2788 -173 0
2789 -2788 173 0
2789 2788 -173 0
-2790 2789 174 0
-2790 -2789 -174 0
2790 -2789 174 0
2790 2789 -174 0
-2791 2790 175 0
-2791 -2790 -175 0
2791 -2790 175 0
2791 2790 -175 0
-2792 2791 179 0
-2792 -2791 -179 0
2792 -2791 179 0
2792 2791 -179 0
-2793 2792 181 0
-2793 -2792 -181 0
2793 -2792 181 0
2793 2792 -181 0
-2794 2793 182 0
-2794 -2793 -182 0
2794 -2793 182 0
2794 2793 -182 0
-2795 2794 185 0
-2795 -2794 -185 0
2795 -2794 185 0
2795 2794 -185 0
-2796 2795 186 0
-2796 -2795 -186 0
2796 -2795 186 0
2796 2795 -186 0
-2797 2796 190 0
-2797 -2796 -190 0
2797 -2796 190 0
2797 2796 -190 0
-2798 2797 191 0
-2798 -2797 -191 0
2798 -2797 191 0
2798 2797 -191 0
-2799 2798 197 0
-2799 -2798 -197 0
2799 -2798 197 0
2799 2798 -197 0
-2800 2799 200 0
-2800 -2799 -200 0
2800 -2799 200 0
2800 2799 -200 0
-2801 2800 201 0
-2801 -2800 -201 0
2801 -2800 201 0
2801 2800 -201 0
-2802 2801 203 0
-2802 -2801 -203 0
2802 -2801 203 0
2802 2801 -203 0
-2803 2802 204 0
-2803 -2802 -204 0
2803 -2802 204 0
2803 2802 -204 0
-2804 2803 205 0
-2804 -2803 -205 0
2804 -2803 205 0
2804 2803 -205 0
-2805 2804 206 0
-2805 -2804 -206 0
2805 -2804 206 0
2805 2804 -206 0
-2806 2805 214 0
-2806 -2805 -214 0
2806 -2805 214 0
2806 2805 -214 0
-2807 2806 215 0
-2807 -2806 -215 0
2807 -2806 215 0
2807 2806 -215 0
-2808 2807 216 0
-2808 -2807 -216 0
2808 -2807 216 0
2808 2807 -216 0
-2808 0
-2809 53 58 0
-2809 -53 -58 0
2809 -53 58 0
2809 53 -58 0
-2810 2809 59 0
-2810 -2809 -59 0
2810 -2809 59 0
2810 2809 -59 0
-2811 2810 61 0
-2811 -2810 -61 0
2811 -2810 61 0
2811 2810 -61 0
-2812 2811 64 0
-2812 -2811 -64 0
2812 -2811 64 0
2812 2811 -64 0
-2813 2812 66 0
-2813 -2812 -66 0
2813 -2812 66 0
2813 2812 -66 0
-2814 2813 67 0
-2814 -2813 -67 0
2814 -2813 67 0
2814 2813 -67 0
-2815 2814 68 0
-2815 -2814 -68 0
2815 -2814 68 0
2815 2814 -68 0
-2816 2815 69 0
-2816 -2815 -69 0
2816 -2815 69 0
2816 2815 -69 0
-2817 2816 71 0
-2817 -2816 -71 0
2817 -2816 71 0
2817 2816 -71 0
-2818 2817 72 0
-2818 -2817 -72 0
2818 -2817 72 0
2818 2817 -72 0
-2819 2818 73 0
-2819 -2818 -73 0
2819 -2818 73 0
2819 2818 -73 0
-2820 2819 74 0
-2820 -2819 -74 0
2820 -2819 74 0
2820 2819 -74 0
-2821 2820 75 0
-2821 -2820 -75 0
2821 -2820 75 0
2821 2820 -75 0
-2822 2821 79 0
-2822 -2821 -79 0
2822 -2821 79 0
2822 2821 -79 0
-2823 2822 80 0
-2823 -2822 -80 0
2823 -2822 80 0
2823 2822 -80 0
-2824 2823 81 0
-2824 -2823 -81 0
2824 -2823 81 0
2824 2823 -81 0
-2825 2824 83 0
-2825 -2824 -83 0
2825 -2824 83 0
2825 2824 -83 0
-2826 2825 85 0
-2826 -2825 -85 0
2826 -2825 85 0
2826 2825 -85 0
-2827 2826 86 0
-2827 -2826 -86 0
2827 -2826 86 0
2827 2826 -86 0
-2828 2827 90 0
-2828 -2827 -90 0
2828 -2827 90 0
2828 2827 -90 0
-2829 2828 92 0
-2829 -2828 -92 0
2829 -2828 92 0
2829 2828 -92 0
-2830 2829 95 0
-2830 -2829 -95 0
2830 -2829 95 0
2830 2829 -95 0
-2831 2830 96 0
-2831 -2830 -96 0
2831 -2830 96 0
2831 2830 -96 0
-2832 2831 102 0
-2832 -2831 -102 0
2832 -2831 102 0
2832 2831 -102 0
-2833 2832 103 0
-2833 -2832 -103 0
2833 -2832 103 0
2833 2832 -103 0
-2834 2833 104 0
-2834 -2833 -104 0
2834 -2833 104 0
2834 2833 -104 0
-2835 2834 105 0
-2835 -2834 -105 0
2835 -2834 105 0
2835 2834 -105 0
-2836 2835 106 0
-2836 -2835 -106 0
2836 -2835 106 0
2836 2835 -106 0
-2837 2836 107 0
-2837 -2836 -107 0
2837 -2836 107 0
2837 2836 -107 0
-2838 2837 153 0
-2838 -2837 -153 0
2838 -2837 153 0
2838 2837 -153 0
-2839 2838 161 0
-2839 -2838 -161 0
2839 -2838 161 0
2839 2838 -161 0
-2840 2839 162 0
-2840 -2839 -162 0
2840 -2839 162 0
2840 2839 -162 0
-2841 2840 164 0
-2841 -2840 -164 0
2841 -2840 164 0
2841 2840 -164 0
-2842 2841 165 0
-2842 -2841 -165 0
2842 -2841 165 0
2842 2841 -165 0
-2843 2842 166 0
-2843 -2842 -166 0
2843 -2842 166 0
2843 2842 -166 0
-2844 2843 168 0
-2844 -2843 -168 0
2844 -2843 168 0
2844 2843 -168 0
-2845 2844 170 0
-2845 -2844 -170 0
2845 -2844 170 0
2845 2844 -170 0
-2846 2845 171 0
-2846 -2845 -171 0
2846 -2845 171 0
2846 2845 -171 0
-2847 2846 172 0
-2847 -2846 -172 0
2847 -2846 172 0
2847 2846 -172 0
-2848 2847 173 0
-2848 -2847 -173 0
2848 -2847 173 0
2848 2847 -173 0
-2849 2848 174 0
-2849 -2848 -174 0
2849 -2848 174 0
2849 2848 -174 0
-2850 2849 175 0
-2850 -2849 -175 0
2850 -2849 175 0
2850 2849 -175 0
-2851 2850 176 0
-2851 -2850 -176 0
2851 -2850 176 0
2851 2850 -176 0
-2852 2851 177 0
-2852 -2851 -177 0
2852 -2851 177 0
2852 2851 -177 0
-2853 2852 179 0
-2853 -2852 -179 0
2853 -2852 179 0
2853 2852 -179 0
-2854 2853 180 0
-2854 -2853 -180 0
2854 -2853 180 0
2854 2853 -180 0
-2855 2854 183 0
-2855 -2854 -183 0
2855 -2854 183 0
2855 2854 -183 0
-2856 2855 187 0
-2856 -2855 -187 0
2856 -2855 187 0
2856 2855 -187 0
-2857 2856 188 0
-2857 -2856 -188 0
2857 -2856 188 0
2857 2856 -188 0
-2858 2857 191 0
-2858 -2857 -191 0
2858 -2857 191 0
2858 2857 -191 0
-2859 2858 193 0
-2859 -2858 -193 0
2859 -2858 193 0
2859 2858 -193 0
-2860 2859 197 0
-2860 -2859 -197 0
2860 -2859 197 0
2860 2859 -197 0
-2861 2860 199 0
-2861 -2860 -199 0
2861 -2860 199 0
2861 2860 -199 0
-2862 2861 200 0
-2862 -2861 -200 0
2862 -2861 200 0
2862 2861 -200 0
-2863 2862 201 0
-2863 -2862 -201 0
2863 -2862 201 0
2863 2862 -201 0
-2864 2863 202 0
-2864 -2863 -202 0
2864 -2863 202 0
2864 2863 -202 0
-2865 2864 203 0
-2865 -2864 -203 0
2865 -2864 203 0
2865 2864 -203 0
-2866 2865 204 0
-2866 -2865 -204 0
2866 -2865 204 0
2866 2865 -204 0
-2867 2866 206 0
-2867 -2866 -206 0
2867 -2866 206 0
2867 2866 -206 0
-2868 2867 210 0
-2868 -2867 -210 0
2868 -2867 210 0
2868 2867 -210 0
-2869 2868 211 0
-2869 -2868 -211 0
2869 -2868 211 0
2869 2868 -211 0
-2870 2869 215 0
-2870 -2869 -215 0
2870 -2869 215 0
2870 2869 -215 0
-2871 2870 216 0
-2871 -2870 -216 0
2871 -2870 216 0
2871 2870 -216 0
-2871 0
-2872 53 54 0
-2872 -53 -54 0
2872 -53 54 0
2872 53 -54 0
-2873 2872 58 0
-2873 -2872 -58 0
2873 -2872 58 0
2873 2872 -58 0
-2874 2873 60 0
-2874 -2873 -60 0
2874 -2873 60 0
2874 2873 -60 0
-2875 2874 61 0
-2875 -2874 -61 0
2875 -2874 61 0
2875 2874 -61 0
-2876 2875 62 0
-2876 -2875 -62 0
2876 -2875 62 0
2876 2875 -62 0
-2877 2876 63 0
-2877 -2876 -63 0
2877 -2876 63 0
2877 2876 -63 0
-2878 2877 69 0
-2878 -2877 -69 0
2878 -2877 69 0
2878 2877 -69 0
-2879 2878 70 0
-2879 -2878 -70 0
2879 -2878 70 0
2879 2878 -70 0
-2880 2879 71 0
-2880 -2879 -71 0
2880 -2879 71 0
2880 2879 -71 0
-2881 2880 75 0
-2881 -2880 -75 0
2881 -2880 75 0
2881 2880 -75 0
-2882 2881 76 0
-2882 -2881 -76 0
2882 -2881 76 0
2882 2881 -76 0
-2883 2882 77 0
-2883 -2882 -77 0
2883 -2882 77 0
2883 2882 -77 0
-2884 2883 80 0
-2884 -2883 -80 0
2884 -2883 80 0
2884 2883 -80 0
-2885 2884 81 0
-2885 -2884 -81 0
2885 -2884 81 0
2885 2884 -81 0
-2886 2885 83 0
-2886 -2885 -83 0
2886 -2885 83 0
2886 2885 -83 0
-2887 2886 87 0
-2887 -2886 -87 0
2887 -2886 87 0
2887 2886 -87 0
-2888 2887 88 0
-2888 -2887 -88 0
2888 -2887 88 0
2888 2887 -88 0
-2889 2888 89 0
-2889 -2888 -89 0
2889 -2888 89 0
2889 2888 -89 0
-2890 2889 91 0
-2890 -2889 -91 0
2890 -2889 91 0
2890 2889 -91 0
-2891 2890 93 0
-2891 -2890 -93 0
2891 -2890 93 0
2891 2890 -93 0
-2892 2891 94 0
-2892 -2891 -94 0
2892 -2891 94 0
2892 2891 -94 0
-2893 2892 95 0
-2893 -2892 -95 0
2893 -2892 95 0
2893 2892 -95 0
-2894 2893 97 0
-2894 -2893 -97 0
2894 -2893 97 0
2894 2893 -97 0
-2895 2894 98 0
-2895 -2894 -98 0
2895 -2894 98 0
2895 2894 -98 0
-2896 2895 99 0
-2896 -2895 -99 0
2896 -2895 99 0
2896 2895 -99 0
-2897 2896 101 0
-2897 -2896 -101 0
2897 -2896 101 0
2897 2896 -101 0
-2898 2897 102 0
-2898 -2897 -102 0
2898 -2897 102 0
2898 2897 -102 0
-2899 2898 105 0
-2899 -2898 -105 0
2899 -2898 105 0
2899 2898 -105 0
-2900 2899 106 0
-2900 -2899 -106 0
2900 -2899 106 0
2900 2899 -106 0
-2901 2900 154 0
-2901 -2900 -154 0
2901 -2900 154 0
2901 2900 -154 0
-2902 2901 161 0
-2902 -2901 -161 0
2902 -2901 161 0
2902 2901 -161 0
-2903 2902 166 0
-2903 -2902 -166 0
2903 -2902 166 0
2903 2902 -166 0
-2904 2903 170 0
-2904 -2903 -170 0
2904 -2903 170 0
2904 2903 -170 0
-2905 2904 171 0
-2905 -2904 -171 0
2905 -2904 171 0
2905 2904 -171 0
-2906 2905 174 0
-2906 -2905 -174 0
2906 -2905 174 0
2906 2905 -174 0
-2907 2906 176 0
-2907 -2906 -176 0
2907 -2906 176 0
2907 2906 -176 0
-2908 2907 178 0
-2908 -2907 -178 0
2908 -2907 178 0
2908 2907 -178 0
-2909 2908 179 0
-2909 -2908 -179 0
2909 -2908 179 0
2909 2908 -179 0
-2910 2909 180 0
-2910 -2909 -180 0
2910 -2909 180 0
2910 2909 -180 0
-2911 2910 181 0
-2911 -2910 -181 0
2911 -2910 181 0
2911 2910 -181 0
-2912 2911 182 0
-2912 -2911 -182 0
2912 -2911 182 0
2912 2911 -182 0
-2913 2912 184 0
-2913 -2912 -184 0
2913 -2912 184 0
2913 2912 -184 0
-2914 2913 186 0
-2914 -2913 -186 0
2914 -2913 186 0
2914 2913 -186 0
-2915 2914 187 0
-2915 -2914 -187 0
2915 -2914 187 0
2915 2914 -187 0
-2916 2915 189 0
-2916 -2915 -189 0
2916 -2915 189 0
2916 2915 -189 0
-2917 2916 193 0
-2917 -2916 -193 0
2917 -2916 193 0
2917 2916 -193 0
-2918 2917 194 0
-2918 -2917 -194 0
2918 -2917 194 0
2918 2917 -194 0
-2919 2918 197 0
-2919 -2918 -197 0
2919 -2918 197 0
2919 2918 -197 0
-2920 2919 199 0
-2920 -2919 -199 0
2920 -2919 199 0
2920 2919 -199 0
-2921 2920 201 0
-2921 -2920 -201 0
2921 -2920 201 0
2921 2920 -201 0
-2922 2921 202 0
-2922 -2921 -202 0
2922 -2921 202 0
2922 2921 -202 0
-2923 2922 204 0
-2923 -2922 -204 0
2923 -2922 204 0
2923 2922 -204 0
-2924 2923 205 0
-2924 -2923 -205 0
2924 -2923 205 0
2924 2923 -205 0
-2925 2924 210 0
-2925 -2924 -210 0
2925 -2924 210 0
2925 2924 -210 0
-2926 2925 211 0
-2926 -2925 -211 0
2926 -2925 211 0
2926 2925 -211 0
-2927 2926 212 0
-2927 -2926 -212 0
2927 -2926 212 0
2927 2926 -212 0
-2928 2927 216 0
-2928 -2927 -216 0
2928 -2927 216 0
2928 2927 -216 0
-2928 0
-2929 53 57 0
-2929 -53 -57 0
2929 -53 57 0
2929 53 -57 0
-2930 2929 58 0
-2930 -2929 -58 0
2930 -2929 58 0
2930 2929 -58 0
-2931 2930 59 0
-2931 -2930 -59 0
2931 -2930 59 0
2931 2930 -59 0
-2932 2931 60 0
-2932 -2931 -60 0
2932 -2931 60 0
2932 2931 -60 0
-2933 2932 62 0
-2933 -2932 -62 0
2933 -2932 62 0
2933 2932 -62 0
-2934 2933 64 0
-2934 -2933 -64 0
2934 -2933 64 0
2934 2933 -64 0
-2935 2934 66 0
-2935 -2934 -66 0
2935 -2934 66 0
2935 2934 -66 0
-2936 2935 69 0
-2936 -2935 -69 0
2936 -2935 69 0
2936 2935 -69 0
-2937 2936 72 0
-2937 -2936 -72 0
2937 -2936 72 0
2937 2936 -72 0
-2938 2937 73 0
-2938 -2937 -73 0
2938 -2937 73 0
2938 2937 -73 0
-2939 2938 74 0
-2939 -2938 -74 0
2939 -2938 74 0
2939 2938 -74 0
-2940 2939 78 0
-2940 -2939 -78 0
2940 -2939 78 0
2940 2939 -78 0
-2941 2940 80 0
-2941 -2940 -80 0
2941 -2940 80 0
2941 2940 -80 0
-2942 2941 82 0
-2942 -2941 -82 0
2942 -2941 82 0
2942 2941 -82 0
-2943 2942 83 0
-2943 -2942 -83 0
2943 -2942 83 0
2943 2942 -83 0
-2944 2943 85 0
-2944 -2943 -85 0
2944 -2943 85 0
2944 2943 -85 0
-2945 2944 87 0
-2945 -2944 -87 0
2945 -2944 87 0
2945 2944 -87 0
-2946 2945 89 0
-2946 -2945 -89 0
2946 -2945 89 0
2946 2945 -89 0
-2947 2946 92 0
-2947 -2946 -92 0
2947 -2946 92 0
2947 2946 -92 0
-2948 2947 93 0
-2948 -2947 -93 0
2948 -2947 93 0
2948 2947 -93 0
-2949 2948 94 0
-2949 -2948 -94 0
2949 -2948 94 0
2949 2948 -94 0
-2950 2949 95 0
-2950 -2949 -95 0
2950 -2949 95 0
2950 2949 -95 0
-2951 2950 99 0
-2951 -2950 -99 0
2951 -2950 99 0
2951 2950 -99 0
-2952 2951 100 0
-2952 -2951 -100 0
2952 -2951 100 0
2952 2951 -100 0
-2953 2952 104 0
-2953 -2952 -104 0
2953 -2952 104 0
2953 2952 -104 0
-2954 2953 105 0
-2954 -2953 -105 0
2954 -2953 105 0
2954 2953 -105 0
-2955 2954 107 0
-2955 -2954 -107 0
2955 -2954 107 0
2955 2954 -107 0
-2956 2955 155 0
-2956 -2955 -155 0
2956 -2955 155 0
2956 2955 -155 0
-2957 2956 162 0
-2957 -2956 -162 0
2957 -2956 162 0
2957 2956 -162 0
-2958 2957 167 0
-2958 -2957 -167 0
2958 -2957 167 0
2958 2957 -167 0
-2959 2958 169 0
-2959 -2958 -169 0
2959 -2958 169 0
2959 2958 -169 0
-2960 2959 171 0
-2960 -2959 -171 0
2960 -2959 171 0
2960 2959 -171 0
-2961 2960 172 0
-2961 -2960 -172 0
2961 -2960 172 0
2961 2960 -172 0
-2962 2961 175 0
-2962 -2961 -175 0
2962 -2961 175 0
2962 2961 -175 0
-2963 2962 177 0
-2963 -2962 -177 0
2963 -2962 177 0
2963 2962 -177 0
-2964 2963 179 0
-2964 -2963 -179 0
2964 -2963 179 0
2964 2963 -179 0
-2965 2964 180 0
-2965 -2964 -180 0
2965 -2964 180 0
2965 2964 -180 0
-2966 2965 181 0
-2966 -2965 -181 0
2966 -2965 181 0
2966 2965 -181 0
-2967 2966 182 0
-2967 -2966 -182 0
2967 -2966 182 0
2967 2966 -182 0
-2968 2967 183 0
-2968 -2967 -183 0
2968 -2967 183 0
2968 2967 -183 0
-2969 2968 185 0
-2969 -2968 -185 0
2969 -2968 185 0
2969 2968 -185 0
-2970 2969 188 0
-2970 -2969 -188 0
2970 -2969 188 0
2970 2969 -188 0
-2971 2970 190 0
-2971 -2970 -190 0
2971 -2970 190 0
2971 2970 -190 0
-2972 2971 194 0
-2972 -2971 -194 0
2972 -2971 194 0
2972 2971 -194 0
-2973 2972 195 0
-2973 -2972 -195 0
2973 -2972 195 0
2973 2972 -195 0
-2974 2973 198 0
-2974 -2973 -198 0
2974 -2973 198 0
2974 2973 -198 0
-2975 2974 199 0
-2975 -2974 -199 0
2975 -2974 199 0
2975 2974 -199 0
-2976 2975 200 0
-2976 -2975 -200 0
2976 -2975 200 0
2976 2975 -200 0
-2977 2976 202 0
-2977 -2976 -202 0
2977 -2976 202 0
2977 2976 -202 0
-2978 2977 203 0
-2978 -2977 -203 0
2978 -2977 203 0
2978 2977 -203 0
-2979 2978 205 0
-2979 -2978 -205 0
2979 -2978 205 0
2979 2978 -205 0
-2980 2979 206 0
-2980 -2979 -206 0
2980 -2979 206 0
2980 2979 -206 0
-2981 2980 211 0
-2981 -2980 -211 0
2981 -2980 211 0
2981 2980 -211 0
-2982 2981 212 0
-2982 -2981 -212 0
2982 -2981 212 0
2982 2981 -212 0
-2983 2982 213 0
-2983 -2982 -213 0
2983 -2982 213 0
2983 2982 -213 0
-2983 0
-2984 53 54 0
-2984 -53 -54 0
2984 -53 54 0
2984 53 -54 0
-2985 2984 57 0
-2985 -2984 -57 0
2985 -2984 57 0
2985 2984 -57 0
-2986 2985 58 0
-2986 -2985 -58 0
2986 -2985 58 0
2986 2985 -58 0
-2987 2986 62 0
-2987 -2986 -62 0
2987 -2986 62 0
2987 2986 -62 0
-2988 2987 64 0
-2988 -2987 -64 0
2988 -2987 64 0
2988 2987 -64 0
-2989 2988 65 0
-2989 -2988 -65 0
2989 -2988 65 0
2989 2988 -65 0
-2990 2989 69 0
-2990 -2989 -69 0
2990 -2989 69 0
2990 2989 -69 0
-2991 2990 70 0
-2991 -2990 -70 0
2991 -2990 70 0
2991 2990 -70 0
-2992 2991 76 0
-2992 -2991 -76 0
2992 -2991 76 0
2992 2991 -76 0
-2993 2992 77 0
-2993 -2992 -77 0
2993 -2992 77 0
2993 2992 -77 0
-2994 2993 78 0
-2994 -2993 -78 0
2994 -2993 78 0
2994 2993 -78 0
-2995 2994 79 0
-2995 -2994 -79 0
2995 -2994 79 0
2995 2994 -79 0
-2996 2995 80 0
-2996 -2995 -80 0
2996 -2995 80 0
2996 2995 -80 0
-2997 2996 81 0
-2997 -2996 -81 0
2997 -2996 81 0
2997 2996 -81 0
-2998 2997 83 0
-2998 -2997 -83 0
2998 -2997 83 0
2998 2997 -83 0
-2999 2998 85 0
-2999 -2998 -85 0
2999 -2998 85 0
2999 2998 -85 0
-3000 2999 86 0
-3000 -2999 -86 0
3000 -2999 86 0
3000 2999 -86 0
-3001 3000 87 0
-3001 -3000 -87 0
3001 -3000 87 0
3001 3000 -87 0
-3002 3001 91 0
-3002 -3001 -91 0
3002 -3001 91 0
3002 3001 -91 0
-3003 3002 94 0
-3003 -3002 -94 0
3003 -3002 94 0
3003 3002 -94 0
-3004 3003 96 0
-3004 -3003 -96 0
3004 -3003 96 0
3004 3003 -96 0
-3005 3004 97 0
-3005 -3004 -97 0
3005 -3004 97 0
3005 3004 -97 0
-3006 3005 99 0
-3006 -3005 -99 0
3006 -3005 99 0
3006 3005 -99 0
-3007 3006 101 0
-3007 -3006 -101 0
3007 -3006 101 0
3007 3006 -101 0
-3008 3007 102 0
-3008 -3007 -102 0
3008 -3007 102 0
3008 3007 -102 0
-3009 3008 106 0
-3009 -3008 -106 0
3009 -3008 106 0
3009 3008 -106 0
-3010 3009 108 0
-3010 -3009 -108 0
3010 -3009 108 0
3010 3009 -108 0
-3011 3010 156 0
-3011 -3010 -156 0
3011 -3010 156 0
3011 3010 -156 0
-3012 3011 161 0
-3012 -3011 -161 0
3012 -3011 161 0
3012 3011 -161 0
-3013 3012 162 0
-3013 -3012 -162 0
3013 -3012 162 0
3013 3012 -162 0
-3014 3013 163 0
-3014 -3013 -163 0
3014 -3013 163 0
3014 3013 -163 0
-3015 3014 165 0
-3015 -3014 -165 0
3015 -3014 165 0
3015 3014 -165 0
-3016 3015 167 0
-3016 -3015 -167 0
3016 -3015 167 0
3016 3015 -167 0
-3017 3016 168 0
-3017 -3016 -168 0
3017 -3016 168 0
3017 3016 -168 0
-3018 3017 169 0
-3018 -3017 -169 0
3018 -3017 169 0
3018 3017 -169 0
-3019 3018 176 0
-3019 -3018 -176 0
3019 -3018 176 0
3019 3018 -176 0
-3020 3019 177 0
-3020 -3019 -177 0
3020 -3019 177 0
3020 3019 -177 0
-3021 3020 178 0
-3021 -3020 -178 0
3021 -3020 178 0
3021 3020 -178 0
-3022 3021 179 0
-3022 -3021 -179 0
3022 -3021 179 0
3022 3021 -179 0
-3023 3022 180 0
-3023 -3022 -180 0
3023 -3022 180 0
3023 3022 -180 0
-3024 3023 181 0
-3024 -3023 -181 0
3024 -3023 181 0
3024 3023 -181 0
-3025 3024 183 0
-3025 -3024 -183 0
3025 -3024 183 0
3025 3024 -183 0
-3026 3025 184 0
-3026 -3025 -184 0
3026 -3025 184 0
3026 3025 -184 0
-3027 3026 187 0
-3027 -3026 -187 0
3027 -3026 187 0
3027 3026 -187 0
-3028 3027 188 0
-3028 -3027 -188 0
3028 -3027 188 0
3028 3027 -188 0
-3029 3028 189 0
-3029 -3028 -189 0
3029 -3028 189 0
3029 3028 -189 0
-3030 3029 191 0
-3030 -3029 -191 0
3030 -3029 191 0
3030 3029 -191 0
-3031 3030 192 0
-3031 -3030 -192 0
3031 -3030 192 0
3031 3030 -192 0
-3032 3031 195 0
-3032 -3031 -195 0
3032 -3031 195 0
3032 3031 -195 0
-3033 3032 196 0
-3033 -3032 -196 0
3033 -3032 196 0
3033 3032 -196 0
-3034 3033 197 0
-3034 -3033 -197 0
3034 -3033 197 0
3034 3033 -197 0
-3035 3034 198 0
-3035 -3034 -198 0
3035 -3034 198 0
3035 3034 -198 0
-3036 3035 201 0
-3036 -3035 -201 0
3036 -3035 201 0
3036 3035 -201 0
-3037 3036 204 0
-3037 -3036 -204 0
3037 -3036 204 0
3037 3036 -204 0
-3038 3037 206 0
-3038 -3037 -206 0
3038 -3037 206 0
3038 3037 -206 0
-3039 3038 210 0
-3039 -3038 -210 0
3039 -3038 210 0
3039 3038 -210 0
-3040 3039 212 0
-3040 -3039 -212 0
3040 -3039 212 0
3040 3039 -212 0
-3041 3040 213 0
-3041 -3040 -213 0
3041 -3040 213 0
3041 3040 -213 0
-3042 3041 214 0
-3042 -3041 -214 0
3042 -3041 214 0
3042 3041 -214 0
-3042 0
-3043 53 58 0
-3043 -53 -58 0
3043 -53 58 0
3043 53 -58 0
-3044 3043 59 0
-3044 -3043 -59 0
3044 -3043 59 0
3044 3043 -59 0
-3045 3044 63 0
-3045 -3044 -63 0
3045 -3044 63 0
3045 3044 -63 0
-3046 3045 65 0
-3046 -3045 -65 0
3046 -3045 65 0
3046 3045 -65 0
-3047 3046 67 0
-3047 -3046 -67 0
3047 -3046 67 0
3047 3046 -67 0
-3048 3047 68 0
-3048 -3047 -68 0
3048 -3047 68 0
3048 3047 -68 0
-3049 3048 71 0
-3049 -3048 -71 0
3049 -3048 71 0
3049 3048 -71 0
-3050 3049 72 0
-3050 -3049 -72 0
3050 -3049 72 0
3050 3049 -72 0
-3051 3050 74 0
-3051 -3050 -74 0
3051 -3050 74 0
3051 3050 -74 0
-3052 3051 77 0
-3052 -3051 -77 0
3052 -3051 77 0
3052 3051 -77 0
-3053 3052 82 0
-3053 -3052 -82 0
3053 -3052 82 0
3053 3052 -82 0
-3054 3053 83 0
-3054 -3053 -83 0
3054 -3053 83 0
3054 3053 -83 0
-3055 3054 84 0
-3055 -3054 -84 0
3055 -3054 84 0
3055 3054 -84 0
-3056 3055 85 0
-3056 -3055 -85 0
3056 -3055 85 0
3056 3055 -85 0
-3057 3056 86 0
-3057 -3056 -86 0
3057 -3056 86 0
3057 3056 -86 0
-3058 3057 88 0
-3058 -3057 -88 0
3058 -3057 88 0
3058 3057 -88 0
-3059 3058 89 0
-3059 -3058 -89 0
3059 -3058 89 0
3059 3058 -89 0
-3060 3059 94 0
-3060 -3059 -94 0
3060 -3059 94 0
3060 3059 -94 0
-3061 3060 95 0
-3061 -3060 -95 0
3061 -3060 95 0
3061 3060 -95 0
-3062 3061 96 0
-3062 -3061 -96 0
3062 -3061 96 0
3062 3061 -96 0
-3063 3062 98 0
-3063 -3062 -98 0
3063 -3062 98 0
3063 3062 -98 0
-3064 3063 99 0
-3064 -3063 -99 0
3064 -3063 99 0
3064 3063 -99 0
-3065 3064 101 0
-3065 -3064 -101 0
3065 -3064 101 0
3065 3064 -101 0
-3066 3065 102 0
-3066 -3065 -102 0
3066 -3065 102 0
3066 3065 -102 0
-3067 3066 104 0
-3067 -3066 -104 0
3067 -3066 104 0
3067 3066 -104 0
-3068 3067 107 0
-3068 -3067 -107 0
3068 -3067 107 0
3068 3067 -107 0
-3069 3068 108 0
-3069 -3068 -108 0
3069 -3068 108 0
3069 3068 -108 0
-3070 3069 157 0
-3070 -3069 -157 0
3070 -3069 157 0
3070 3069 -157 0
-3071 3070 161 0
-3071 -3070 -161 0
3071 -3070 161 0
3071 3070 -161 0
-3072 3071 162 0
-3072 -3071 -162 0
3072 -3071 162 0
3072 3071 -162 0
-3073 3072 163 0
-3073 -3072 -163 0
3073 -3072 163 0
3073 3072 -163 0
-3074 3073 165 0
-3074 -3073 -165 0
3074 -3073 165 0
3074 3073 -165 0
-3075 3074 167 0
-3075 -3074 -167 0
3075 -3074 167 0
3075 3074 -167 0
-3076 3075 169 0
-3076 -3075 -169 0
3076 -3075 169 0
3076 3075 -169 0
-3077 3076 170 0
-3077 -3076 -170 0
3077 -3076 170 0
3077 3076 -170 0
-3078 3077 172 0
-3078 -3077 -172 0
3078 -3077 172 0
3078 3077 -172 0
-3079 3078 173 0
-3079 -3078 -173 0
3079 -3078 173 0
3079 3078 -173 0
-3080 3079 175 0
-3080 -3079 -175 0
3080 -3079 175 0
3080 3079 -175 0
-3081 3080 177 0
-3081 -3080 -177 0
3081 -3080 177 0
3081 3080 -177 0
-3082 3081 179 0
-3082 -3081 -179 0
3082 -3081 179 0
3082 3081 -179 0
-3083 3082 181 0
-3083 -3082 -181 0
3083 -3082 181 0
3083 3082 -181 0
-3084 3083 182 0
-3084 -3083 -182 0
3084 -3083 182 0
3084 3083 -182 0
-3085 3084 186 0
-3085 -3084 -186 0
3085 -3084 186 0
3085 3084 -186 0
-3086 3085 187 0
-3086 -3085 -187 0
3086 -3085 187 0
3086 3085 -187 0
-3087 3086 188 0
-3087 -3086 -188 0
3087 -3086 188 0
3087 3086 -188 0
-3088 3087 192 0
-3088 -3087 -192 0
3088 -3087 192 0
3088 3087 -192 0
-3089 3088 193 0
-3089 -3088 -193 0
3089 -3088 193 0
3089 3088 -193 0
-3090 3089 197 0
-3090 -3089 -197 0
3090 -3089 197 0
3090 3089 -197 0
-3091 3090 198 0
-3091 -3090 -198 0
3091 -3090 198 0
3091 3090 -198 0
-3092 3091 200 0
-3092 -3091 -200 0
3092 -3091 200 0
3092 3091 -200 0
-3093 3092 203 0
-3093 -3092 -203 0
3093 -3092 203 0
3093 3092 -203 0
-3094 3093 207 0
-3094 -3093 -207 0
3094 -3093 207 0
3094 3093 -207 0
-3095 3094 210 0
-3095 -3094 -210 0
3095 -3094 210 0
3095 3094 -210 0
-3095 0
-3096 53 54 0
-3096 -53 -54 0
3096 -53 54 0
3096 53 -54 0
-3097 3096 58 0
-3097 -3096 -58 0
3097 -3096 58 0
3097 3096 -58 0
-3098 3097 60 0
-3098 -3097 -60 0
3098 -3097 60 0
3098 3097 -60 0
-3099 3098 63 0
-3099 -3098 -63 0
3099 -3098 63 0
3099 3098 -63 0
-3100 3099 64 0
-3100 -3099 -64 0
3100 -3099 64 0
3100 3099 -64 0
-3101 3100 65 0
-3101 -3100 -65 0
3101 -3100 65 0
3101 3100 -65 0
-3102 3101 66 0
-3102 -3101 -66 0
3102 -3101 66 0
3102 3101 -66 0
-3103 3102 69 0
-3103 -3102 -69 0
3103 -3102 69 0
3103 3102 -69 0
-3104 3103 71 0
-3104 -3103 -71 0
3104 -3103 71 0
3104 3103 -71 0
-3105 3104 74 0
-3105 -3104 -74 0
3105 -3104 74 0
3105 3104 -74 0
-3106 3105 75 0
-3106 -3105 -75 0
3106 -3105 75 0
3106 3105 -75 0
-3107 3106 77 0
-3107 -3106 -77 0
3107 -3106 77 0
3107 3106 -77 0
-3108 3107 78 0
-3108 -3107 -78 0
3108 -3107 78 0
3108 3107 -78 0
-3109 3108 79 0
-3109 -3108 -79 0
3109 -3108 79 0
3109 3108 -79 0
-3110 3109 82 0
-3110 -3109 -82 0
3110 -3109 82 0
3110 3109 -82 0
-3111 3110 85 0
-3111 -3110 -85 0
3111 -3110 85 0
3111 3110 -85 0
-3112 3111 87 0
-3112 -3111 -87 0
3112 -3111 87 0
3112 3111 -87 0
-3113 3112 88 0
-3113 -3112 -88 0
3113 -3112 88 0
3113 3112 -88 0
-3114 3113 90 0
-3114 -3113 -90 0
3114 -3113 90 0
3114 3113 -90 0
-3115 3114 91 0
-3115 -3114 -91 0
3115 -3114 91 0
3115 3114 -91 0
-3116 3115 94 0
-3116 -3115 -94 0
3116 -3115 94 0
3116 3115 -94 0
-3117 3116 97 0
-3117 -3116 -97 0
3117 -3116 97 0
3117 3116 -97 0
-3118 3117 98 0
-3118 -3117 -98 0
3118 -3117 98 0
3118 3117 -98 0
-3119 3118 100 0
-3119 -3118 -100 0
3119 -3118 100 0
3119 3118 -100 0
-3120 3119 101 0
-3120 -3119 -101 0
3120 -3119 101 0
3120 3119 -101 0
-3121 3120 103 0
-3121 -3120 -103 0
3121 -3120 103 0
3121 3120 -103 0
-3122 3121 104 0
-3122 -3121 -104 0
3122 -3121 104 0
3122 3121 -104 0
-3123 3122 105 0
-3123 -3122 -105 0
3123 -3122 105 0
3123 3122 -105 0
-3124 3123 107 0
-3124 -3123 -107 0
3124 -3123 107 0
3124 3123 -107 0
-3125 3124 158 0
-3125 -3124 -158 0
3125 -3124 158 0
3125 3124 -158 0
-3126 3125 161 0
-3126 -3125 -161 0
3126 -3125 161 0
3126 3125 -161 0
-3127 3126 163 0
-3127 -3126 -163 0
3127 -3126 163 0
3127 3126 -163 0
-3128 3127 164 0
-3128 -3127 -164 0
3128 -3127 164 0
3128 3127 -164 0
-3129 3128 165 0
-3129 -3128 -165 0
3129 -3128 165 0
3129 3128 -165 0
-3130 3129 166 0
-3130 -3129 -166 0
3130 -3129 166 0
3130 3129 -166 0
-3131 3130 167 0
-3131 -3130 -167 0
3131 -3130 167 0
3131 3130 -167 0
-3132 3131 168 0
-3132 -3131 -168 0
3132 -3131 168 0
3132 3131 -168 0
-3133 3132 169 0
-3133 -3132 -169 0
3133 -3132 169 0
3133 3132 -169 0
-3134 3133 171 0
-3134 -3133 -171 0
3134 -3133 171 0
3134 3133 -171 0
-3135 3134 172 0
-3135 -3134 -172 0
3135 -3134 172 0
3135 3134 -172 0
-3136 3135 174 0
-3136 -3135 -174 0
3136 -3135 174 0
3136 3135 -174 0
-3137 3136 175 0
-3137 -3136 -175 0
3137 -3136 175 0
3137 3136 -175 0
-3138 3137 176 0
-3138 -3137 -176 0
3138 -3137 176 0
3138 3137 -176 0
-3139 3138 177 0
-3139 -3138 -177 0
3139 -3138 177 0
3139 3138 -177 0
-3140 3139 178 0
-3140 -3139 -178 0
3140 -3139 178 0
3140 3139 -178 0
-3141 3140 179 0
-3141 -3140 -179 0
3141 -3140 179 0
3141 3140 -179 0
-3142 3141 180 0
-3142 -3141 -180 0
3142 -3141 180 0
3142 3141 -180 0
-3143 3142 183 0
-3143 -3142 -183 0
3143 -3142 183 0
3143 3142 -183 0
-3144 3143 186 0
-3144 -3143 -186 0
3144 -3143 186 0
3144 3143 -186 0
-3145 3144 189 0
-3145 -3144 -189 0
3145 -3144 189 0
3145 3144 -189 0
-3146 3145 192 0
-3146 -3145 -192 0
3146 -3145 192 0
3146 3145 -192 0
-3147 3146 194 0
-3147 -3146 -194 0
3147 -3146 194 0
3147 3146 -194 0
-3148 3147 197 0
-3148 -3147 -197 0
3148 -3147 197 0
3148 3147 -197 0
-3149 3148 200 0
-3149 -3148 -200 0
3149 -3148 200 0
3149 3148 -200 0
-3150 3149 201 0
-3150 -3149 -201 0
3150 -3149 201 0
3150 3149 -201 0
-3151 3150 203 0
-3151 -3150 -203 0
3151 -3150 203 0
3151 3150 -203 0
-3152 3151 204 0
-3152 -3151 -204 0
3152 -3151 204 0
3152 3151 -204 0
-3153 3152 205 0
-3153 -3152 -205 0
3153 -3152 205 0
3153 3152 -205 0
-3154 3153 207 0
-3154 -3153 -207 0
3154 -3153 207 0
3154 3153 -207 0
-3155 3154 208 0
-3155 -3154 -208 0
3155 -3154 208 0
3155 3154 -208 0
-3156 3155 210 0
-3156 -3155 -210 0
3156 -3155 210 0
3156 3155 -210 0
-3156 0
-3157 53 57 0
-3157 -53 -57 0
3157 -53 57 0
3157 53 -57 0
-3158 3157 58 0
-3158 -3157 -58 0
3158 -3157 58 0
3158 3157 -58 0
-3159 3158 59 0
-3159 -3158 -59 0
3159 -3158 59 0
3159 3158 -59 0
-3160 3159 60 0
-3160 -3159 -60 0
3160 -3159 60 0
3160 3159 -60 0
-3161 3160 61 0
-3161 -3160 -61 0
3161 -3160 61 0
3161 3160 -61 0
-3162 3161 63 0
-3162 -3161 -63 0
3162 -3161 63 0
3162 3161 -63 0
-3163 3162 64 0
-3163 -3162 -64 0
3163 -3162 64 0
3163 3162 -64 0
-3164 3163 65 0
-3164 -3163 -65 0
3164 -3163 65 0
3164 3163 -65 0
-3165 3164 69 0
-3165 -3164 -69 0
3165 -3164 69 0
3165 3164 -69 0
-3166 3165 71 0
-3166 -3165 -71 0
3166 -3165 71 0
3166 3165 -71 0
-3167 3166 72 0
-3167 -3166 -72 0
3167 -3166 72 0
3167 3166 -72 0
-3168 3167 74 0
-3168 -3167 -74 0
3168 -3167 74 0
3168 3167 -74 0
-3169 3168 75 0
-3169 -3168 -75 0
3169 -3168 75 0
3169 3168 -75 0
-3170 3169 77 0
-3170 -3169 -77 0
3170 -3169 77 0
3170 3169 -77 0
-3171 3170 78 0
-3171 -3170 -78 0
3171 -3170 78 0
3171 3170 -78 0
-3172 3171 81 0
-3172 -3171 -81 0
3172 -3171 81 0
3172 3171 -81 0
-3173 3172 84 0
-3173 -3172 -84 0
3173 -3172 84 0
3173 3172 -84 0
-3174 3173 86 0
-3174 -3173 -86 0
3174 -3173 86 0
3174 3173 -86 0
-3175 3174 87 0
-3175 -3174 -87 0
3175 -3174 87 0
3175 3174 -87 0
-3176 3175 89 0
-3176 -3175 -89 0
3176 -3175 89 0
3176 3175 -89 0
-3177 3176 90 0
-3177 -3176 -90 0
3177 -3176 90 0
3177 3176 -90 0
-3178 3177 92 0
-3178 -3177 -92 0
3178 -3177 92 0
3178 3177 -92 0
-3179 3178 93 0
-3179 -3178 -93 0
3179 -3178 93 0
3179 3178 -93 0
-3180 3179 95 0
-3180 -3179 -95 0
3180 -3179 95 0
3180 3179 -95 0
-3181 3180 96 0
-3181 -3180 -96 0
3181 -3180 96 0
3181 3180 -96 0
-3182 3181 97 0
-3182 -3181 -97 0
3182 -3181 97 0
3182 3181 -97 0
-3183 3182 99 0
-3183 -3182 -99 0
3183 -3182 99 0
3183 3182 -99 0
-3184 3183 101 0
-3184 -3183 -101 0
3184 -3183 101 0
3184 3183 -101 0
-3185 3184 108 0
-3185 -3184 -108 0
3185 -3184 108 0
3185 3184 -108 0
-3186 3185 159 0
-3186 -3185 -159 0
3186 -3185 159 0
3186 3185 -159 0
-3187 3186 162 0
-3187 -3186 -162 0
3187 -3186 162 0
3187 3186 -162 0
-3188 3187 163 0
-3188 -3187 -163 0
3188 -3187 163 0
3188 3187 -163 0
-3189 3188 164 0
-3189 -3188 -164 0
3189 -3188 164 0
3189 3188 -164 0
-3190 3189 165 0
-3190 -3189 -165 0
3190 -3189 165 0
3190 3189 -165 0
-3191 3190 166 0
-3191 -3190 -166 0
3191 -3190 166 0
3191 3190 -166 0
-3192 3191 167 0
-3192 -3191 -167 0
3192 -3191 167 0
3192 3191 -167 0
-3193 3192 168 0
-3193 -3192 -168 0
3193 -3192 168 0
3193 3192 -168 0
-3194 3193 169 0
-3194 -3193 -169 0
3194 -3193 169 0
3194 3193 -169 0
-3195 3194 170 0
-3195 -3194 -170 0
3195 -3194 170 0
3195 3194 -170 0
-3196 3195 172 0
-3196 -3195 -172 0
3196 -3195 172 0
3196 3195 -172 0
-3197 3196 173 0
-3197 -3196 -173 0
3197 -3196 173 0
3197 3196 -173 0
-3198 3197 175 0
-3198 -3197 -175 0
3198 -3197 175 0
3198 3197 -175 0
-3199 3198 176 0
-3199 -3198 -176 0
3199 -3198 176 0
3199 3198 -176 0
-3200 3199 177 0
-3200 -3199 -177 0
3200 -3199 177 0
3200 3199 -177 0
-3201 3200 178 0
-3201 -3200 -178 0
3201 -3200 178 0
3201 3200 -178 0
-3202 3201 179 0
-3202 -3201 -179 0
3202 -3201 179 0
3202 3201 -179 0
-3203 3202 180 0
-3203 -3202 -180 0
3203 -3202 180 0
3203 3202 -180 0
-3204 3203 181 0
-3204 -3203 -181 0
3204 -3203 181 0
3204 3203 -181 0
-3205 3204 184 0
-3205 -3204 -184 0
3205 -3204 184 0
3205 3204 -184 0
-3206 3205 187 0
-3206 -3205 -187 0
3206 -3205 187 0
3206 3205 -187 0
-3207 3206 190 0
-3207 -3206 -190 0
3207 -3206 190 0
3207 3206 -190 0
-3208 3207 195 0
-3208 -3207 -195 0
3208 -3207 195 0
3208 3207 -195 0
-3209 3208 198 0
-3209 -3208 -198 0
3209 -3208 198 0
3209 3208 -198 0
-3210 3209 199 0
-3210 -3209 -199 0
3210 -3209 199 0
3210 3209 -199 0
-3211 3210 201 0
-3211 -3210 -201 0
3211 -3210 201 0
3211 3210 -201 0
-3212 3211 202 0
-3212 -3211 -202 0
3212 -3211 202 0
3212 3211 -202 0
-3213 3212 204 0
-3213 -3212 -204 0
3213 -3212 204 0
3213 3212 -204 0
-3214 3213 205 0
-3214 -3213 -205 0
3214 -3213 205 0
3214 3213 -205 0
-3215 3214 206 0
-3215 -3214 -206 0
3215 -3214 206 0
3215 3214 -206 0
-3216 3215 208 0
-3216 -3215 -208 0
3216 -3215 208 0
3216 3215 -208 0
-3217 3216 209 0
-3217 -3216 -209 0
3217 -3216 209 0
3217 3216 -209 0
-3217 0
-3218 53 54 0
-3218 -53 -54 0
3218 -53 54 0
3218 53 -54 0
-3219 3218 57 0
-3219 -3218 -57 0
3219 -3218 57 0
3219 3218 -57 0
-3220 3219 58 0
-3220 -3219 -58 0
3220 -3219 58 0
3220 3219 -58 0
-3221 3220 61 0
-3221 -3220 -61 0
3221 -3220 61 0
3221 3220 -61 0
-3222 3221 63 0
-3222 -3221 -63 0
3222 -3221 63 0
3222 3221 -63 0
-3223 3222 65 0
-3223 -3222 -65 0
3223 -3222 65 0
3223 3222 -65 0
-3224 3223 66 0
-3224 -3223 -66 0
3224 -3223 66 0
3224 3223 -66 0
-3225 3224 69 0
-3225 -3224 -69 0
3225 -3224 69 0
3225 3224 -69 0
-3226 3225 70 0
-3226 -3225 -70 0
3226 -3225 70 0
3226 3225 -70 0
-3227 3226 72 0
-3227 -3226 -72 0
3227 -3226 72 0
3227 3226 -72 0
-3228 3227 74 0
-3228 -3227 -74 0
3228 -3227 74 0
3228 3227 -74 0
-3229 3228 77 0
-3229 -3228 -77 0
3229 -3228 77 0
3229 3228 -77 0
-3230 3229 80 0
-3230 -3229 -80 0
3230 -3229 80 0
3230 3229 -80 0
-3231 3230 82 0
-3231 -3230 -82 0
3231 -3230 82 0
3231 3230 -82 0
-3232 3231 84 0
-3232 -3231 -84 0
3232 -3231 84 0
3232 3231 -84 0
-3233 3232 94 0
-3233 -3232 -94 0
3233 -3232 94 0
3233 3232 -94 0
-3234 3233 95 0
-3234 -3233 -95 0
3234 -3233 95 0
3234 3233 -95 0
-3235 3234 96 0
-3235 -3234 -96 0
3235 -3234 96 0
3235 3234 -96 0
-3236 3235 97 0
-3236 -3235 -97 0
3236 -3235 97 0
3236 3235 -97 0
-3237 3236 98 0
-3237 -3236 -98 0
3237 -3236 98 0
3237 3236 -98 0
-3238 3237 99 0
-3238 -3237 -99 0
3238 -3237 99 0
3238 3237 -99 0
-3239 3238 103 0
-3239 -3238 -103 0
3239 -3238 103 0
3239 3238 -103 0
-3240 3239 105 0
-3240 -3239 -105 0
3240 -3239 105 0
3240 3239 -105 0
-3241 3240 160 0
-3241 -3240 -160 0
3241 -3240 160 0
3241 3240 -160 0
-3242 3241 161 0
-3242 -3241 -161 0
3242 -3241 161 0
3242 3241 -161 0
-3243 3242 162 0
-3243 -3242 -162 0
3243 -3242 162 0
3243 3242 -162 0
-3244 3243 164 0
-3244 -3243 -164 0
3244 -3243 164 0
3244 3243 -164 0
-3245 3244 166 0
-3245 -3244 -166 0
3245 -3244 166 0
3245 3244 -166 0
-3246 3245 168 0
-3246 -3245 -168 0
3246 -3245 168 0
3246 3245 -168 0
-3247 3246 169 0
-3247 -3246 -169 0
3247 -3246 169 0
3247 3246 -169 0
-3248 3247 171 0
-3248 -3247 -171 0
3248 -3247 171 0
3248 3247 -171 0
-3249 3248 172 0
-3249 -3248 -172 0
3249 -3248 172 0
3249 3248 -172 0
-3250 3249 174 0
-3250 -3249 -174 0
3250 -3249 174 0
3250 3249 -174 0
-3251 3250 176 0
-3251 -3250 -176 0
3251 -3250 176 0
3251 3250 -176 0
-3252 3251 178 0
-3252 -3251 -178 0
3252 -3251 178 0
3252 3251 -178 0
-3253 3252 180 0
-3253 -3252 -180 0
3253 -3252 180 0
3253 3252 -180 0
-3254 3253 181 0
-3254 -3253 -181 0
3254 -3253 181 0
3254 3253 -181 0
-3255 3254 185 0
-3255 -3254 -185 0
3255 -3254 185 0
3255 3254 -185 0
-3256 3255 186 0
-3256 -3255 -186 0
3256 -3255 186 0
3256 3255 -186 0
-3257 3256 187 0
-3257 -3256 -187 0
3257 -3256 187 0
3257 3256 -187 0
-3258 3257 191 0
-3258 -3257 -191 0
3258 -3257 191 0
3258 3257 -191 0
-3259 3258 192 0
-3259 -3258 -192 0
3259 -3258 192 0
3259 3258 -192 0
-3260 3259 196 0
-3260 -3259 -196 0
3260 -3259 196 0
3260 3259 -196 0
-3261 3260 197 0
-3261 -3260 -197 0
3261 -3260 197 0
3261 3260 -197 0
-3262 3261 198 0
-3262 -3261 -198 0
3262 -3261 198 0
3262 3261 -198 0
-3263 3262 199 0
-3263 -3262 -199 0
3263 -3262 199 0
3263 3262 -199 0
-3264 3263 202 0
-3264 -3263 -202 0
3264 -3263 202 0
3264 3263 -202 0
-3265 3264 206 0
-3265 -3264 -206 0
3265 -3264 206 0
3265 3264 -206 0
-3266 3265 209 0
-3266 -3265 -209 0
3266 -3265 209 0
3266 3265 -209 0
-3266 0
-3267 1 54 0
-3267 -1 -54 0
3267 -1 54 0
3267 1 -54 0
-3268 3267 60 0
-3268 -3267 -60 0
3268 -3267 60 0
3268 3267 -60 0
-3269 3268 61 0
-3269 -3268 -61 0
3269 -3268 61 0
3269 3268 -61 0
-3270 3269 62 0
-3270 -3269 -62 0
3270 -3269 62 0
3270 3269 -62 0
-3271 3270 63 0
-3271 -3270 -63 0
3271 -3270 63 0
3271 3270 -63 0
-3272 3271 64 0
-3272 -3271 -64 0
3272 -3271 64 0
3272 3271 -64 0
-3273 3272 65 0
-3273 -3272 -65 0
3273 -3272 65 0
3273 3272 -65 0
-3274 3273 66 0
-3274 -3273 -66 0
3274 -3273 66 0
3274 3273 -66 0
-3275 3274 67 0
-3275 -3274 -67 0
3275 -3274 67 0
3275 3274 -67 0
-3276 3275 69 0
-3276 -3275 -69 0
3276 -3275 69 0
3276 3275 -69 0
-3277 3276 71 0
-3277 -3276 -71 0
3277 -3276 71 0
3277 3276 -71 0
-3278 3277 75 0
-3278 -3277 -75 0
3278 -3277 75 0
3278 3277 -75 0
-3279 3278 76 0
-3279 -3278 -76 0
3279 -3278 76 0
3279 3278 -76 0
-3280 3279 78 0
-3280 -3279 -78 0
3280 -3279 78 0
3280 3279 -78 0
-3281 3280 79 0
-3281 -3280 -79 0
3281 -3280 79 0
3281 3280 -79 0
-3282 3281 80 0
-3282 -3281 -80 0
3282 -3281 80 0
3282 3281 -80 0
-3283 3282 82 0
-3283 -3282 -82 0
3283 -3282 82 0
3283 3282 -82 0
-3284 3283 83 0
-3284 -3283 -83 0
3284 -3283 83 0
3284 3283 -83 0
-3285 3284 86 0
-3285 -3284 -86 0
3285 -3284 86 0
3285 3284 -86 0
-3286 3285 87 0
-3286 -3285 -87 0
3286 -3285 87 0
3286 3285 -87 0
-3287 3286 89 0
-3287 -3286 -89 0
3287 -3286 89 0
3287 3286 -89 0
-3288 3287 90 0
-3288 -3287 -90 0
3288 -3287 90 0
3288 3287 -90 0
-3289 3288 92 0
-3289 -3288 -92 0
3289 -3288 92 0
3289 3288 -92 0
-3290 3289 95 0
-3290 -3289 -95 0
3290 -3289 95 0
3290 3289 -95 0
-3291 3290 97 0
-3291 -3290 -97 0
3291 -3290 97 0
3291 3290 -97 0
-3292 3291 101 0
-3292 -3291 -101 0
3292 -3291 101 0
3292 3291 -101 0
-3293 3292 102 0
-3293 -3292 -102 0
3293 -3292 102 0
3293 3292 -102 0
-3294 3293 107 0
-3294 -3293 -107 0
3294 -3293 107 0
3294 3293 -107 0
-3295 3294 108 0
-3295 -3294 -108 0
3295 -3294 108 0
3295 3294 -108 0
-3295 0
-3296 2 53 0
-3296 -2 -53 0
3296 -2 53 0
3296 2 -53 0
-3297 3296 54 0
-3297 -3296 -54 0
3297 -3296 54 0
3297 3296 -54 0
-3298 3297 57 0
-3298 -3297 -57 0
3298 -3297 57 0
3298 3297 -57 0
-3299 3298 58 0
-3299 -3298 -58 0
3299 -3298 58 0
3299 3298 -58 0
-3300 3299 60 0
-3300 -3299 -60 0
3300 -3299 60 0
3300 3299 -60 0
-3301 3300 61 0
-3301 -3300 -61 0
3301 -3300 61 0
3301 3300 -61 0
-3302 3301 62 0
-3302 -3301 -62 0
3302 -3301 62 0
3302 3301 -62 0
-3303 3302 64 0
-3303 -3302 -64 0
3303 -3302 64 0
3303 3302 -64 0
-3304 3303 65 0
-3304 -3303 -65 0
3304 -3303 65 0
3304 3303 -65 0
-3305 3304 68 0
-3305 -3304 -68 0
3305 -3304 68 0
3305 3304 -68 0
-3306 3305 69 0
-3306 -3305 -69 0
3306 -3305 69 0
3306 3305 -69 0
-3307 3306 71 0
-3307 -3306 -71 0
3307 -3306 71 0
3307 3306 -71 0
-3308 3307 72 0
-3308 -3307 -72 0
3308 -3307 72 0
3308 3307 -72 0
-3309 3308 74 0
-3309 -3308 -74 0
3309 -3308 74 0
3309 3308 -74 0
-3310 3309 103 0
-3310 -3309 -103 0
3310 -3309 103 0
3310 3309 -103 0
-3311 3310 104 0
-3311 -3310 -104 0
3311 -3310 104 0
3311 3310 -104 0
-3312 3311 105 0
-3312 -3311 -105 0
3312 -3311 105 0
3312 3311 -105 0
-3313 3312 106 0
-3313 -3312 -106 0
3313 -3312 106 0
3313 3312 -106 0
-3314 3313 108 0
-3314 -3313 -108 0
3314 -3313 108 0
3314 3313 -108 0
-3314 0
-3315 3 53 0
-3315 -3 -53 0
3315 -3 53 0
3315 3 -53 0
-3316 3315 57 0
-3316 -3315 -57 0
3316 -3315 57 0
3316 3315 -57 0
-3317 3316 59 0
-3317 -3316 -59 0
3317 -3316 59 0
3317 3316 -59 0
-3318 3317 60 0
-3318 -3317 -60 0
3318 -3317 60 0
3318 3317 -60 0
-3319 3318 62 0
-3319 -3318 -62 0
3319 -3318 62 0
3319 3318 -62 0
-3320 3319 65 0
-3320 -3319 -65 0
3320 -3319 65 0
3320 3319 -65 0
-3321 3320 67 0
-3321 -3320 -67 0
3321 -3320 67 0
3321 3320 -67 0
-3322 3321 71 0
-3322 -3321 -71 0
3322 -3321 71 0
3322 3321 -71 0
-3323 3322 72 0
-3323 -3322 -72 0
3323 -3322 72 0
3323 3322 -72 0
-3324 3323 73 0
-3324 -3323 -73 0
3324 -3323 73 0
3324 3323 -73 0
-3325 3324 74 0
-3325 -3324 -74 0
3325 -3324 74 0
3325 3324 -74 0
-3326 3325 75 0
-3326 -3325 -75 0
3326 -3325 75 0
3326 3325 -75 0
-3327 3326 76 0
-3327 -3326 -76 0
3327 -3326 76 0
3327 3326 -76 0
-3328 3327 77 0
-3328 -3327 -77 0
3328 -3327 77 0
3328 3327 -77 0
-3329 3328 80 0
-3329 -3328 -80 0
3329 -3328 80 0
3329 3328 -80 0
-3330 3329 81 0
-3330 -3329 -81 0
3330 -3329 81 0
3330 3329 -81 0
-3331 3330 83 0
-3331 -3330 -83 0
3331 -3330 83 0
3331 3330 -83 0
-3332 3331 84 0
-3332 -3331 -84 0
3332 -3331 84 0
3332 3331 -84 0
-3333 3332 85 0
-3333 -3332 -85 0
3333 -3332 85 0
3333 3332 -85 0
-3334 3333 87 0
-3334 -3333 -87 0
3334 -3333 87 0
3334 3333 -87 0
-3335 3334 88 0
-3335 -3334 -88 0
3335 -3334 88 0
3335 3334 -88 0
-3336 3335 90 0
-3336 -3335 -90 0
3336 -3335 90 0
3336 3335 -90 0
-3337 3336 93 0
-3337 -3336 -93 0
3337 -3336 93 0
3337 3336 -93 0
-3338 3337 96 0
-3338 -3337 -96 0
3338 -3337 96 0
3338 3337 -96 0
-3339 3338 97 0
-3339 -3338 -97 0
3339 -3338 97 0
3339 3338 -97 0
-3340 3339 98 0
-3340 -3339 -98 0
3340 -3339 98 0
3340 3339 -98 0
-3341 3340 102 0
-3341 -3340 -102 0
3341 -3340 102 0
3341 3340 -102 0
-3342 3341 103 0
-3342 -3341 -103 0
3342 -3341 103 0
3342 3341 -103 0
-3343 3342 107 0
-3343 -3342 -107 0
3343 -3342 107 0
3343 3342 -107 0
-3343 0
-3344 4 54 0
-3344 -4 -54 0
3344 -4 54 0
3344 4 -54 0
-3345 3344 57 0
-3345 -3344 -57 0
3345 -3344 57 0
3345 3344 -57 0
-3346 3345 61 0
-3346 -3345 -61 0
3346 -3345 61 0
3346 3345 -61 0
-3347 3346 62 0
-3347 -3346 -62 0
3347 -3346 62 0
3347 3346 -62 0
-3348 3347 63 0
-3348 -3347 -63 0
3348 -3347 63 0
3348 3347 -63 0
-3349 3348 64 0
-3349 -3348 -64 0
3349 -3348 64 0
3349 3348 -64 0
-3350 3349 65 0
-3350 -3349 -65 0
3350 -3349 65 0
3350 3349 -65 0
-3351 3350 66 0
-3351 -3350 -66 0
3351 -3350 66 0
3351 3350 -66 0
-3352 3351 67 0
-3352 -3351 -67 0
3352 -3351 67 0
3352 3351 -67 0
-3353 3352 69 0
-3353 -3352 -69 0
3353 -3352 69 0
3353 3352 -69 0
-3354 3353 71 0
-3354 -3353 -71 0
3354 -3353 71 0
3354 3353 -71 0
-3355 3354 73 0
-3355 -3354 -73 0
3355 -3354 73 0
3355 3354 -73 0
-3356 3355 74 0
-3356 -3355 -74 0
3356 -3355 74 0
3356 3355 -74 0
-3357 3356 77 0
-3357 -3356 -77 0
3357 -3356 77 0
3357 3356 -77 0
-3358 3357 80 0
-3358 -3357 -80 0
3358 -3357 80 0
3358 3357 -80 0
-3359 3358 81 0
-3359 -3358 -81 0
3359 -3358 81 0
3359 3358 -81 0
-3360 3359 83 0
-3360 -3359 -83 0
3360 -3359 83 0
3360 3359 -83 0
-3361 3360 84 0
-3361 -3360 -84 0
3361 -3360 84 0
3361 3360 -84 0
-3362 3361 85 0
-3362 -3361 -85 0
3362 -3361 85 0
3362 3361 -85 0
-3363 3362 87 0
-3363 -3362 -87 0
3363 -3362 87 0
3363 3362 -87 0
-3364 3363 88 0
-3364 -3363 -88 0
3364 -3363 88 0
3364 3363 -88 0
-3365 3364 90 0
-3365 -3364 -90 0
3365 -3364 90 0
3365 3364 -90 0
-3366 3365 93 0
-3366 -3365 -93 0
3366 -3365 93 0
3366 3365 -93 0
-3367 3366 96 0
-3367 -3366 -96 0
3367 -3366 96 0
3367 3366 -96 0
-3368 3367 99 0
-3368 -3367 -99 0
3368 -3367 99 0
3368 3367 -99 0
-3369 3368 100 0
-3369 -3368 -100 0
3369 -3368 100 0
3369 3368 -100 0
-3370 3369 101 0
-3370 -3369 -101 0
3370 -3369 101 0
3370 3369 -101 0
-3371 3370 105 0
-3371 -3370 -105 0
3371 -3370 105 0
3371 3370 -105 0
-3372 3371 107 0
-3372 -3371 -107 0
3372 -3371 107 0
3372 3371 -107 0
-3372 0
-3373 5 53 0
-3373 -5 -53 0
3373 -5 53 0
3373 5 -53 0
-3374 3373 54 0
-3374 -3373 -54 0
3374 -3373 54 0
3374 3373 -54 0
-3375 3374 58 0
-3375 -3374 -58 0
3375 -3374 58 0
3375 3374 -58 0
-3376 3375 77 0
-3376 -3375 -77 0
3376 -3375 77 0
3376 3375 -77 0
-3377 3376 107 0
-3377 -3376 -107 0
3377 -3376 107 0
3377 3376 -107 0
-3377 0
-3378 6 53 0
-3378 -6 -53 0
3378 -6 53 0
3378 6 -53 0
-3379 3378 59 0
-3379 -3378 -59 0
3379 -3378 59 0
3379 3378 -59 0
-3380 3379 61 0
-3380 -3379 -61 0
3380 -3379 61 0
3380 3379 -61 0
-3381 3380 62 0
-3381 -3380 -62 0
3381 -3380 62 0
3381 3380 -62 0
-3382 3381 63 0
-3382 -3381 -63 0
3382 -3381 63 0
3382 3381 -63 0
-3383 3382 64 0
-3383 -3382 -64 0
3383 -3382 64 0
3383 3382 -64 0
-3384 3383 65 0
-3384 -3383 -65 0
3384 -3383 65 0
3384 3383 -65 0
-3385 3384 66 0
-3385 -3384 -66 0
3385 -3384 66 0
3385 3384 -66 0
-3386 3385 68 0
-3386 -3385 -68 0
3386 -3385 68 0
3386 3385 -68 0
-3387 3386 70 0
-3387 -3386 -70 0
3387 -3386 70 0
3387 3386 -70 0
-3388 3387 72 0
-3388 -3387 -72 0
3388 -3387 72 0
3388 3387 -72 0
-3389 3388 74 0
-3389 -3388 -74 0
3389 -3388 74 0
3389 3388 -74 0
-3390 3389 75 0
-3390 -3389 -75 0
3390 -3389 75 0
3390 3389 -75 0
-3391 3390 77 0
-3391 -3390 -77 0
3391 -3390 77 0
3391 3390 -77 0
-3392 3391 79 0
-3392 -3391 -79 0
3392 -3391 79 0
3392 3391 -79 0
-3393 3392 81 0
-3393 -3392 -81 0
3393 -3392 81 0
3393 3392 -81 0
-3394 3393 82 0
-3394 -3393 -82 0
3394 -3393 82 0
3394 3393 -82 0
-3395 3394 84 0
-3395 -3394 -84 0
3395 -3394 84 0
3395 3394 -84 0
-3396 3395 85 0
-3396 -3395 -85 0
3396 -3395 85 0
3396 3395 -85 0
-3397 3396 86 0
-3397 -3396 -86 0
3397 -3396 86 0
3397 3396 -86 0
-3398 3397 88 0
-3398 -3397 -88 0
3398 -3397 88 0
3398 3397 -88 0
-3399 3398 89 0
-3399 -3398 -89 0
3399 -3398 89 0
3399 3398 -89 0
-3400 3399 91 0
-3400 -3399 -91 0
3400 -3399 91 0
3400 3399 -91 0
-3401 3400 94 0
-3401 -3400 -94 0
3401 -3400 94 0
3401 3400 -94 0
-3402 3401 100 0
-3402 -3401 -100 0
3402 -3401 100 0
3402 3401 -100 0
-3403 3402 101 0
-3403 -3402 -101 0
3403 -3402 101 0
3403 3402 -101 0
-3404 3403 102 0
-3404 -3403 -102 0
3404 -3403 102 0
3404 3403 -102 0
-3405 3404 106 0
-3405 -3404 -106 0
3405 -3404 106 0
3405 3404 -106 0
-3406 3405 107 0
-3406 -3405 -107 0
3406 -3405 107 0
3406 3405 -107 0
-3406 0
-3407 7 53 0
-3407 -7 -53 0
3407 -7 53 0
3407 7 -53 0
-3408 3407 60 0
-3408 -3407 -60 0
3408 -3407 60 0
3408 3407 -60 0
-3409 3408 61 0
-3409 -3408 -61 0
3409 -3408 61 0
3409 3408 -61 0
-3410 3409 62 0
-3410 -3409 -62 0
3410 -3409 62 0
3410 3409 -62 0
-3411 3410 63 0
-3411 -3410 -63 0
3411 -3410 63 0
3411 3410 -63 0
-3412 3411 64 0
-3412 -3411 -64 0
3412 -3411 64 0
3412 3411 -64 0
-3413 3412 65 0
-3413 -3412 -65 0
3413 -3412 65 0
3413 3412 -65 0
-3414 3413 67 0
-3414 -3413 -67 0
3414 -3413 67 0
3414 3413 -67 0
-3415 3414 69 0
-3415 -3414 -69 0
3415 -3414 69 0
3415 3414 -69 0
-3416 3415 71 0
-3416 -3415 -71 0
3416 -3415 71 0
3416 3415 -71 0
-3417 3416 73 0
-3417 -3416 -73 0
3417 -3416 73 0
3417 3416 -73 0
-3418 3417 74 0
-3418 -3417 -74 0
3418 -3417 74 0
3418 3417 -74 0
-3419 3418 79 0
-3419 -3418 -79 0
3419 -3418 79 0
3419 3418 -79 0
-3420 3419 91 0
-3420 -3419 -91 0
3420 -3419 91 0
3420 3419 -91 0
-3421 3420 92 0
-3421 -3420 -92 0
3421 -3420 92 0
3421 3420 -92 0
-3422 3421 93 0
-3422 -3421 -93 0
3422 -3421 93 0
3422 3421 -93 0
-3423 3422 94 0
-3423 -3422 -94 0
3423 -3422 94 0
3423 3422 -94 0
-3424 3423 95 0
-3424 -3423 -95 0
3424 -3423 95 0
3424 3423 -95 0
-3425 3424 96 0
-3425 -3424 -96 0
3425 -3424 96 0
3425 3424 -96 0
-3426 3425 98 0
-3426 -3425 -98 0
3426 -3425 98 0
3426 3425 -98 0
-3427 3426 100 0
-3427 -3426 -100 0
3427 -3426 100 0
3427 3426 -100 0
-3428 3427 102 0
-3428 -3427 -102 0
3428 -3427 102 0
3428 3427 -102 0
-3429 3428 103 0
-3429 -3428 -103 0
3429 -3428 103 0
3429 3428 -103 0
-3430 3429 106 0
-3430 -3429 -106 0
3430 -3429 106 0
3430 3429 -106 0
-3431 3430 108 0
-3431 -3430 -108 0
3431 -3430 108 0
3431 3430 -108 0
-3431 0
-3432 8 54 0
-3432 -8 -54 0
3432 -8 54 0
3432 8 -54 0
-3433 3432 57 0
-3433 -3432 -57 0
3433 -3432 57 0
3433 3432 -57 0
-3434 3433 58 0
-3434 -3433 -58 0
3434 -3433 58 0
3434 3433 -58 0
-3435 3434 60 0
-3435 -3434 -60 0
3435 -3434 60 0
3435 3434 -60 0
-3436 3435 61 0
-3436 -3435 -61 0
3436 -3435 61 0
3436 3435 -61 0
-3437 3436 63 0
-3437 -3436 -63 0
3437 -3436 63 0
3437 3436 -63 0
-3438 3437 66 0
-3438 -3437 -66 0
3438 -3437 66 0
3438 3437 -66 0
-3439 3438 69 0
-3439 -3438 -69 0
3439 -3438 69 0
3439 3438 -69 0
-3440 3439 70 0
-3440 -3439 -70 0
3440 -3439 70 0
3440 3439 -70 0
-3441 3440 71 0
-3441 -3440 -71 0
3441 -3440 71 0
3441 3440 -71 0
-3442 3441 73 0
-3442 -3441 -73 0
3442 -3441 73 0
3442 3441 -73 0
-3443 3442 74 0
-3443 -3442 -74 0
3443 -3442 74 0
3443 3442 -74 0
-3444 3443 76 0
-3444 -3443 -76 0
3444 -3443 76 0
3444 3443 -76 0
-3445 3444 78 0
-3445 -3444 -78 0
3445 -3444 78 0
3445 3444 -78 0
-3446 3445 79 0
-3446 -3445 -79 0
3446 -3445 79 0
3446 3445 -79 0
-3447 3446 82 0
-3447 -3446 -82 0
3447 -3446 82 0
3447 3446 -82 0
-3448 3447 83 0
-3448 -3447 -83 0
3448 -3447 83 0
3448 3447 -83 0
-3449 3448 86 0
-3449 -3448 -86 0
3449 -3448 86 0
3449 3448 -86 0
-3450 3449 87 0
-3450 -3449 -87 0
3450 -3449 87 0
3450 3449 -87 0
-3451 3450 89 0
-3451 -3450 -89 0
3451 -3450 89 0
3451 3450 -89 0
-3452 3451 90 0
-3452 -3451 -90 0
3452 -3451 90 0
3452 3451 -90 0
-3453 3452 92 0
-3453 -3452 -92 0
3453 -3452 92 0
3453 3452 -92 0
-3454 3453 95 0
-3454 -3453 -95 0
3454 -3453 95 0
3454 3453 -95 0
-3455 3454 98 0
-3455 -3454 -98 0
3455 -3454 98 0
3455 3454 -98 0
-3456 3455 99 0
-3456 -3455 -99 0
3456 -3455 99 0
3456 3455 -99 0
-3457 3456 100 0
-3457 -3456 -100 0
3457 -3456 100 0
3457 3456 -100 0
-3458 3457 103 0
-3458 -3457 -103 0
3458 -3457 103 0
3458 3457 -103 0
-3459 3458 105 0
-3459 -3458 -105 0
3459 -3458 105 0
3459 3458 -105 0
-3460 3459 108 0
-3460 -3459 -108 0
3460 -3459 108 0
3460 3459 -108 0
-3460 0
-3461 9 53 0
-3461 -9 -53 0
3461 -9 53 0
3461 9 -53 0
-3462 3461 54 0
-3462 -3461 -54 0
3462 -3461 54 0
3462 3461 -54 0
-3463 3462 57 0
-3463 -3462 -57 0
3463 -3462 57 0
3463 3462 -57 0
-3464 3463 59 0
-3464 -3463 -59 0
3464 -3463 59 0
3464 3463 -59 0
-3465 3464 60 0
-3465 -3464 -60 0
3465 -3464 60 0
3465 3464 -60 0
-3466 3465 61 0
-3466 -3465 -61 0
3466 -3465 61 0
3466 3465 -61 0
-3467 3466 62 0
-3467 -3466 -62 0
3467 -3466 62 0
3467 3466 -62 0
-3468 3467 63 0
-3468 -3467 -63 0
3468 -3467 63 0
3468 3467 -63 0
-3469 3468 64 0
-3469 -3468 -64 0
3469 -3468 64 0
3469 3468 -64 0
-3470 3469 66 0
-3470 -3469 -66 0
3470 -3469 66 0
3470 3469 -66 0
-3471 3470 69 0
-3471 -3470 -69 0
3471 -3470 69 0
3471 3470 -69 0
-3472 3471 72 0
-3472 -3471 -72 0
3472 -3471 72 0
3472 3471 -72 0
-3473 3472 75 0
-3473 -3472 -75 0
3473 -3472 75 0
3473 3472 -75 0
-3474 3473 76 0
-3474 -3473 -76 0
3474 -3473 76 0
3474 3473 -76 0
-3475 3474 81 0
-3475 -3474 -81 0
3475 -3474 81 0
3475 3474 -81 0
-3476 3475 97 0
-3476 -3475 -97 0
3476 -3475 97 0
3476 3475 -97 0
-3477 3476 98 0
-3477 -3476 -98 0
3477 -3476 98 0
3477 3476 -98 0
-3478 3477 99 0
-3478 -3477 -99 0
3478 -3477 99 0
3478 3477 -99 0
-3479 3478 100 0
-3479 -3478 -100 0
3479 -3478 100 0
3479 3478 -100 0
-3480 3479 101 0
-3480 -3479 -101 0
3480 -3479 101 0
3480 3479 -101 0
-3481 3480 102 0
-3481 -3480 -102 0
3481 -3480 102 0
3481 3480 -102 0
-3482 3481 103 0
-3482 -3481 -103 0
3482 -3481 103 0
3482 3481 -103 0
-3483 3482 105 0
-3483 -3482 -105 0
3483 -3482 105 0
3483 3482 -105 0
-3483 0
-3484 10 53 0
-3484 -10 -53 0
3484 -10 53 0
3484 10 -53 0
-3485 3484 57 0
-3485 -3484 -57 0
3485 -3484 57 0
3485 3484 -57 0
-3486 3485 61 0
-3486 -3485 -61 0
3486 -3485 61 0
3486 3485 -61 0
-3487 3486 62 0
-3487 -3486 -62 0
3487 -3486 62 0
3487 3486 -62 0
-3488 3487 64 0
-3488 -3487 -64 0
3488 -3487 64 0
3488 3487 -64 0
-3489 3488 65 0
-3489 -3488 -65 0
3489 -3488 65 0
3489 3488 -65 0
-3490 3489 66 0
-3490 -3489 -66 0
3490 -3489 66 0
3490 3489 -66 0
-3491 3490 67 0
-3491 -3490 -67 0
3491 -3490 67 0
3491 3490 -67 0
-3492 3491 69 0
-3492 -3491 -69 0
3492 -3491 69 0
3492 3491 -69 0
-3493 3492 71 0
-3493 -3492 -71 0
3493 -3492 71 0
3493 3492 -71 0
-3494 3493 73 0
-3494 -3493 -73 0
3494 -3493 73 0
3494 3493 -73 0
-3495 3494 74 0
-3495 -3494 -74 0
3495 -3494 74 0
3495 3494 -74 0
-3496 3495 80 0
-3496 -3495 -80 0
3496 -3495 80 0
3496 3495 -80 0
-3497 3496 81 0
-3497 -3496 -81 0
3497 -3496 81 0
3497 3496 -81 0
-3498 3497 82 0
-3498 -3497 -82 0
3498 -3497 82 0
3498 3497 -82 0
-3499 3498 83 0
-3499 -3498 -83 0
3499 -3498 83 0
3499 3498 -83 0
-3500 3499 84 0
-3500 -3499 -84 0
3500 -3499 84 0
3500 3499 -84 0
-3501 3500 85 0
-3501 -3500 -85 0
3501 -3500 85 0
3501 3500 -85 0
-3502 3501 87 0
-3502 -3501 -87 0
3502 -3501 87 0
3502 3501 -87 0
-3503 3502 88 0
-3503 -3502 -88 0
3503 -3502 88 0
3503 3502 -88 0
-3504 3503 90 0
-3504 -3503 -90 0
3504 -3503 90 0
3504 3503 -90 0
-3505 3504 93 0
-3505 -3504 -93 0
3505 -3504 93 0
3505 3504 -93 0
-3506 3505 96 0
-3506 -3505 -96 0
3506 -3505 96 0
3506 3505 -96 0
-3507 3506 99 0
-3507 -3506 -99 0
3507 -3506 99 0
3507 3506 -99 0
-3508 3507 100 0
-3508 -3507 -100 0
3508 -3507 100 0
3508 3507 -100 0
-3509 3508 101 0
-3509 -3508 -101 0
3509 -3508 101 0
3509 3508 -101 0
-3510 3509 105 0
-3510 -3509 -105 0
3510 -3509 105 0
3510 3509 -105 0
-3510 0
-3511 11 54 0
-3511 -11 -54 0
3511 -11 54 0
3511 11 -54 0
-3512 3511 58 0
-3512 -3511 -58 0
3512 -3511 58 0
3512 3511 -58 0
-3513 3512 61 0
-3513 -3512 -61 0
3513 -3512 61 0
3513 3512 -61 0
-3514 3513 62 0
-3514 -3513 -62 0
3514 -3513 62 0
3514 3513 -62 0
-3515 3514 63 0
-3515 -3514 -63 0
3515 -3514 63 0
3515 3514 -63 0
-3516 3515 65 0
-3516 -3515 -65 0
3516 -3515 65 0
3516 3515 -65 0
-3517 3516 66 0
-3517 -3516 -66 0
3517 -3516 66 0
3517 3516 -66 0
-3518 3517 68 0
-3518 -3517 -68 0
3518 -3517 68 0
3518 3517 -68 0
-3519 3518 70 0
-3519 -3518 -70 0
3519 -3518 70 0
3519 3518 -70 0
-3520 3519 72 0
-3520 -3519 -72 0
3520 -3519 72 0
3520 3519 -72 0
-3521 3520 74 0
-3521 -3520 -74 0
3521 -3520 74 0
3521 3520 -74 0
-3522 3521 75 0
-3522 -3521 -75 0
3522 -3521 75 0
3522 3521 -75 0
-3523 3522 79 0
-3523 -3522 -79 0
3523 -3522 79 0
3523 3522 -79 0
-3524 3523 81 0
-3524 -3523 -81 0
3524 -3523 81 0
3524 3523 -81 0
-3525 3524 82 0
-3525 -3524 -82 0
3525 -3524 82 0
3525 3524 -82 0
-3526 3525 83 0
-3526 -3525 -83 0
3526 -3525 83 0
3526 3525 -83 0
-3527 3526 84 0
-3527 -3526 -84 0
3527 -3526 84 0
3527 3526 -84 0
-3528 3527 85 0
-3528 -3527 -85 0
3528 -3527 85 0
3528 3527 -85 0
-3529 3528 86 0
-3529 -3528 -86 0
3529 -3528 86 0
3529 3528 -86 0
-3530 3529 88 0
-3530 -3529 -88 0
3530 -3529 88 0
3530 3529 -88 0
-3531 3530 89 0
-3531 -3530 -89 0
3531 -3530 89 0
3531 3530 -89 0
-3532 3531 91 0
-3532 -3531 -91 0
3532 -3531 91 0
3532 3531 -91 0
-3533 3532 94 0
-3533 -3532 -94 0
3533 -3532 94 0
3533 3532 -94 0
-3534 3533 100 0
-3534 -3533 -100 0
3534 -3533 100 0
3534 3533 -100 0
-3535 3534 101 0
-3535 -3534 -101 0
3535 -3534 101 0
3535 3534 -101 0
-3536 3535 102 0
-3536 -3535 -102 0
3536 -3535 102 0
3536 3535 -102 0
-3537 3536 106 0
-3537 -3536 -106 0
3537 -3536 106 0
3537 3536 -106 0
-3537 0
-3538 12 53 0
-3538 -12 -53 0
3538 -12 53 0
3538 12 -53 0
-3539 3538 54 0
-3539 -3538 -54 0
3539 -3538 54 0
3539 3538 -54 0
-3540 3539 59 0
-3540 -3539 -59 0
3540 -3539 59 0
3540 3539 -59 0
-3541 3540 65 0
-3541 -3540 -65 0
3541 -3540 65 0
3541 3540 -65 0
-3542 3541 67 0
-3542 -3541 -67 0
3542 -3541 67 0
3542 3541 -67 0
-3543 3542 68 0
-3543 -3542 -68 0
3543 -3542 68 0
3543 3542 -68 0
-3544 3543 69 0
-3544 -3543 -69 0
3544 -3543 69 0
3544 3543 -69 0
-3545 3544 70 0
-3545 -3544 -70 0
3545 -3544 70 0
3545 3544 -70 0
-3546 3545 71 0
-3546 -3545 -71 0
3546 -3545 71 0
3546 3545 -71 0
-3547 3546 72 0
-3547 -3546 -72 0
3547 -3546 72 0
3547 3546 -72 0
-3548 3547 74 0
-3548 -3547 -74 0
3548 -3547 74 0
3548 3547 -74 0
-3549 3548 76 0
-3549 -3548 -76 0
3549 -3548 76 0
3549 3548 -76 0
-3550 3549 77 0
-3550 -3549 -77 0
3550 -3549 77 0
3550 3549 -77 0
-3551 3550 78 0
-3551 -3550 -78 0
3551 -3550 78 0
3551 3550 -78 0
-3552 3551 80 0
-3552 -3551 -80 0
3552 -3551 80 0
3552 3551 -80 0
-3553 3552 81 0
-3553 -3552 -81 0
3553 -3552 81 0
3553 3552 -81 0
-3554 3553 83 0
-3554 -3553 -83 0
3554 -3553 83 0
3554 3553 -83 0
-3555 3554 85 0
-3555 -3554 -85 0
3555 -3554 85 0
3555 3554 -85 0
-3556 3555 87 0
-3556 -3555 -87 0
3556 -3555 87 0
3556 3555 -87 0
-3557 3556 88 0
-3557 -3556 -88 0
3557 -3556 88 0
3557 3556 -88 0
-3558 3557 90 0
-3558 -3557 -90 0
3558 -3557 90 0
3558 3557 -90 0
-3559 3558 91 0
-3559 -3558 -91 0
3559 -3558 91 0
3559 3558 -91 0
-3560 3559 92 0
-3560 -3559 -92 0
3560 -3559 92 0
3560 3559 -92 0
-3561 3560 94 0
-3561 -3560 -94 0
3561 -3560 94 0
3561 3560 -94 0
-3562 3561 95 0
-3562 -3561 -95 0
3562 -3561 95 0
3562 3561 -95 0
-3563 3562 97 0
-3563 -3562 -97 0
3563 -3562 97 0
3563 3562 -97 0
-3564 3563 100 0
-3564 -3563 -100 0
3564 -3563 100 0
3564 3563 -100 0
-3565 3564 106 0
-3565 -3564 -106 0
3565 -3564 106 0
3565 3564 -106 0
-3566 3565 108 0
-3566 -3565 -108 0
3566 -3565 108 0
3566 3565 -108 0
-3566 0
-3567 13 53 0
-3567 -13 -53 0
3567 -13 53 0
3567 13 -53 0
-3568 3567 54 0
-3568 -3567 -54 0
3568 -3567 54 0
3568 3567 -54 0
-3569 3568 57 0
-3569 -3568 -57 0
3569 -3568 57 0
3569 3568 -57 0
-3570 3569 58 0
-3570 -3569 -58 0
3570 -3569 58 0
3570 3569 -58 0
-3571 3570 61 0
-3571 -3570 -61 0
3571 -3570 61 0
3571 3570 -61 0
-3572 3571 62 0
-3572 -3571 -62 0
3572 -3571 62 0
3572 3571 -62 0
-3573 3572 64 0
-3573 -3572 -64 0
3573 -3572 64 0
3573 3572 -64 0
-3574 3573 65 0
-3574 -3573 -65 0
3574 -3573 65 0
3574 3573 -65 0
-3575 3574 66 0
-3575 -3574 -66 0
3575 -3574 66 0
3575 3574 -66 0
-3576 3575 67 0
-3576 -3575 -67 0
3576 -3575 67 0
3576 3575 -67 0
-3577 3576 70 0
-3577 -3576 -70 0
3577 -3576 70 0
3577 3576 -70 0
-3578 3577 72 0
-3578 -3577 -72 0
3578 -3577 72 0
3578 3577 -72 0
-3579 3578 76 0
-3579 -3578 -76 0
3579 -3578 76 0
3579 3578 -76 0
-3580 3579 78 0
-3580 -3579 -78 0
3580 -3579 78 0
3580 3579 -78 0
-3581 3580 82 0
-3581 -3580 -82 0
3581 -3580 82 0
3581 3580 -82 0
-3582 3581 83 0
-3582 -3581 -83 0
3582 -3581 83 0
3582 3581 -83 0
-3583 3582 85 0
-3583 -3582 -85 0
3583 -3582 85 0
3583 3582 -85 0
-3584 3583 86 0
-3584 -3583 -86 0
3584 -3583 86 0
3584 3583 -86 0
-3585 3584 87 0
-3585 -3584 -87 0
3585 -3584 87 0
3585 3584 -87 0
-3586 3585 89 0
-3586 -3585 -89 0
3586 -3585 89 0
3586 3585 -89 0
-3587 3586 90 0
-3587 -3586 -90 0
3587 -3586 90 0
3587 3586 -90 0
-3588 3587 91 0
-3588 -3587 -91 0
3588 -3587 91 0
3588 3587 -91 0
-3589 3588 93 0
-3589 -3588 -93 0
3589 -3588 93 0
3589 3588 -93 0
-3590 3589 94 0
-3590 -3589 -94 0
3590 -3589 94 0
3590 3589 -94 0
-3591 3590 96 0
-3591 -3590 -96 0
3591 -3590 96 0
3591 3590 -96 0
-3592 3591 99 0
-3592 -3591 -99 0
3592 -3591 99 0
3592 3591 -99 0
-3593 3592 102 0
-3593 -3592 -102 0
3593 -3592 102 0
3593 3592 -102 0
-3594 3593 105 0
-3594 -3593 -105 0
3594 -3593 105 0
3594 3593 -105 0
-3595 3594 106 0
-3595 -3594 -106 0
3595 -3594 106 0
3595 3594 -106 0
-3595 0
-3596 14 53 0
-3596 -14 -53 0
3596 -14 53 0
3596 14 -53 0
-3597 3596 58 0
-3597 -3596 -58 0
3597 -3596 58 0
3597 3596 -58 0
-3598 3597 59 0
-3598 -3597 -59 0
3598 -3597 59 0
3598 3597 -59 0
-3599 3598 64 0
-3599 -3598 -64 0
3599 -3598 64 0
3599 3598 -64 0
-3600 3599 67 0
-3600 -3599 -67 0
3600 -3599 67 0
3600 3599 -67 0
-3601 3600 70 0
-3601 -3600 -70 0
3601 -3600 70 0
3601 3600 -70 0
-3602 3601 71 0
-3602 -3601 -71 0
3602 -3601 71 0
3602 3601 -71 0
-3603 3602 72 0
-3603 -3602 -72 0
3603 -3602 72 0
3603 3602 -72 0
-3604 3603 73 0
-3604 -3603 -73 0
3604 -3603 73 0
3604 3603 -73 0
-3605 3604 74 0
-3605 -3604 -74 0
3605 -3604 74 0
3605 3604 -74 0
-3606 3605 75 0
-3606 -3605 -75 0
3606 -3605 75 0
3606 3605 -75 0
-3607 3606 78 0
-3607 -3606 -78 0
3607 -3606 78 0
3607 3606 -78 0
-3608 3607 79 0
-3608 -3607 -79 0
3608 -3607 79 0
3608 3607 -79 0
-3609 3608 81 0
-3609 -3608 -81 0
3609 -3608 81 0
3609 3608 -81 0
-3610 3609 82 0
-3610 -3609 -82 0
3610 -3609 82 0
3610 3609 -82 0
-3611 3610 83 0
-3611 -3610 -83 0
3611 -3610 83 0
3611 3610 -83 0
-3612 3611 87 0
-3612 -3611 -87 0
3612 -3611 87 0
3612 3611 -87 0
-3613 3612 89 0
-3613 -3612 -89 0
3613 -3612 89 0
3613 3612 -89 0
-3614 3613 90 0
-3614 -3613 -90 0
3614 -3613 90 0
3614 3613 -90 0
-3615 3614 92 0
-3615 -3614 -92 0
3615 -3614 92 0
3615 3614 -92 0
-3616 3615 95 0
-3616 -3615 -95 0
3616 -3615 95 0
3616 3615 -95 0
-3617 3616 97 0
-3617 -3616 -97 0
3617 -3616 97 0
3617 3616 -97 0
-3618 3617 101 0
-3618 -3617 -101 0
3618 -3617 101 0
3618 3617 -101 0
-3619 3618 102 0
-3619 -3618 -102 0
3619 -3618 102 0
3619 3618 -102 0
-3620 3619 108 0
-3620 -3619 -108 0
3620 -3619 108 0
3620 3619 -108 0
-3620 0
-3621 15 54 0
-3621 -15 -54 0
3621 -15 54 0
3621 15 -54 0
-3622 3621 59 0
-3622 -3621 -59 0
3622 -3621 59 0
3622 3621 -59 0
-3623 3622 60 0
-3623 -3622 -60 0
3623 -3622 60 0
3623 3622 -60 0
-3624 3623 65 0
-3624 -3623 -65 0
3624 -3623 65 0
3624 3623 -65 0
-3625 3624 67 0
-3625 -3624 -67 0
3625 -3624 67 0
3625 3624 -67 0
-3626 3625 68 0
-3626 -3625 -68 0
3626 -3625 68 0
3626 3625 -68 0
-3627 3626 71 0
-3627 -3626 -71 0
3627 -3626 71 0
3627 3626 -71 0
-3628 3627 72 0
-3628 -3627 -72 0
3628 -3627 72 0
3628 3627 -72 0
-3629 3628 73 0
-3629 -3628 -73 0
3629 -3628 73 0
3629 3628 -73 0
-3630 3629 74 0
-3630 -3629 -74 0
3630 -3629 74 0
3630 3629 -74 0
-3631 3630 75 0
-3631 -3630 -75 0
3631 -3630 75 0
3631 3630 -75 0
-3632 3631 76 0
-3632 -3631 -76 0
3632 -3631 76 0
3632 3631 -76 0
-3633 3632 80 0
-3633 -3632 -80 0
3633 -3632 80 0
3633 3632 -80 0
-3634 3633 82 0
-3634 -3633 -82 0
3634 -3633 82 0
3634 3633 -82 0
-3635 3634 83 0
-3635 -3634 -83 0
3635 -3634 83 0
3635 3634 -83 0
-3636 3635 84 0
-3636 -3635 -84 0
3636 -3635 84 0
3636 3635 -84 0
-3637 3636 85 0
-3637 -3636 -85 0
3637 -3636 85 0
3637 3636 -85 0
-3638 3637 88 0
-3638 -3637 -88 0
3638 -3637 88 0
3638 3637 -88 0
-3639 3638 90 0
-3639 -3638 -90 0
3639 -3638 90 0
3639 3638 -90 0
-3640 3639 93 0
-3640 -3639 -93 0
3640 -3639 93 0
3640 3639 -93 0
-3641 3640 96 0
-3641 -3640 -96 0
3641 -3640 96 0
3641 3640 -96 0
-3642 3641 97 0
-3642 -3641 -97 0
3642 -3641 97 0
3642 3641 -97 0
-3643 3642 98 0
-3643 -3642 -98 0
3643 -3642 98 0
3643 3642 -98 0
-3644 3643 102 0
-3644 -3643 -102 0
3644 -3643 102 0
3644 3643 -102 0
-3645 3644 103 0
-3645 -3644 -103 0
3645 -3644 103 0
3645 3644 -103 0
-3645 0
-3646 16 53 0
-3646 -16 -53 0
3646 -16 53 0
3646 16 -53 0
-3647 3646 54 0
-3647 -3646 -54 0
3647 -3646 54 0
3647 3646 -54 0
-3648 3647 57 0
-3648 -3647 -57 0
3648 -3647 57 0
3648 3647 -57 0
-3649 3648 58 0
-3649 -3648 -58 0
3649 -3648 58 0
3649 3648 -58 0
-3650 3649 63 0
-3650 -3649 -63 0
3650 -3649 63 0
3650 3649 -63 0
-3651 3650 67 0
-3651 -3650 -67 0
3651 -3650 67 0
3651 3650 -67 0
-3652 3651 68 0
-3652 -3651 -68 0
3652 -3651 68 0
3652 3651 -68 0
-3653 3652 70 0
-3653 -3652 -70 0
3653 -3652 70 0
3653 3652 -70 0
-3654 3653 71 0
-3654 -3653 -71 0
3654 -3653 71 0
3654 3653 -71 0
-3655 3654 72 0
-3655 -3654 -72 0
3655 -3654 72 0
3655 3654 -72 0
-3656 3655 73 0
-3656 -3655 -73 0
3656 -3655 73 0
3656 3655 -73 0
-3657 3656 75 0
-3657 -3656 -75 0
3657 -3656 75 0
3657 3656 -75 0
-3658 3657 79 0
-3658 -3657 -79 0
3658 -3657 79 0
3658 3657 -79 0
-3659 3658 80 0
-3659 -3658 -80 0
3659 -3658 80 0
3659 3658 -80 0
-3660 3659 86 0
-3660 -3659 -86 0
3660 -3659 86 0
3660 3659 -86 0
-3661 3660 87 0
-3661 -3660 -87 0
3661 -3660 87 0
3661 3660 -87 0
-3662 3661 88 0
-3662 -3661 -88 0
3662 -3661 88 0
3662 3661 -88 0
-3663 3662 89 0
-3663 -3662 -89 0
3663 -3662 89 0
3663 3662 -89 0
-3664 3663 90 0
-3664 -3663 -90 0
3664 -3663 90 0
3664 3663 -90 0
-3665 3664 91 0
-3665 -3664 -91 0
3665 -3664 91 0
3665 3664 -91 0
-3666 3665 93 0
-3666 -3665 -93 0
3666 -3665 93 0
3666 3665 -93 0
-3667 3666 94 0
-3667 -3666 -94 0
3667 -3666 94 0
3667 3666 -94 0
-3668 3667 96 0
-3668 -3667 -96 0
3668 -3667 96 0
3668 3667 -96 0
-3669 3668 99 0
-3669 -3668 -99 0
3669 -3668 99 0
3669 3668 -99 0
-3670 3669 102 0
-3670 -3669 -102 0
3670 -3669 102 0
3670 3669 -102 0
-3671 3670 105 0
-3671 -3670 -105 0
3671 -3670 105 0
3671 3670 -105 0
-3672 3671 106 0
-3672 -3671 -106 0
3672 -3671 106 0
3672 3671 -106 0
-3672 0
-3673 17 53 0
-3673 -17 -53 0
3673 -17 53 0
3673 17 -53 0
-3674 3673 58 0
-3674 -3673 -58 0
3674 -3673 58 0
3674 3673 -58 0
-3675 3674 59 0
-3675 -3674 -59 0
3675 -3674 59 0
3675 3674 -59 0
-3676 3675 61 0
-3676 -3675 -61 0
3676 -3675 61 0
3676 3675 -61 0
-3677 3676 62 0
-3677 -3676 -62 0
3677 -3676 62 0
3677 3676 -62 0
-3678 3677 63 0
-3678 -3677 -63 0
3678 -3677 63 0
3678 3677 -63 0
-3679 3678 65 0
-3679 -3678 -65 0
3679 -3678 65 0
3679 3678 -65 0
-3680 3679 66 0
-3680 -3679 -66 0
3680 -3679 66 0
3680 3679 -66 0
-3681 3680 67 0
-3681 -3680 -67 0
3681 -3680 67 0
3681 3680 -67 0
-3682 3681 69 0
-3682 -3681 -69 0
3682 -3681 69 0
3682 3681 -69 0
-3683 3682 70 0
-3683 -3682 -70 0
3683 -3682 70 0
3683 3682 -70 0
-3684 3683 71 0
-3684 -3683 -71 0
3684 -3683 71 0
3684 3683 -71 0
-3685 3684 75 0
-3685 -3684 -75 0
3685 -3684 75 0
3685 3684 -75 0
-3686 3685 76 0
-3686 -3685 -76 0
3686 -3685 76 0
3686 3685 -76 0
-3687 3686 77 0
-3687 -3686 -77 0
3687 -3686 77 0
3687 3686 -77 0
-3688 3687 78 0
-3688 -3687 -78 0
3688 -3687 78 0
3688 3687 -78 0
-3689 3688 79 0
-3689 -3688 -79 0
3689 -3688 79 0
3689 3688 -79 0
-3690 3689 80 0
-3690 -3689 -80 0
3690 -3689 80 0
3690 3689 -80 0
-3691 3690 82 0
-3691 -3690 -82 0
3691 -3690 82 0
3691 3690 -82 0
-3692 3691 84 0
-3692 -3691 -84 0
3692 -3691 84 0
3692 3691 -84 0
-3693 3692 86 0
-3693 -3692 -86 0
3693 -3692 86 0
3693 3692 -86 0
-3694 3693 87 0
-3694 -3693 -87 0
3694 -3693 87 0
3694 3693 -87 0
-3695 3694 90 0
-3695 -3694 -90 0
3695 -3694 90 0
3695 3694 -90 0
-3696 3695 92 0
-3696 -3695 -92 0
3696 -3695 92 0
3696 3695 -92 0
-3697 3696 95 0
-3697 -3696 -95 0
3697 -3696 95 0
3697 3696 -95 0
-3698 3697 97 0
-3698 -3697 -97 0
3698 -3697 97 0
3698 3697 -97 0
-3699 3698 101 0
-3699 -3698 -101 0
3699 -3698 101 0
3699 3698 -101 0
-3700 3699 102 0
-3700 -3699 -102 0
3700 -3699 102 0
3700 3699 -102 0
-3701 3700 108 0
-3701 -3700 -108 0
3701 -3700 108 0
3701 3700 -108 0
-3701 0
-3702 18 54 0
-3702 -18 -54 0
3702 -18 54 0
3702 18 -54 0
-3703 3702 59 0
-3703 -3702 -59 0
3703 -3702 59 0
3703 3702 -59 0
-3704 3703 60 0
-3704 -3703 -60 0
3704 -3703 60 0
3704 3703 -60 0
-3705 3704 61 0
-3705 -3704 -61 0
3705 -3704 61 0
3705 3704 -61 0
-3706 3705 62 0
-3706 -3705 -62 0
3706 -3705 62 0
3706 3705 -62 0
-3707 3706 63 0
-3707 -3706 -63 0
3707 -3706 63 0
3707 3706 -63 0
-3708 3707 64 0
-3708 -3707 -64 0
3708 -3707 64 0
3708 3707 -64 0
-3709 3708 66 0
-3709 -3708 -66 0
3709 -3708 66 0
3709 3708 -66 0
-3710 3709 68 0
-3710 -3709 -68 0
3710 -3709 68 0
3710 3709 -68 0
-3711 3710 70 0
-3711 -3710 -70 0
3711 -3710 70 0
3711 3710 -70 0
-3712 3711 71 0
-3712 -3711 -71 0
3712 -3711 71 0
3712 3711 -71 0
-3713 3712 72 0
-3713 -3712 -72 0
3713 -3712 72 0
3713 3712 -72 0
-3714 3713 73 0
-3714 -3713 -73 0
3714 -3713 73 0
3714 3713 -73 0
-3715 3714 76 0
-3715 -3714 -76 0
3715 -3714 76 0
3715 3714 -76 0
-3716 3715 77 0
-3716 -3715 -77 0
3716 -3715 77 0
3716 3715 -77 0
-3717 3716 78 0
-3717 -3716 -78 0
3717 -3716 78 0
3717 3716 -78 0
-3718 3717 79 0
-3718 -3717 -79 0
3718 -3717 79 0
3718 3717 -79 0
-3719 3718 80 0
-3719 -3718 -80 0
3719 -3718 80 0
3719 3718 -80 0
-3720 3719 81 0
-3720 -3719 -81 0
3720 -3719 81 0
3720 3719 -81 0
-3721 3720 83 0
-3721 -3720 -83 0
3721 -3720 83 0
3721 3720 -83 0
-3722 3721 85 0
-3722 -3721 -85 0
3722 -3721 85 0
3722 3721 -85 0
-3723 3722 87 0
-3723 -3722 -87 0
3723 -3722 87 0
3723 3722 -87 0
-3724 3723 88 0
-3724 -3723 -88 0
3724 -3723 88 0
3724 3723 -88 0
-3725 3724 93 0
-3725 -3724 -93 0
3725 -3724 93 0
3725 3724 -93 0
-3726 3725 96 0
-3726 -3725 -96 0
3726 -3725 96 0
3726 3725 -96 0
-3727 3726 97 0
-3727 -3726 -97 0
3727 -3726 97 0
3727 3726 -97 0
-3728 3727 98 0
-3728 -3727 -98 0
3728 -3727 98 0
3728 3727 -98 0
-3729 3728 102 0
-3729 -3728 -102 0
3729 -3728 102 0
3729 3728 -102 0
-3730 3729 103 0
-3730 -3729 -103 0
3730 -3729 103 0
3730 3729 -103 0
-3730 0
-3731 19 54 0
-3731 -19 -54 0
3731 -19 54 0
3731 19 -54 0
-3732 3731 57 0
-3732 -3731 -57 0
3732 -3731 57 0
3732 3731 -57 0
-3733 3732 59 0
-3733 -3732 -59 0
3733 -3732 59 0
3733 3732 -59 0
-3734 3733 61 0
-3734 -3733 -61 0
3734 -3733 61 0
3734 3733 -61 0
-3735 3734 62 0
-3735 -3734 -62 0
3735 -3734 62 0
3735 3734 -62 0
-3736 3735 65 0
-3736 -3735 -65 0
3736 -3735 65 0
3736 3735 -65 0
-3737 3736 66 0
-3737 -3736 -66 0
3737 -3736 66 0
3737 3736 -66 0
-3738 3737 67 0
-3738 -3737 -67 0
3738 -3737 67 0
3738 3737 -67 0
-3739 3738 71 0
-3739 -3738 -71 0
3739 -3738 71 0
3739 3738 -71 0
-3740 3739 73 0
-3740 -3739 -73 0
3740 -3739 73 0
3740 3739 -73 0
-3741 3740 74 0
-3741 -3740 -74 0
3741 -3740 74 0
3741 3740 -74 0
-3742 3741 75 0
-3742 -3741 -75 0
3742 -3741 75 0
3742 3741 -75 0
-3743 3742 76 0
-3743 -3742 -76 0
3743 -3742 76 0
3743 3742 -76 0
-3744 3743 78 0
-3744 -3743 -78 0
3744 -3743 78 0
3744 3743 -78 0
-3745 3744 79 0
-3745 -3744 -79 0
3745 -3744 79 0
3745 3744 -79 0
-3746 3745 81 0
-3746 -3745 -81 0
3746 -3745 81 0
3746 3745 -81 0
-3747 3746 85 0
-3747 -3746 -85 0
3747 -3746 85 0
3747 3746 -85 0
-3748 3747 86 0
-3748 -3747 -86 0
3748 -3747 86 0
3748 3747 -86 0
-3749 3748 92 0
-3749 -3748 -92 0
3749 -3748 92 0
3749 3748 -92 0
-3750 3749 93 0
-3750 -3749 -93 0
3750 -3749 93 0
3750 3749 -93 0
-3751 3750 94 0
-3751 -3750 -94 0
3751 -3750 94 0
3751 3750 -94 0
-3752 3751 95 0
-3752 -3751 -95 0
3752 -3751 95 0
3752 3751 -95 0
-3753 3752 96 0
-3753 -3752 -96 0
3753 -3752 96 0
3753 3752 -96 0
-3754 3753 97 0
-3754 -3753 -97 0
3754 -3753 97 0
3754 3753 -97 0
-3755 3754 99 0
-3755 -3754 -99 0
3755 -3754 99 0
3755 3754 -99 0
-3756 3755 101 0
-3756 -3755 -101 0
3756 -3755 101 0
3756 3755 -101 0
-3757 3756 105 0
-3757 -3756 -105 0
3757 -3756 105 0
3757 3756 -105 0
-3758 3757 106 0
-3758 -3757 -106 0
3758 -3757 106 0
3758 3757 -106 0
-3759 3758 108 0
-3759 -3758 -108 0
3759 -3758 108 0
3759 3758 -108 0
-3759 0
-3760 20 53 0
-3760 -20 -53 0
3760 -20 53 0
3760 20 -53 0
-3761 3760 54 0
-3761 -3760 -54 0
3761 -3760 54 0
3761 3760 -54 0
-3762 3761 58 0
-3762 -3761 -58 0
3762 -3761 58 0
3762 3761 -58 0
-3763 3762 60 0
-3763 -3762 -60 0
3763 -3762 60 0
3763 3762 -60 0
-3764 3763 64 0
-3764 -3763 -64 0
3764 -3763 64 0
3764 3763 -64 0
-3765 3764 65 0
-3765 -3764 -65 0
3765 -3764 65 0
3765 3764 -65 0
-3766 3765 70 0
-3766 -3765 -70 0
3766 -3765 70 0
3766 3765 -70 0
-3767 3766 73 0
-3767 -3766 -73 0
3767 -3766 73 0
3767 3766 -73 0
-3768 3767 76 0
-3768 -3767 -76 0
3768 -3767 76 0
3768 3767 -76 0
-3769 3768 78 0
-3769 -3768 -78 0
3769 -3768 78 0
3769 3768 -78 0
-3770 3769 79 0
-3770 -3769 -79 0
3770 -3769 79 0
3770 3769 -79 0
-3771 3770 80 0
-3771 -3770 -80 0
3771 -3770 80 0
3771 3770 -80 0
-3772 3771 81 0
-3772 -3771 -81 0
3772 -3771 81 0
3772 3771 -81 0
-3773 3772 84 0
-3773 -3772 -84 0
3773 -3772 84 0
3773 3772 -84 0
-3774 3773 85 0
-3774 -3773 -85 0
3774 -3773 85 0
3774 3773 -85 0
-3775 3774 87 0
-3775 -3774 -87 0
3775 -3774 87 0
3775 3774 -87 0
-3776 3775 88 0
-3776 -3775 -88 0
3776 -3775 88 0
3776 3775 -88 0
-3777 3776 89 0
-3777 -3776 -89 0
3777 -3776 89 0
3777 3776 -89 0
-3778 3777 93 0
-3778 -3777 -93 0
3778 -3777 93 0
3778 3777 -93 0
-3779 3778 95 0
-3779 -3778 -95 0
3779 -3778 95 0
3779 3778 -95 0
-3780 3779 96 0
-3780 -3779 -96 0
3780 -3779 96 0
3780 3779 -96 0
-3781 3780 98 0
-3781 -3780 -98 0
3781 -3780 98 0
3781 3780 -98 0
-3782 3781 101 0
-3782 -3781 -101 0
3782 -3781 101 0
3782 3781 -101 0
-3783 3782 103 0
-3783 -3782 -103 0
3783 -3782 103 0
3783 3782 -103 0
-3784 3783 108 0
-3784 -3783 -108 0
3784 -3783 108 0
3784 3783 -108 0
-3784 0
-3785 21 53 0
-3785 -21 -53 0
3785 -21 53 0
3785 21 -53 0
-3786 3785 57 0
-3786 -3785 -57 0
3786 -3785 57 0
3786 3785 -57 0
-3787 3786 58 0
-3787 -3786 -58 0
3787 -3786 58 0
3787 3786 -58 0
-3788 3787 59 0
-3788 -3787 -59 0
3788 -3787 59 0
3788 3787 -59 0
-3789 3788 60 0
-3789 -3788 -60 0
3789 -3788 60 0
3789 3788 -60 0
-3790 3789 63 0
-3790 -3789 -63 0
3790 -3789 63 0
3790 3789 -63 0
-3791 3790 65 0
-3791 -3790 -65 0
3791 -3790 65 0
3791 3790 -65 0
-3792 3791 69 0
-3792 -3791 -69 0
3792 -3791 69 0
3792 3791 -69 0
-3793 3792 70 0
-3793 -3792 -70 0
3793 -3792 70 0
3793 3792 -70 0
-3794 3793 76 0
-3794 -3793 -76 0
3794 -3793 76 0
3794 3793 -76 0
-3795 3794 79 0
-3795 -3794 -79 0
3795 -3794 79 0
3795 3794 -79 0
-3796 3795 82 0
-3796 -3795 -82 0
3796 -3795 82 0
3796 3795 -82 0
-3797 3796 83 0
-3797 -3796 -83 0
3797 -3796 83 0
3797 3796 -83 0
-3798 3797 84 0
-3798 -3797 -84 0
3798 -3797 84 0
3798 3797 -84 0
-3799 3798 85 0
-3799 -3798 -85 0
3799 -3798 85 0
3799 3798 -85 0
-3800 3799 86 0
-3800 -3799 -86 0
3800 -3799 86 0
3800 3799 -86 0
-3801 3800 87 0
-3801 -3800 -87 0
3801 -3800 87 0
3801 3800 -87 0
-3802 3801 89 0
-3802 -3801 -89 0
3802 -3801 89 0
3802 3801 -89 0
-3803 3802 91 0
-3803 -3802 -91 0
3803 -3802 91 0
3803 3802 -91 0
-3804 3803 93 0
-3804 -3803 -93 0
3804 -3803 93 0
3804 3803 -93 0
-3805 3804 94 0
-3805 -3804 -94 0
3805 -3804 94 0
3805 3804 -94 0
-3806 3805 97 0
-3806 -3805 -97 0
3806 -3805 97 0
3806 3805 -97 0
-3807 3806 98 0
-3807 -3806 -98 0
3807 -3806 98 0
3807 3806 -98 0
-3808 3807 99 0
-3808 -3807 -99 0
3808 -3807 99 0
3808 3807 -99 0
-3809 3808 103 0
-3809 -3808 -103 0
3809 -3808 103 0
3809 3808 -103 0
-3810 3809 105 0
-3810 -3809 -105 0
3810 -3809 105 0
3810 3809 -105 0
-3811 3810 106 0
-3811 -3810 -106 0
3811 -3810 106 0
3811 3810 -106 0
-3811 0
-3812 22 54 0
-3812 -22 -54 0
3812 -22 54 0
3812 22 -54 0
-3813 3812 57 0
-3813 -3812 -57 0
3813 -3812 57 0
3813 3812 -57 0
-3814 3813 59 0
-3814 -3813 -59 0
3814 -3813 59 0
3814 3813 -59 0
-3815 3814 61 0
-3815 -3814 -61 0
3815 -3814 61 0
3815 3814 -61 0
-3816 3815 62 0
-3816 -3815 -62 0
3816 -3815 62 0
3816 3815 -62 0
-3817 3816 65 0
-3817 -3816 -65 0
3817 -3816 65 0
3817 3816 -65 0
-3818 3817 66 0
-3818 -3817 -66 0
3818 -3817 66 0
3818 3817 -66 0
-3819 3818 68 0
-3819 -3818 -68 0
3819 -3818 68 0
3819 3818 -68 0
-3820 3819 69 0
-3820 -3819 -69 0
3820 -3819 69 0
3820 3819 -69 0
-3821 3820 70 0
-3821 -3820 -70 0
3821 -3820 70 0
3821 3820 -70 0
-3822 3821 72 0
-3822 -3821 -72 0
3822 -3821 72 0
3822 3821 -72 0
-3823 3822 73 0
-3823 -3822 -73 0
3823 -3822 73 0
3823 3822 -73 0
-3824 3823 75 0
-3824 -3823 -75 0
3824 -3823 75 0
3824 3823 -75 0
-3825 3824 76 0
-3825 -3824 -76 0
3825 -3824 76 0
3825 3824 -76 0
-3826 3825 77 0
-3826 -3825 -77 0
3826 -3825 77 0
3826 3825 -77 0
-3827 3826 78 0
-3827 -3826 -78 0
3827 -3826 78 0
3827 3826 -78 0
-3828 3827 82 0
-3828 -3827 -82 0
3828 -3827 82 0
3828 3827 -82 0
-3829 3828 84 0
-3829 -3828 -84 0
3829 -3828 84 0
3829 3828 -84 0
-3830 3829 88 0
-3830 -3829 -88 0
3830 -3829 88 0
3830 3829 -88 0
-3831 3830 89 0
-3831 -3830 -89 0
3831 -3830 89 0
3831 3830 -89 0
-3832 3831 91 0
-3832 -3831 -91 0
3832 -3831 91 0
3832 3831 -91 0
-3833 3832 92 0
-3833 -3832 -92 0
3833 -3832 92 0
3833 3832 -92 0
-3834 3833 93 0
-3834 -3833 -93 0
3834 -3833 93 0
3834 3833 -93 0
-3835 3834 95 0
-3835 -3834 -95 0
3835 -3834 95 0
3835 3834 -95 0
-3836 3835 96 0
-3836 -3835 -96 0
3836 -3835 96 0
3836 3835 -96 0
-3837 3836 97 0
-3837 -3836 -97 0
3837 -3836 97 0
3837 3836 -97 0
-3838 3837 99 0
-3838 -3837 -99 0
3838 -3837 99 0
3838 3837 -99 0
-3839 3838 101 0
-3839 -3838 -101 0
3839 -3838 101 0
3839 3838 -101 0
-3840 3839 105 0
-3840 -3839 -105 0
3840 -3839 105 0
3840 3839 -105 0
-3841 3840 106 0
-3841 -3840 -106 0
3841 -3840 106 0
3841 3840 -106 0
-3842 3841 108 0
-3842 -3841 -108 0
3842 -3841 108 0
3842 3841 -108 0
-3842 0
-3843 23 53 0
-3843 -23 -53 0
3843 -23 53 0
3843 23 -53 0
-3844 3843 54 0
-3844 -3843 -54 0
3844 -3843 54 0
3844 3843 -54 0
-3845 3844 58 0
-3845 -3844 -58 0
3845 -3844 58 0
3845 3844 -58 0
-3846 3845 60 0
-3846 -3845 -60 0
3846 -3845 60 0
3846 3845 -60 0
-3847 3846 64 0
-3847 -3846 -64 0
3847 -3846 64 0
3847 3846 -64 0
-3848 3847 65 0
-3848 -3847 -65 0
3848 -3847 65 0
3848 3847 -65 0
-3849 3848 67 0
-3849 -3848 -67 0
3849 -3848 67 0
3849 3848 -67 0
-3850 3849 68 0
-3850 -3849 -68 0
3850 -3849 68 0
3850 3849 -68 0
-3851 3850 69 0
-3851 -3850 -69 0
3851 -3850 69 0
3851 3850 -69 0
-3852 3851 71 0
-3852 -3851 -71 0
3852 -3851 71 0
3852 3851 -71 0
-3853 3852 72 0
-3853 -3852 -72 0
3853 -3852 72 0
3853 3852 -72 0
-3854 3853 73 0
-3854 -3853 -73 0
3854 -3853 73 0
3854 3853 -73 0
-3855 3854 75 0
-3855 -3854 -75 0
3855 -3854 75 0
3855 3854 -75 0
-3856 3855 76 0
-3856 -3855 -76 0
3856 -3855 76 0
3856 3855 -76 0
-3857 3856 81 0
-3857 -3856 -81 0
3857 -3856 81 0
3857 3856 -81 0
-3858 3857 82 0
-3858 -3857 -82 0
3858 -3857 82 0
3858 3857 -82 0
-3859 3858 83 0
-3859 -3858 -83 0
3859 -3858 83 0
3859 3858 -83 0
-3860 3859 84 0
-3860 -3859 -84 0
3860 -3859 84 0
3860 3859 -84 0
-3861 3860 85 0
-3861 -3860 -85 0
3861 -3860 85 0
3861 3860 -85 0
-3862 3861 86 0
-3862 -3861 -86 0
3862 -3861 86 0
3862 3861 -86 0
-3863 3862 88 0
-3863 -3862 -88 0
3863 -3862 88 0
3863 3862 -88 0
-3864 3863 90 0
-3864 -3863 -90 0
3864 -3863 90 0
3864 3863 -90 0
-3865 3864 92 0
-3865 -3864 -92 0
3865 -3864 92 0
3865 3864 -92 0
-3866 3865 93 0
-3866 -3865 -93 0
3866 -3865 93 0
3866 3865 -93 0
-3867 3866 96 0
-3867 -3866 -96 0
3867 -3866 96 0
3867 3866 -96 0
-3868 3867 98 0
-3868 -3867 -98 0
3868 -3867 98 0
3868 3867 -98 0
-3869 3868 101 0
-3869 -3868 -101 0
3869 -3868 101 0
3869 3868 -101 0
-3870 3869 103 0
-3870 -3869 -103 0
3870 -3869 103 0
3870 3869 -103 0
-3871 3870 108 0
-3871 -3870 -108 0
3871 -3870 108 0
3871 3870 -108 0
-3871 0
-3872 24 53 0
-3872 -24 -53 0
3872 -24 53 0
3872 24 -53 0
-3873 3872 57 0
-3873 -3872 -57 0
3873 -3872 57 0
3873 3872 -57 0
-3874 3873 58 0
-3874 -3873 -58 0
3874 -3873 58 0
3874 3873 -58 0
-3875 3874 59 0
-3875 -3874 -59 0
3875 -3874 59 0
3875 3874 -59 0
-3876 3875 60 0
-3876 -3875 -60 0
3876 -3875 60 0
3876 3875 -60 0
-3877 3876 63 0
-3877 -3876 -63 0
3877 -3876 63 0
3877 3876 -63 0
-3878 3877 65 0
-3878 -3877 -65 0
3878 -3877 65 0
3878 3877 -65 0
-3879 3878 67 0
-3879 -3878 -67 0
3879 -3878 67 0
3879 3878 -67 0
-3880 3879 68 0
-3880 -3879 -68 0
3880 -3879 68 0
3880 3879 -68 0
-3881 3880 71 0
-3881 -3880 -71 0
3881 -3880 71 0
3881 3880 -71 0
-3882 3881 72 0
-3882 -3881 -72 0
3882 -3881 72 0
3882 3881 -72 0
-3883 3882 73 0
-3883 -3882 -73 0
3883 -3882 73 0
3883 3882 -73 0
-3884 3883 79 0
-3884 -3883 -79 0
3884 -3883 79 0
3884 3883 -79 0
-3885 3884 80 0
-3885 -3884 -80 0
3885 -3884 80 0
3885 3884 -80 0
-3886 3885 81 0
-3886 -3885 -81 0
3886 -3885 81 0
3886 3885 -81 0
-3887 3886 82 0
-3887 -3886 -82 0
3887 -3886 82 0
3887 3886 -82 0
-3888 3887 86 0
-3888 -3887 -86 0
3888 -3887 86 0
3888 3887 -86 0
-3889 3888 88 0
-3889 -3888 -88 0
3889 -3888 88 0
3889 3888 -88 0
-3890 3889 89 0
-3890 -3889 -89 0
3890 -3889 89 0
3890 3889 -89 0
-3891 3890 90 0
-3891 -3890 -90 0
3891 -3890 90 0
3891 3890 -90 0
-3892 3891 91 0
-3892 -3891 -91 0
3892 -3891 91 0
3892 3891 -91 0
-3893 3892 94 0
-3893 -3892 -94 0
3893 -3892 94 0
3893 3892 -94 0
-3894 3893 96 0
-3894 -3893 -96 0
3894 -3893 96 0
3894 3893 -96 0
-3895 3894 97 0
-3895 -3894 -97 0
3895 -3894 97 0
3895 3894 -97 0
-3896 3895 98 0
-3896 -3895 -98 0
3896 -3895 98 0
3896 3895 -98 0
-3897 3896 99 0
-3897 -3896 -99 0
3897 -3896 99 0
3897 3896 -99 0
-3898 3897 103 0
-3898 -3897 -103 0
3898 -3897 103 0
3898 3897 -103 0
-3899 3898 105 0
-3899 -3898 -105 0
3899 -3898 105 0
3899 3898 -105 0
-3900 3899 106 0
-3900 -3899 -106 0
3900 -3899 106 0
3900 3899 -106 0
-3900 0
-3901 25 53 0
-3901 -25 -53 0
3901 -25 53 0
3901 25 -53 0
-3902 3901 57 0
-3902 -3901 -57 0
3902 -3901 57 0
3902 3901 -57 0
-3903 3902 58 0
-3903 -3902 -58 0
3903 -3902 58 0
3903 3902 -58 0
-3904 3903 59 0
-3904 -3903 -59 0
3904 -3903 59 0
3904 3903 -59 0
-3905 3904 60 0
-3905 -3904 -60 0
3905 -3904 60 0
3905 3904 -60 0
-3906 3905 61 0
-3906 -3905 -61 0
3906 -3905 61 0
3906 3905 -61 0
-3907 3906 62 0
-3907 -3906 -62 0
3907 -3906 62 0
3907 3906 -62 0
-3908 3907 64 0
-3908 -3907 -64 0
3908 -3907 64 0
3908 3907 -64 0
-3909 3908 66 0
-3909 -3908 -66 0
3909 -3908 66 0
3909 3908 -66 0
-3910 3909 67 0
-3910 -3909 -67 0
3910 -3909 67 0
3910 3909 -67 0
-3911 3910 70 0
-3911 -3910 -70 0
3911 -3910 70 0
3911 3910 -70 0
-3912 3911 71 0
-3912 -3911 -71 0
3912 -3911 71 0
3912 3911 -71 0
-3913 3912 73 0
-3913 -3912 -73 0
3913 -3912 73 0
3913 3912 -73 0
-3914 3913 74 0
-3914 -3913 -74 0
3914 -3913 74 0
3914 3913 -74 0
-3915 3914 75 0
-3915 -3914 -75 0
3915 -3914 75 0
3915 3914 -75 0
-3916 3915 80 0
-3916 -3915 -80 0
3916 -3915 80 0
3916 3915 -80 0
-3917 3916 86 0
-3917 -3916 -86 0
3917 -3916 86 0
3917 3916 -86 0
-3918 3917 87 0
-3918 -3917 -87 0
3918 -3917 87 0
3918 3917 -87 0
-3919 3918 88 0
-3919 -3918 -88 0
3919 -3918 88 0
3919 3918 -88 0
-3920 3919 89 0
-3920 -3919 -89 0
3920 -3919 89 0
3920 3919 -89 0
-3921 3920 92 0
-3921 -3920 -92 0
3921 -3920 92 0
3921 3920 -92 0
-3922 3921 94 0
-3922 -3921 -94 0
3922 -3921 94 0
3922 3921 -94 0
-3923 3922 98 0
-3923 -3922 -98 0
3923 -3922 98 0
3923 3922 -98 0
-3924 3923 99 0
-3924 -3923 -99 0
3924 -3923 99 0
3924 3923 -99 0
-3925 3924 103 0
-3925 -3924 -103 0
3925 -3924 103 0
3925 3924 -103 0
-3926 3925 105 0
-3926 -3925 -105 0
3926 -3925 105 0
3926 3925 -105 0
-3927 3926 106 0
-3927 -3926 -106 0
3927 -3926 106 0
3927 3926 -106 0
-3927 0
-3928 26 54 0
-3928 -26 -54 0
3928 -26 54 0
3928 26 -54 0
-3929 3928 57 0
-3929 -3928 -57 0
3929 -3928 57 0
3929 3928 -57 0
-3930 3929 59 0
-3930 -3929 -59 0
3930 -3929 59 0
3930 3929 -59 0
-3931 3930 63 0
-3931 -3930 -63 0
3931 -3930 63 0
3931 3930 -63 0
-3932 3931 64 0
-3932 -3931 -64 0
3932 -3931 64 0
3932 3931 -64 0
-3933 3932 69 0
-3933 -3932 -69 0
3933 -3932 69 0
3933 3932 -69 0
-3934 3933 73 0
-3934 -3933 -73 0
3934 -3933 73 0
3934 3933 -73 0
-3935 3934 74 0
-3935 -3934 -74 0
3935 -3934 74 0
3935 3934 -74 0
-3936 3935 78 0
-3936 -3935 -78 0
3936 -3935 78 0
3936 3935 -78 0
-3937 3936 79 0
-3937 -3936 -79 0
3937 -3936 79 0
3937 3936 -79 0
-3938 3937 80 0
-3938 -3937 -80 0
3938 -3937 80 0
3938 3937 -80 0
-3939 3938 81 0
-3939 -3938 -81 0
3939 -3938 81 0
3939 3938 -81 0
-3940 3939 82 0
-3940 -3939 -82 0
3940 -3939 82 0
3940 3939 -82 0
-3941 3940 83 0
-3941 -3940 -83 0
3941 -3940 83 0
3941 3940 -83 0
-3942 3941 86 0
-3942 -3941 -86 0
3942 -3941 86 0
3942 3941 -86 0
-3943 3942 88 0
-3943 -3942 -88 0
3943 -3942 88 0
3943 3942 -88 0
-3944 3943 91 0
-3944 -3943 -91 0
3944 -3943 91 0
3944 3943 -91 0
-3945 3944 94 0
-3945 -3944 -94 0
3945 -3944 94 0
3945 3944 -94 0
-3946 3945 95 0
-3946 -3945 -95 0
3946 -3945 95 0
3946 3945 -95 0
-3947 3946 96 0
-3947 -3946 -96 0
3947 -3946 96 0
3947 3946 -96 0
-3948 3947 97 0
-3948 -3947 -97 0
3948 -3947 97 0
3948 3947 -97 0
-3949 3948 98 0
-3949 -3948 -98 0
3949 -3948 98 0
3949 3948 -98 0
-3950 3949 99 0
-3950 -3949 -99 0
3950 -3949 99 0
3950 3949 -99 0
-3951 3950 101 0
-3951 -3950 -101 0
3951 -3950 101 0
3951 3950 -101 0
-3952 3951 105 0
-3952 -3951 -105 0
3952 -3951 105 0
3952 3951 -105 0
-3953 3952 106 0
-3953 -3952 -106 0
3953 -3952 106 0
3953 3952 -106 0
-3954 3953 108 0
-3954 -3953 -108 0
3954 -3953 108 0
3954 3953 -108 0
-3954 0
-3955 27 53 0
-3955 -27 -53 0
3955 -27 53 0
3955 27 -53 0
-3956 3955 54 0
-3956 -3955 -54 0
3956 -3955 54 0
3956 3955 -54 0
-3957 3956 58 0
-3957 -3956 -58 0
3957 -3956 58 0
3957 3956 -58 0
-3958 3957 60 0
-3958 -3957 -60 0
3958 -3957 60 0
3958 3957 -60 0
-3959 3958 61 0
-3959 -3958 -61 0
3959 -3958 61 0
3959 3958 -61 0
-3960 3959 62 0
-3960 -3959 -62 0
3960 -3959 62 0
3960 3959 -62 0
-3961 3960 63 0
-3961 -3960 -63 0
3961 -3960 63 0
3961 3960 -63 0
-3962 3961 66 0
-3962 -3961 -66 0
3962 -3961 66 0
3962 3961 -66 0
-3963 3962 68 0
-3963 -3962 -68 0
3963 -3962 68 0
3963 3962 -68 0
-3964 3963 72 0
-3964 -3963 -72 0
3964 -3963 72 0
3964 3963 -72 0
-3965 3964 73 0
-3965 -3964 -73 0
3965 -3964 73 0
3965 3964 -73 0
-3966 3965 77 0
-3966 -3965 -77 0
3966 -3965 77 0
3966 3965 -77 0
-3967 3966 78 0
-3967 -3966 -78 0
3967 -3966 78 0
3967 3966 -78 0
-3968 3967 79 0
-3968 -3967 -79 0
3968 -3967 79 0
3968 3967 -79 0
-3969 3968 80 0
-3969 -3968 -80 0
3969 -3968 80 0
3969 3968 -80 0
-3970 3969 83 0
-3970 -3969 -83 0
3970 -3969 83 0
3970 3969 -83 0
-3971 3970 85 0
-3971 -3970 -85 0
3971 -3970 85 0
3971 3970 -85 0
-3972 3971 86 0
-3972 -3971 -86 0
3972 -3971 86 0
3972 3971 -86 0
-3973 3972 87 0
-3973 -3972 -87 0
3973 -3972 87 0
3973 3972 -87 0
-3974 3973 88 0
-3974 -3973 -88 0
3974 -3973 88 0
3974 3973 -88 0
-3975 3974 92 0
-3975 -3974 -92 0
3975 -3974 92 0
3975 3974 -92 0
-3976 3975 94 0
-3976 -3975 -94 0
3976 -3975 94 0
3976 3975 -94 0
-3977 3976 95 0
-3977 -3976 -95 0
3977 -3976 95 0
3977 3976 -95 0
-3978 3977 96 0
-3978 -3977 -96 0
3978 -3977 96 0
3978 3977 -96 0
-3979 3978 98 0
-3979 -3978 -98 0
3979 -3978 98 0
3979 3978 -98 0
-3980 3979 99 0
-3980 -3979 -99 0
3980 -3979 99 0
3980 3979 -99 0
-3981 3980 101 0
-3981 -3980 -101 0
3981 -3980 101 0
3981 3980 -101 0
-3982 3981 103 0
-3982 -3981 -103 0
3982 -3981 103 0
3982 3981 -103 0
-3983 3982 108 0
-3983 -3982 -108 0
3983 -3982 108 0
3983 3982 -108 0
-3983 0
-3984 28 53 0
-3984 -28 -53 0
3984 -28 53 0
3984 28 -53 0
-3985 3984 57 0
-3985 -3984 -57 0
3985 -3984 57 0
3985 3984 -57 0
-3986 3985 58 0
-3986 -3985 -58 0
3986 -3985 58 0
3986 3985 -58 0
-3987 3986 59 0
-3987 -3986 -59 0
3987 -3986 59 0
3987 3986 -59 0
-3988 3987 60 0
-3988 -3987 -60 0
3988 -3987 60 0
3988 3987 -60 0
-3989 3988 61 0
-3989 -3988 -61 0
3989 -3988 61 0
3989 3988 -61 0
-3990 3989 62 0
-3990 -3989 -62 0
3990 -3989 62 0
3990 3989 -62 0
-3991 3990 64 0
-3991 -3990 -64 0
3991 -3990 64 0
3991 3990 -64 0
-3992 3991 66 0
-3992 -3991 -66 0
3992 -3991 66 0
3992 3991 -66 0
-3993 3992 67 0
-3993 -3992 -67 0
3993 -3992 67 0
3993 3992 -67 0
-3994 3993 70 0
-3994 -3993 -70 0
3994 -3993 70 0
3994 3993 -70 0
-3995 3994 71 0
-3995 -3994 -71 0
3995 -3994 71 0
3995 3994 -71 0
-3996 3995 76 0
-3996 -3995 -76 0
3996 -3995 76 0
3996 3995 -76 0
-3997 3996 77 0
-3997 -3996 -77 0
3997 -3996 77 0
3997 3996 -77 0
-3998 3997 78 0
-3998 -3997 -78 0
3998 -3997 78 0
3998 3997 -78 0
-3999 3998 83 0
-3999 -3998 -83 0
3999 -3998 83 0
3999 3998 -83 0
-4000 3999 85 0
-4000 -3999 -85 0
4000 -3999 85 0
4000 3999 -85 0
-4001 4000 86 0
-4001 -4000 -86 0
4001 -4000 86 0
4001 4000 -86 0
-4002 4001 89 0
-4002 -4001 -89 0
4002 -4001 89 0
4002 4001 -89 0
-4003 4002 90 0
-4003 -4002 -90 0
4003 -4002 90 0
4003 4002 -90 0
-4004 4003 91 0
-4004 -4003 -91 0
4004 -4003 91 0
4004 4003 -91 0
-4005 4004 95 0
-4005 -4004 -95 0
4005 -4004 95 0
4005 4004 -95 0
-4006 4005 97 0
-4006 -4005 -97 0
4006 -4005 97 0
4006 4005 -97 0
-4007 4006 98 0
-4007 -4006 -98 0
4007 -4006 98 0
4007 4006 -98 0
-4008 4007 99 0
-4008 -4007 -99 0
4008 -4007 99 0
4008 4007 -99 0
-4009 4008 100 0
-4009 -4008 -100 0
4009 -4008 100 0
4009 4008 -100 0
-4010 4009 103 0
-4010 -4009 -103 0
4010 -4009 103 0
4010 4009 -103 0
-4011 4010 105 0
-4011 -4010 -105 0
4011 -4010 105 0
4011 4010 -105 0
-4012 4011 106 0
-4012 -4011 -106 0
4012 -4011 106 0
4012 4011 -106 0
-4012 0
-4013 29 54 0
-4013 -29 -54 0
4013 -29 54 0
4013 29 -54 0
-4014 4013 57 0
-4014 -4013 -57 0
4014 -4013 57 0
4014 4013 -57 0
-4015 4014 59 0
-4015 -4014 -59 0
4015 -4014 59 0
4015 4014 -59 0
-4016 4015 63 0
-4016 -4015 -63 0
4016 -4015 63 0
4016 4015 -63 0
-4017 4016 64 0
-4017 -4016 -64 0
4017 -4016 64 0
4017 4016 -64 0
-4018 4017 69 0
-4018 -4017 -69 0
4018 -4017 69 0
4018 4017 -69 0
-4019 4018 75 0
-4019 -4018 -75 0
4019 -4018 75 0
4019 4018 -75 0
-4020 4019 76 0
-4020 -4019 -76 0
4020 -4019 76 0
4020 4019 -76 0
-4021 4020 77 0
-4021 -4020 -77 0
4021 -4020 77 0
4021 4020 -77 0
-4022 4021 79 0
-4022 -4021 -79 0
4022 -4021 79 0
4022 4021 -79 0
-4023 4022 80 0
-4023 -4022 -80 0
4023 -4022 80 0
4023 4022 -80 0
-4024 4023 82 0
-4024 -4023 -82 0
4024 -4023 82 0
4024 4023 -82 0
-4025 4024 83 0
-4025 -4024 -83 0
4025 -4024 83 0
4025 4024 -83 0
-4026 4025 84 0
-4026 -4025 -84 0
4026 -4025 84 0
4026 4025 -84 0
-4027 4026 85 0
-4027 -4026 -85 0
4027 -4026 85 0
4027 4026 -85 0
-4028 4027 89 0
-4028 -4027 -89 0
4028 -4027 89 0
4028 4027 -89 0
-4029 4028 91 0
-4029 -4028 -91 0
4029 -4028 91 0
4029 4028 -91 0
-4030 4029 92 0
-4030 -4029 -92 0
4030 -4029 92 0
4030 4029 -92 0
-4031 4030 93 0
-4031 -4030 -93 0
4031 -4030 93 0
4031 4030 -93 0
-4032 4031 94 0
-4032 -4031 -94 0
4032 -4031 94 0
4032 4031 -94 0
-4033 4032 97 0
-4033 -4032 -97 0
4033 -4032 97 0
4033 4032 -97 0
-4034 4033 99 0
-4034 -4033 -99 0
4034 -4033 99 0
4034 4033 -99 0
-4035 4034 105 0
-4035 -4034 -105 0
4035 -4034 105 0
4035 4034 -105 0
-4036 4035 106 0
-4036 -4035 -106 0
4036 -4035 106 0
4036 4035 -106 0
-4037 4036 108 0
-4037 -4036 -108 0
4037 -4036 108 0
4037 4036 -108 0
-4037 0
-4038 30 53 0
-4038 -30 -53 0
4038 -30 53 0
4038 30 -53 0
-4039 4038 54 0
-4039 -4038 -54 0
4039 -4038 54 0
4039 4038 -54 0
-4040 4039 58 0
-4040 -4039 -58 0
4040 -4039 58 0
4040 4039 -58 0
-4041 4040 60 0
-4041 -4040 -60 0
4041 -4040 60 0
4041 4040 -60 0
-4042 4041 61 0
-4042 -4041 -61 0
4042 -4041 61 0
4042 4041 -61 0
-4043 4042 62 0
-4043 -4042 -62 0
4043 -4042 62 0
4043 4042 -62 0
-4044 4043 63 0
-4044 -4043 -63 0
4044 -4043 63 0
4044 4043 -63 0
-4045 4044 66 0
-4045 -4044 -66 0
4045 -4044 66 0
4045 4044 -66 0
-4046 4045 68 0
-4046 -4045 -68 0
4046 -4045 68 0
4046 4045 -68 0
-4047 4046 72 0
-4047 -4046 -72 0
4047 -4046 72 0
4047 4046 -72 0
-4048 4047 74 0
-4048 -4047 -74 0
4048 -4047 74 0
4048 4047 -74 0
-4049 4048 75 0
-4049 -4048 -75 0
4049 -4048 75 0
4049 4048 -75 0
-4050 4049 76 0
-4050 -4049 -76 0
4050 -4049 76 0
4050 4049 -76 0
-4051 4050 80 0
-4051 -4050 -80 0
4051 -4050 80 0
4051 4050 -80 0
-4052 4051 82 0
-4052 -4051 -82 0
4052 -4051 82 0
4052 4051 -82 0
-4053 4052 83 0
-4053 -4052 -83 0
4053 -4052 83 0
4053 4052 -83 0
-4054 4053 85 0
-4054 -4053 -85 0
4054 -4053 85 0
4054 4053 -85 0
-4055 4054 88 0
-4055 -4054 -88 0
4055 -4054 88 0
4055 4054 -88 0
-4056 4055 89 0
-4056 -4055 -89 0
4056 -4055 89 0
4056 4055 -89 0
-4057 4056 90 0
-4057 -4056 -90 0
4057 -4056 90 0
4057 4056 -90 0
-4058 4057 91 0
-4058 -4057 -91 0
4058 -4057 91 0
4058 4057 -91 0
-4059 4058 92 0
-4059 -4058 -92 0
4059 -4058 92 0
4059 4058 -92 0
-4060 4059 93 0
-4060 -4059 -93 0
4060 -4059 93 0
4060 4059 -93 0
-4061 4060 95 0
-4061 -4060 -95 0
4061 -4060 95 0
4061 4060 -95 0
-4062 4061 98 0
-4062 -4061 -98 0
4062 -4061 98 0
4062 4061 -98 0
-4063 4062 101 0
-4063 -4062 -101 0
4063 -4062 101 0
4063 4062 -101 0
-4064 4063 102 0
-4064 -4063 -102 0
4064 -4063 102 0
4064 4063 -102 0
-4065 4064 103 0
-4065 -4064 -103 0
4065 -4064 103 0
4065 4064 -103 0
-4066 4065 108 0
-4066 -4065 -108 0
4066 -4065 108 0
4066 4065 -108 0
-4066 0
-4067 31 53 0
-4067 -31 -53 0
4067 -31 53 0
4067 31 -53 0
-4068 4067 54 0
-4068 -4067 -54 0
4068 -4067 54 0
4068 4067 -54 0
-4069 4068 58 0
-4069 -4068 -58 0
4069 -4068 58 0
4069 4068 -58 0
-4070 4069 60 0
-4070 -4069 -60 0
4070 -4069 60 0
4070 4069 -60 0
-4071 4070 61 0
-4071 -4070 -61 0
4071 -4070 61 0
4071 4070 -61 0
-4072 4071 62 0
-4072 -4071 -62 0
4072 -4071 62 0
4072 4071 -62 0
-4073 4072 63 0
-4073 -4072 -63 0
4073 -4072 63 0
4073 4072 -63 0
-4074 4073 66 0
-4074 -4073 -66 0
4074 -4073 66 0
4074 4073 -66 0
-4075 4074 67 0
-4075 -4074 -67 0
4075 -4074 67 0
4075 4074 -67 0
-4076 4075 69 0
-4076 -4075 -69 0
4076 -4075 69 0
4076 4075 -69 0
-4077 4076 70 0
-4077 -4076 -70 0
4077 -4076 70 0
4077 4076 -70 0
-4078 4077 71 0
-4078 -4077 -71 0
4078 -4077 71 0
4078 4077 -71 0
-4079 4078 75 0
-4079 -4078 -75 0
4079 -4078 75 0
4079 4078 -75 0
-4080 4079 78 0
-4080 -4079 -78 0
4080 -4079 78 0
4080 4079 -78 0
-4081 4080 81 0
-4081 -4080 -81 0
4081 -4080 81 0
4081 4080 -81 0
-4082 4081 82 0
-4082 -4081 -82 0
4082 -4081 82 0
4082 4081 -82 0
-4083 4082 83 0
-4083 -4082 -83 0
4083 -4082 83 0
4083 4082 -83 0
-4084 4083 87 0
-4084 -4083 -87 0
4084 -4083 87 0
4084 4083 -87 0
-4085 4084 89 0
-4085 -4084 -89 0
4085 -4084 89 0
4085 4084 -89 0
-4086 4085 90 0
-4086 -4085 -90 0
4086 -4085 90 0
4086 4085 -90 0
-4087 4086 91 0
-4087 -4086 -91 0
4087 -4086 91 0
4087 4086 -91 0
-4088 4087 92 0
-4088 -4087 -92 0
4088 -4087 92 0
4088 4087 -92 0
-4089 4088 95 0
-4089 -4088 -95 0
4089 -4088 95 0
4089 4088 -95 0
-4090 4089 96 0
-4090 -4089 -96 0
4090 -4089 96 0
4090 4089 -96 0
-4091 4090 97 0
-4091 -4090 -97 0
4091 -4090 97 0
4091 4090 -97 0
-4092 4091 101 0
-4092 -4091 -101 0
4092 -4091 101 0
4092 4091 -101 0
-4093 4092 108 0
-4093 -4092 -108 0
4093 -4092 108 0
4093 4092 -108 0
-4093 0
-4094 32 53 0
-4094 -32 -53 0
4094 -32 53 0
4094 32 -53 0
-4095 4094 57 0
-4095 -4094 -57 0
4095 -4094 57 0
4095 4094 -57 0
-4096 4095 58 0
-4096 -4095 -58 0
4096 -4095 58 0
4096 4095 -58 0
-4097 4096 59 0
-4097 -4096 -59 0
4097 -4096 59 0
4097 4096 -59 0
-4098 4097 60 0
-4098 -4097 -60 0
4098 -4097 60 0
4098 4097 -60 0
-4099 4098 61 0
-4099 -4098 -61 0
4099 -4098 61 0
4099 4098 -61 0
-4100 4099 62 0
-4100 -4099 -62 0
4100 -4099 62 0
4100 4099 -62 0
-4101 4100 64 0
-4101 -4100 -64 0
4101 -4100 64 0
4101 4100 -64 0
-4102 4101 66 0
-4102 -4101 -66 0
4102 -4101 66 0
4102 4101 -66 0
-4103 4102 68 0
-4103 -4102 -68 0
4103 -4102 68 0
4103 4102 -68 0
-4104 4103 69 0
-4104 -4103 -69 0
4104 -4103 69 0
4104 4103 -69 0
-4105 4104 72 0
-4105 -4104 -72 0
4105 -4104 72 0
4105 4104 -72 0
-4106 4105 74 0
-4106 -4105 -74 0
4106 -4105 74 0
4106 4105 -74 0
-4107 4106 77 0
-4107 -4106 -77 0
4107 -4106 77 0
4107 4106 -77 0
-4108 4107 80 0
-4108 -4107 -80 0
4108 -4107 80 0
4108 4107 -80 0
-4109 4108 81 0
-4109 -4108 -81 0
4109 -4108 81 0
4109 4108 -81 0
-4110 4109 82 0
-4110 -4109 -82 0
4110 -4109 82 0
4110 4109 -82 0
-4111 4110 87 0
-4111 -4110 -87 0
4111 -4110 87 0
4111 4110 -87 0
-4112 4111 91 0
-4112 -4111 -91 0
4112 -4111 91 0
4112 4111 -91 0
-4113 4112 92 0
-4113 -4112 -92 0
4113 -4112 92 0
4113 4112 -92 0
-4114 4113 97 0
-4114 -4113 -97 0
4114 -4113 97 0
4114 4113 -97 0
-4115 4114 103 0
-4115 -4114 -103 0
4115 -4114 103 0
4115 4114 -103 0
-4116 4115 104 0
-4116 -4115 -104 0
4116 -4115 104 0
4116 4115 -104 0
-4117 4116 105 0
-4117 -4116 -105 0
4117 -4116 105 0
4117 4116 -105 0
-4118 4117 106 0
-4118 -4117 -106 0
4118 -4117 106 0
4118 4117 -106 0
-4118 0
-4119 33 54 0
-4119 -33 -54 0
4119 -33 54 0
4119 33 -54 0
-4120 4119 57 0
-4120 -4119 -57 0
4120 -4119 57 0
4120 4119 -57 0
-4121 4120 59 0
-4121 -4120 -59 0
4121 -4120 59 0
4121 4120 -59 0
-4122 4121 63 0
-4122 -4121 -63 0
4122 -4121 63 0
4122 4121 -63 0
-4123 4122 64 0
-4123 -4122 -64 0
4123 -4122 64 0
4123 4122 -64 0
-4124 4123 67 0
-4124 -4123 -67 0
4124 -4123 67 0
4124 4123 -67 0
-4125 4124 68 0
-4125 -4124 -68 0
4125 -4124 68 0
4125 4124 -68 0
-4126 4125 70 0
-4126 -4125 -70 0
4126 -4125 70 0
4126 4125 -70 0
-4127 4126 71 0
-4127 -4126 -71 0
4127 -4126 71 0
4127 4126 -71 0
-4128 4127 72 0
-4128 -4127 -72 0
4128 -4127 72 0
4128 4127 -72 0
-4129 4128 73 0
-4129 -4128 -73 0
4129 -4128 73 0
4129 4128 -73 0
-4130 4129 76 0
-4130 -4129 -76 0
4130 -4129 76 0
4130 4129 -76 0
-4131 4130 79 0
-4131 -4130 -79 0
4131 -4130 79 0
4131 4130 -79 0
-4132 4131 80 0
-4132 -4131 -80 0
4132 -4131 80 0
4132 4131 -80 0
-4133 4132 81 0
-4133 -4132 -81 0
4133 -4132 81 0
4133 4132 -81 0
-4134 4133 86 0
-4134 -4133 -86 0
4134 -4133 86 0
4134 4133 -86 0
-4135 4134 87 0
-4135 -4134 -87 0
4135 -4134 87 0
4135 4134 -87 0
-4136 4135 88 0
-4136 -4135 -88 0
4136 -4135 88 0
4136 4135 -88 0
-4137 4136 89 0
-4137 -4136 -89 0
4137 -4136 89 0
4137 4136 -89 0
-4138 4137 90 0
-4138 -4137 -90 0
4138 -4137 90 0
4138 4137 -90 0
-4139 4138 91 0
-4139 -4138 -91 0
4139 -4138 91 0
4139 4138 -91 0
-4140 4139 92 0
-4140 -4139 -92 0
4140 -4139 92 0
4140 4139 -92 0
-4141 4140 94 0
-4141 -4140 -94 0
4141 -4140 94 0
4141 4140 -94 0
-4142 4141 96 0
-4142 -4141 -96 0
4142 -4141 96 0
4142 4141 -96 0
-4143 4142 97 0
-4143 -4142 -97 0
4143 -4142 97 0
4143 4142 -97 0
-4144 4143 100 0
-4144 -4143 -100 0
4144 -4143 100 0
4144 4143 -100 0
-4145 4144 101 0
-4145 -4144 -101 0
4145 -4144 101 0
4145 4144 -101 0
-4146 4145 106 0
-4146 -4145 -106 0
4146 -4145 106 0
4146 4145 -106 0
-4147 4146 108 0
-4147 -4146 -108 0
4147 -4146 108 0
4147 4146 -108 0
-4147 0
-4148 34 53 0
-4148 -34 -53 0
4148 -34 53 0
4148 34 -53 0
-4149 4148 54 0
-4149 -4148 -54 0
4149 -4148 54 0
4149 4148 -54 0
-4150 4149 58 0
-4150 -4149 -58 0
4150 -4149 58 0
4150 4149 -58 0
-4151 4150 60 0
-4151 -4150 -60 0
4151 -4150 60 0
4151 4150 -60 0
-4152 4151 61 0
-4152 -4151 -61 0
4152 -4151 61 0
4152 4151 -61 0
-4153 4152 62 0
-4153 -4152 -62 0
4153 -4152 62 0
4153 4152 -62 0
-4154 4153 63 0
-4154 -4153 -63 0
4154 -4153 63 0
4154 4153 -63 0
-4155 4154 66 0
-4155 -4154 -66 0
4155 -4154 66 0
4155 4154 -66 0
-4156 4155 67 0
-4156 -4155 -67 0
4156 -4155 67 0
4156 4155 -67 0
-4157 4156 69 0
-4157 -4156 -69 0
4157 -4156 69 0
4157 4156 -69 0
-4158 4157 70 0
-4158 -4157 -70 0
4158 -4157 70 0
4158 4157 -70 0
-4159 4158 71 0
-4159 -4158 -71 0
4159 -4158 71 0
4159 4158 -71 0
-4160 4159 75 0
-4160 -4159 -75 0
4160 -4159 75 0
4160 4159 -75 0
-4161 4160 78 0
-4161 -4160 -78 0
4161 -4160 78 0
4161 4160 -78 0
-4162 4161 79 0
-4162 -4161 -79 0
4162 -4161 79 0
4162 4161 -79 0
-4163 4162 80 0
-4163 -4162 -80 0
4163 -4162 80 0
4163 4162 -80 0
-4164 4163 84 0
-4164 -4163 -84 0
4164 -4163 84 0
4164 4163 -84 0
-4165 4164 86 0
-4165 -4164 -86 0
4165 -4164 86 0
4165 4164 -86 0
-4166 4165 87 0
-4166 -4165 -87 0
4166 -4165 87 0
4166 4165 -87 0
-4167 4166 90 0
-4167 -4166 -90 0
4167 -4166 90 0
4167 4166 -90 0
-4168 4167 92 0
-4168 -4167 -92 0
4168 -4167 92 0
4168 4167 -92 0
-4169 4168 93 0
-4169 -4168 -93 0
4169 -4168 93 0
4169 4168 -93 0
-4170 4169 94 0
-4170 -4169 -94 0
4170 -4169 94 0
4170 4169 -94 0
-4171 4170 95 0
-4171 -4170 -95 0
4171 -4170 95 0
4171 4170 -95 0
-4172 4171 98 0
-4172 -4171 -98 0
4172 -4171 98 0
4172 4171 -98 0
-4173 4172 100 0
-4173 -4172 -100 0
4173 -4172 100 0
4173 4172 -100 0
-4174 4173 103 0
-4174 -4173 -103 0
4174 -4173 103 0
4174 4173 -103 0
-4175 4174 106 0
-4175 -4174 -106 0
4175 -4174 106 0
4175 4174 -106 0
-4176 4175 108 0
-4176 -4175 -108 0
4176 -4175 108 0
4176 4175 -108 0
-4176 0
-4177 35 53 0
-4177 -35 -53 0
4177 -35 53 0
4177 35 -53 0
-4178 4177 57 0
-4178 -4177 -57 0
4178 -4177 57 0
4178 4177 -57 0
-4179 4178 58 0
-4179 -4178 -58 0
4179 -4178 58 0
4179 4178 -58 0
-4180 4179 59 0
-4180 -4179 -59 0
4180 -4179 59 0
4180 4179 -59 0
-4181 4180 60 0
-4181 -4180 -60 0
4181 -4180 60 0
4181 4180 -60 0
-4182 4181 61 0
-4182 -4181 -61 0
4182 -4181 61 0
4182 4181 -61 0
-4183 4182 62 0
-4183 -4182 -62 0
4183 -4182 62 0
4183 4182 -62 0
-4184 4183 64 0
-4184 -4183 -64 0
4184 -4183 64 0
4184 4183 -64 0
-4185 4184 66 0
-4185 -4184 -66 0
4185 -4184 66 0
4185 4184 -66 0
-4186 4185 68 0
-4186 -4185 -68 0
4186 -4185 68 0
4186 4185 -68 0
-4187 4186 69 0
-4187 -4186 -69 0
4187 -4186 69 0
4187 4186 -69 0
-4188 4187 72 0
-4188 -4187 -72 0
4188 -4187 72 0
4188 4187 -72 0
-4189 4188 74 0
-4189 -4188 -74 0
4189 -4188 74 0
4189 4188 -74 0
-4190 4189 77 0
-4190 -4189 -77 0
4190 -4189 77 0
4190 4189 -77 0
-4191 4190 79 0
-4191 -4190 -79 0
4191 -4190 79 0
4191 4190 -79 0
-4192 4191 83 0
-4192 -4191 -83 0
4192 -4191 83 0
4192 4191 -83 0
-4193 4192 84 0
-4193 -4192 -84 0
4193 -4192 84 0
4193 4192 -84 0
-4194 4193 90 0
-4194 -4193 -90 0
4194 -4193 90 0
4194 4193 -90 0
-4195 4194 94 0
-4195 -4194 -94 0
4195 -4194 94 0
4195 4194 -94 0
-4196 4195 95 0
-4196 -4195 -95 0
4196 -4195 95 0
4196 4195 -95 0
-4197 4196 97 0
-4197 -4196 -97 0
4197 -4196 97 0
4197 4196 -97 0
-4198 4197 98 0
-4198 -4197 -98 0
4198 -4197 98 0
4198 4197 -98 0
-4199 4198 99 0
-4199 -4198 -99 0
4199 -4198 99 0
4199 4198 -99 0
-4200 4199 101 0
-4200 -4199 -101 0
4200 -4199 101 0
4200 4199 -101 0
-4201 4200 102 0
-4201 -4200 -102 0
4201 -4200 102 0
4201 4200 -102 0
-4202 4201 103 0
-4202 -4201 -103 0
4202 -4201 103 0
4202 4201 -103 0
-4203 4202 105 0
-4203 -4202 -105 0
4203 -4202 105 0
4203 4202 -105 0
-4204 4203 106 0
-4204 -4203 -106 0
4204 -4203 106 0
4204 4203 -106 0
-4205 4204 107 0
-4205 -4204 -107 0
4205 -4204 107 0
4205 4204 -107 0
-4205 0
-4206 36 54 0
-4206 -36 -54 0
4206 -36 54 0
4206 36 -54 0
-4207 4206 57 0
-4207 -4206 -57 0
4207 -4206 57 0
4207 4206 -57 0
-4208 4207 59 0
-4208 -4207 -59 0
4208 -4207 59 0
4208 4207 -59 0
-4209 4208 63 0
-4209 -4208 -63 0
4209 -4208 63 0
4209 4208 -63 0
-4210 4209 64 0
-4210 -4209 -64 0
4210 -4209 64 0
4210 4209 -64 0
-4211 4210 67 0
-4211 -4210 -67 0
4211 -4210 67 0
4211 4210 -67 0
-4212 4211 68 0
-4212 -4211 -68 0
4212 -4211 68 0
4212 4211 -68 0
-4213 4212 70 0
-4213 -4212 -70 0
4213 -4212 70 0
4213 4212 -70 0
-4214 4213 71 0
-4214 -4213 -71 0
4214 -4213 71 0
4214 4213 -71 0
-4215 4214 72 0
-4215 -4214 -72 0
4215 -4214 72 0
4215 4214 -72 0
-4216 4215 73 0
-4216 -4215 -73 0
4216 -4215 73 0
4216 4215 -73 0
-4217 4216 76 0
-4217 -4216 -76 0
4217 -4216 76 0
4217 4216 -76 0
-4218 4217 82 0
-4218 -4217 -82 0
4218 -4217 82 0
4218 4217 -82 0
-4219 4218 83 0
-4219 -4218 -83 0
4219 -4218 83 0
4219 4218 -83 0
-4220 4219 84 0
-4220 -4219 -84 0
4220 -4219 84 0
4220 4219 -84 0
-4221 4220 85 0
-4221 -4220 -85 0
4221 -4220 85 0
4221 4220 -85 0
-4222 4221 86 0
-4222 -4221 -86 0
4222 -4221 86 0
4222 4221 -86 0
-4223 4222 87 0
-4223 -4222 -87 0
4223 -4222 87 0
4223 4222 -87 0
-4224 4223 89 0
-4224 -4223 -89 0
4224 -4223 89 0
4224 4223 -89 0
-4225 4224 90 0
-4225 -4224 -90 0
4225 -4224 90 0
4225 4224 -90 0
-4226 4225 91 0
-4226 -4225 -91 0
4226 -4225 91 0
4226 4225 -91 0
-4227 4226 93 0
-4227 -4226 -93 0
4227 -4226 93 0
4227 4226 -93 0
-4228 4227 94 0
-4228 -4227 -94 0
4228 -4227 94 0
4228 4227 -94 0
-4229 4228 95 0
-4229 -4228 -95 0
4229 -4228 95 0
4229 4228 -95 0
-4230 4229 99 0
-4230 -4229 -99 0
4230 -4229 99 0
4230 4229 -99 0
-4231 4230 101 0
-4231 -4230 -101 0
4231 -4230 101 0
4231 4230 -101 0
-4232 4231 102 0
-4232 -4231 -102 0
4232 -4231 102 0
4232 4231 -102 0
-4233 4232 105 0
-4233 -4232 -105 0
4233 -4232 105 0
4233 4232 -105 0
-4234 4233 106 0
-4234 -4233 -106 0
4234 -4233 106 0
4234 4233 -106 0
-4234 0
-4235 37 54 0
-4235 -37 -54 0
4235 -37 54 0
4235 37 -54 0
-4236 4235 58 0
-4236 -4235 -58 0
4236 -4235 58 0
4236 4235 -58 0
-4237 4236 59 0
-4237 -4236 -59 0
4237 -4236 59 0
4237 4236 -59 0
-4238 4237 60 0
-4238 -4237 -60 0
4238 -4237 60 0
4238 4237 -60 0
-4239 4238 61 0
-4239 -4238 -61 0
4239 -4238 61 0
4239 4238 -61 0
-4240 4239 62 0
-4240 -4239 -62 0
4240 -4239 62 0
4240 4239 -62 0
-4241 4240 63 0
-4241 -4240 -63 0
4241 -4240 63 0
4241 4240 -63 0
-4242 4241 65 0
-4242 -4241 -65 0
4242 -4241 65 0
4242 4241 -65 0
-4243 4242 67 0
-4243 -4242 -67 0
4243 -4242 67 0
4243 4242 -67 0
-4244 4243 69 0
-4244 -4243 -69 0
4244 -4243 69 0
4244 4243 -69 0
-4245 4244 70 0
-4245 -4244 -70 0
4245 -4244 70 0
4245 4244 -70 0
-4246 4245 73 0
-4246 -4245 -73 0
4246 -4245 73 0
4246 4245 -73 0
-4247 4246 74 0
-4247 -4246 -74 0
4247 -4246 74 0
4247 4246 -74 0
-4248 4247 76 0
-4248 -4247 -76 0
4248 -4247 76 0
4248 4247 -76 0
-4249 4248 77 0
-4249 -4248 -77 0
4249 -4248 77 0
4249 4248 -77 0
-4250 4249 79 0
-4250 -4249 -79 0
4250 -4249 79 0
4250 4249 -79 0
-4251 4250 82 0
-4251 -4250 -82 0
4251 -4250 82 0
4251 4250 -82 0
-4252 4251 85 0
-4252 -4251 -85 0
4252 -4251 85 0
4252 4251 -85 0
-4253 4252 86 0
-4253 -4252 -86 0
4253 -4252 86 0
4253 4252 -86 0
-4254 4253 87 0
-4254 -4253 -87 0
4254 -4253 87 0
4254 4253 -87 0
-4255 4254 91 0
-4255 -4254 -91 0
4255 -4254 91 0
4255 4254 -91 0
-4256 4255 93 0
-4256 -4255 -93 0
4256 -4255 93 0
4256 4255 -93 0
-4257 4256 94 0
-4257 -4256 -94 0
4257 -4256 94 0
4257 4256 -94 0
-4258 4257 95 0
-4258 -4257 -95 0
4258 -4257 95 0
4258 4257 -95 0
-4259 4258 96 0
-4259 -4258 -96 0
4259 -4258 96 0
4259 4258 -96 0
-4260 4259 97 0
-4260 -4259 -97 0
4260 -4259 97 0
4260 4259 -97 0
-4261 4260 98 0
-4261 -4260 -98 0
4261 -4260 98 0
4261 4260 -98 0
-4262 4261 100 0
-4262 -4261 -100 0
4262 -4261 100 0
4262 4261 -100 0
-4263 4262 103 0
-4263 -4262 -103 0
4263 -4262 103 0
4263 4262 -103 0
-4264 4263 106 0
-4264 -4263 -106 0
4264 -4263 106 0
4264 4263 -106 0
-4265 4264 107 0
-4265 -4264 -107 0
4265 -4264 107 0
4265 4264 -107 0
-4265 0
-4266 38 53 0
-4266 -38 -53 0
4266 -38 53 0
4266 38 -53 0
-4267 4266 54 0
-4267 -4266 -54 0
4267 -4266 54 0
4267 4266 -54 0
-4268 4267 57 0
-4268 -4267 -57 0
4268 -4267 57 0
4268 4267 -57 0
-4269 4268 58 0
-4269 -4268 -58 0
4269 -4268 58 0
4269 4268 -58 0
-4270 4269 59 0
-4270 -4269 -59 0
4270 -4269 59 0
4270 4269 -59 0
-4271 4270 62 0
-4271 -4270 -62 0
4271 -4270 62 0
4271 4270 -62 0
-4272 4271 64 0
-4272 -4271 -64 0
4272 -4271 64 0
4272 4271 -64 0
-4273 4272 68 0
-4273 -4272 -68 0
4273 -4272 68 0
4273 4272 -68 0
-4274 4273 69 0
-4274 -4273 -69 0
4274 -4273 69 0
4274 4273 -69 0
-4275 4274 73 0
-4275 -4274 -73 0
4275 -4274 73 0
4275 4274 -73 0
-4276 4275 75 0
-4276 -4275 -75 0
4276 -4275 75 0
4276 4275 -75 0
-4277 4276 76 0
-4277 -4276 -76 0
4277 -4276 76 0
4277 4276 -76 0
-4278 4277 78 0
-4278 -4277 -78 0
4278 -4277 78 0
4278 4277 -78 0
-4279 4278 81 0
-4279 -4278 -81 0
4279 -4278 81 0
4279 4278 -81 0
-4280 4279 84 0
-4280 -4279 -84 0
4280 -4279 84 0
4280 4279 -84 0
-4281 4280 85 0
-4281 -4280 -85 0
4281 -4280 85 0
4281 4280 -85 0
-4282 4281 86 0
-4282 -4281 -86 0
4282 -4281 86 0
4282 4281 -86 0
-4283 4282 90 0
-4283 -4282 -90 0
4283 -4282 90 0
4283 4282 -90 0
-4284 4283 91 0
-4284 -4283 -91 0
4284 -4283 91 0
4284 4283 -91 0
-4285 4284 92 0
-4285 -4284 -92 0
4285 -4284 92 0
4285 4284 -92 0
-4286 4285 93 0
-4286 -4285 -93 0
4286 -4285 93 0
4286 4285 -93 0
-4287 4286 94 0
-4287 -4286 -94 0
4287 -4286 94 0
4287 4286 -94 0
-4288 4287 95 0
-4288 -4287 -95 0
4288 -4287 95 0
4288 4287 -95 0
-4289 4288 97 0
-4289 -4288 -97 0
4289 -4288 97 0
4289 4288 -97 0
-4290 4289 99 0
-4290 -4289 -99 0
4290 -4289 99 0
4290 4289 -99 0
-4291 4290 101 0
-4291 -4290 -101 0
4291 -4290 101 0
4291 4290 -101 0
-4292 4291 102 0
-4292 -4291 -102 0
4292 -4291 102 0
4292 4291 -102 0
-4293 4292 105 0
-4293 -4292 -105 0
4293 -4292 105 0
4293 4292 -105 0
-4294 4293 106 0
-4294 -4293 -106 0
4294 -4293 106 0
4294 4293 -106 0
-4295 4294 107 0
-4295 -4294 -107 0
4295 -4294 107 0
4295 4294 -107 0
-4296 4295 108 0
-4296 -4295 -108 0
4296 -4295 108 0
4296 4295 -108 0
-4296 0
-4297 39 53 0
-4297 -39 -53 0
4297 -39 53 0
4297 39 -53 0
-4298 4297 58 0
-4298 -4297 -58 0
4298 -4297 58 0
4298 4297 -58 0
-4299 4298 59 0
-4299 -4298 -59 0
4299 -4298 59 0
4299 4298 -59 0
-4300 4299 60 0
-4300 -4299 -60 0
4300 -4299 60 0
4300 4299 -60 0
-4301 4300 61 0
-4301 -4300 -61 0
4301 -4300 61 0
4301 4300 -61 0
-4302 4301 62 0
-4302 -4301 -62 0
4302 -4301 62 0
4302 4301 -62 0
-4303 4302 64 0
-4303 -4302 -64 0
4303 -4302 64 0
4303 4302 -64 0
-4304 4303 66 0
-4304 -4303 -66 0
4304 -4303 66 0
4304 4303 -66 0
-4305 4304 68 0
-4305 -4304 -68 0
4305 -4304 68 0
4305 4304 -68 0
-4306 4305 69 0
-4306 -4305 -69 0
4306 -4305 69 0
4306 4305 -69 0
-4307 4306 72 0
-4307 -4306 -72 0
4307 -4306 72 0
4307 4306 -72 0
-4308 4307 73 0
-4308 -4307 -73 0
4308 -4307 73 0
4308 4307 -73 0
-4309 4308 75 0
-4309 -4308 -75 0
4309 -4308 75 0
4309 4308 -75 0
-4310 4309 76 0
-4310 -4309 -76 0
4310 -4309 76 0
4310 4309 -76 0
-4311 4310 78 0
-4311 -4310 -78 0
4311 -4310 78 0
4311 4310 -78 0
-4312 4311 81 0
-4312 -4311 -81 0
4312 -4311 81 0
4312 4311 -81 0
-4313 4312 84 0
-4313 -4312 -84 0
4313 -4312 84 0
4313 4312 -84 0
-4314 4313 87 0
-4314 -4313 -87 0
4314 -4313 87 0
4314 4313 -87 0
-4315 4314 88 0
-4315 -4314 -88 0
4315 -4314 88 0
4315 4314 -88 0
-4316 4315 89 0
-4316 -4315 -89 0
4316 -4315 89 0
4316 4315 -89 0
-4317 4316 91 0
-4317 -4316 -91 0
4317 -4316 91 0
4317 4316 -91 0
-4318 4317 92 0
-4318 -4317 -92 0
4318 -4317 92 0
4318 4317 -92 0
-4319 4318 93 0
-4319 -4318 -93 0
4319 -4318 93 0
4319 4318 -93 0
-4320 4319 95 0
-4320 -4319 -95 0
4320 -4319 95 0
4320 4319 -95 0
-4321 4320 96 0
-4321 -4320 -96 0
4321 -4320 96 0
4321 4320 -96 0
-4322 4321 97 0
-4322 -4321 -97 0
4322 -4321 97 0
4322 4321 -97 0
-4323 4322 98 0
-4323 -4322 -98 0
4323 -4322 98 0
4323 4322 -98 0
-4324 4323 101 0
-4324 -4323 -101 0
4324 -4323 101 0
4324 4323 -101 0
-4325 4324 103 0
-4325 -4324 -103 0
4325 -4324 103 0
4325 4324 -103 0
-4325 0
-4326 40 54 0
-4326 -40 -54 0
4326 -40 54 0
4326 40 -54 0
-4327 4326 57 0
-4327 -4326 -57 0
4327 -4326 57 0
4327 4326 -57 0
-4328 4327 58 0
-4328 -4327 -58 0
4328 -4327 58 0
4328 4327 -58 0
-4329 4328 59 0
-4329 -4328 -59 0
4329 -4328 59 0
4329 4328 -59 0
-4330 4329 63 0
-4330 -4329 -63 0
4330 -4329 63 0
4330 4329 -63 0
-4331 4330 64 0
-4331 -4330 -64 0
4331 -4330 64 0
4331 4330 -64 0
-4332 4331 67 0
-4332 -4331 -67 0
4332 -4331 67 0
4332 4331 -67 0
-4333 4332 68 0
-4333 -4332 -68 0
4333 -4332 68 0
4333 4332 -68 0
-4334 4333 70 0
-4334 -4333 -70 0
4334 -4333 70 0
4334 4333 -70 0
-4335 4334 71 0
-4335 -4334 -71 0
4335 -4334 71 0
4335 4334 -71 0
-4336 4335 72 0
-4336 -4335 -72 0
4336 -4335 72 0
4336 4335 -72 0
-4337 4336 74 0
-4337 -4336 -74 0
4337 -4336 74 0
4337 4336 -74 0
-4338 4337 75 0
-4338 -4337 -75 0
4338 -4337 75 0
4338 4337 -75 0
-4339 4338 77 0
-4339 -4338 -77 0
4339 -4338 77 0
4339 4338 -77 0
-4340 4339 78 0
-4340 -4339 -78 0
4340 -4339 78 0
4340 4339 -78 0
-4341 4340 80 0
-4341 -4340 -80 0
4341 -4340 80 0
4341 4340 -80 0
-4342 4341 83 0
-4342 -4341 -83 0
4342 -4341 83 0
4342 4341 -83 0
-4343 4342 86 0
-4343 -4342 -86 0
4343 -4342 86 0
4343 4342 -86 0
-4344 4343 87 0
-4344 -4343 -87 0
4344 -4343 87 0
4344 4343 -87 0
-4345 4344 88 0
-4345 -4344 -88 0
4345 -4344 88 0
4345 4344 -88 0
-4346 4345 92 0
-4346 -4345 -92 0
4346 -4345 92 0
4346 4345 -92 0
-4347 4346 97 0
-4347 -4346 -97 0
4347 -4346 97 0
4347 4346 -97 0
-4348 4347 99 0
-4348 -4347 -99 0
4348 -4347 99 0
4348 4347 -99 0
-4349 4348 100 0
-4349 -4348 -100 0
4349 -4348 100 0
4349 4348 -100 0
-4350 4349 101 0
-4350 -4349 -101 0
4350 -4349 101 0
4350 4349 -101 0
-4351 4350 102 0
-4351 -4350 -102 0
4351 -4350 102 0
4351 4350 -102 0
-4352 4351 105 0
-4352 -4351 -105 0
4352 -4351 105 0
4352 4351 -105 0
-4353 4352 107 0
-4353 -4352 -107 0
4353 -4352 107 0
4353 4352 -107 0
-4354 4353 108 0
-4354 -4353 -108 0
4354 -4353 108 0
4354 4353 -108 0
-4354 0
-4355 41 53 0
-4355 -41 -53 0
4355 -41 53 0
4355 41 -53 0
-4356 4355 54 0
-4356 -4355 -54 0
4356 -4355 54 0
4356 4355 -54 0
-4357 4356 58 0
-4357 -4356 -58 0
4357 -4356 58 0
4357 4356 -58 0
-4358 4357 59 0
-4358 -4357 -59 0
4358 -4357 59 0
4358 4357 -59 0
-4359 4358 60 0
-4359 -4358 -60 0
4359 -4358 60 0
4359 4358 -60 0
-4360 4359 61 0
-4360 -4359 -61 0
4360 -4359 61 0
4360 4359 -61 0
-4361 4360 62 0
-4361 -4360 -62 0
4361 -4360 62 0
4361 4360 -62 0
-4362 4361 63 0
-4362 -4361 -63 0
4362 -4361 63 0
4362 4361 -63 0
-4363 4362 66 0
-4363 -4362 -66 0
4363 -4362 66 0
4363 4362 -66 0
-4364 4363 67 0
-4364 -4363 -67 0
4364 -4363 67 0
4364 4363 -67 0
-4365 4364 69 0
-4365 -4364 -69 0
4365 -4364 69 0
4365 4364 -69 0
-4366 4365 70 0
-4366 -4365 -70 0
4366 -4365 70 0
4366 4365 -70 0
-4367 4366 71 0
-4367 -4366 -71 0
4367 -4366 71 0
4367 4366 -71 0
-4368 4367 73 0
-4368 -4367 -73 0
4368 -4367 73 0
4368 4367 -73 0
-4369 4368 74 0
-4369 -4368 -74 0
4369 -4368 74 0
4369 4368 -74 0
-4370 4369 76 0
-4370 -4369 -76 0
4370 -4369 76 0
4370 4369 -76 0
-4371 4370 77 0
-4371 -4370 -77 0
4371 -4370 77 0
4371 4370 -77 0
-4372 4371 79 0
-4372 -4371 -79 0
4372 -4371 79 0
4372 4371 -79 0
-4373 4372 82 0
-4373 -4372 -82 0
4373 -4372 82 0
4373 4372 -82 0
-4374 4373 85 0
-4374 -4373 -85 0
4374 -4373 85 0
4374 4373 -85 0
-4375 4374 86 0
-4375 -4374 -86 0
4375 -4374 86 0
4375 4374 -86 0
-4376 4375 87 0
-4376 -4375 -87 0
4376 -4375 87 0
4376 4375 -87 0
-4377 4376 91 0
-4377 -4376 -91 0
4377 -4376 91 0
4377 4376 -91 0
-4378 4377 93 0
-4378 -4377 -93 0
4378 -4377 93 0
4378 4377 -93 0
-4379 4378 94 0
-4379 -4378 -94 0
4379 -4378 94 0
4379 4378 -94 0
-4380 4379 97 0
-4380 -4379 -97 0
4380 -4379 97 0
4380 4379 -97 0
-4381 4380 98 0
-4381 -4380 -98 0
4381 -4380 98 0
4381 4380 -98 0
-4382 4381 103 0
-4382 -4381 -103 0
4382 -4381 103 0
4382 4381 -103 0
-4383 4382 107 0
-4383 -4382 -107 0
4383 -4382 107 0
4383 4382 -107 0
-4383 0
-4384 42 53 0
-4384 -42 -53 0
4384 -42 53 0
4384 42 -53 0
-4385 4384 57 0
-4385 -4384 -57 0
4385 -4384 57 0
4385 4384 -57 0
-4386 4385 58 0
-4386 -4385 -58 0
4386 -4385 58 0
4386 4385 -58 0
-4387 4386 59 0
-4387 -4386 -59 0
4387 -4386 59 0
4387 4386 -59 0
-4388 4387 61 0
-4388 -4387 -61 0
4388 -4387 61 0
4388 4387 -61 0
-4389 4388 62 0
-4389 -4388 -62 0
4389 -4388 62 0
4389 4388 -62 0
-4390 4389 64 0
-4390 -4389 -64 0
4390 -4389 64 0
4390 4389 -64 0
-4391 4390 66 0
-4391 -4390 -66 0
4391 -4390 66 0
4391 4390 -66 0
-4392 4391 68 0
-4392 -4391 -68 0
4392 -4391 68 0
4392 4391 -68 0
-4393 4392 69 0
-4393 -4392 -69 0
4393 -4392 69 0
4393 4392 -69 0
-4394 4393 72 0
-4394 -4393 -72 0
4394 -4393 72 0
4394 4393 -72 0
-4395 4394 73 0
-4395 -4394 -73 0
4395 -4394 73 0
4395 4394 -73 0
-4396 4395 75 0
-4396 -4395 -75 0
4396 -4395 75 0
4396 4395 -75 0
-4397 4396 76 0
-4397 -4396 -76 0
4397 -4396 76 0
4397 4396 -76 0
-4398 4397 78 0
-4398 -4397 -78 0
4398 -4397 78 0
4398 4397 -78 0
-4399 4398 81 0
-4399 -4398 -81 0
4399 -4398 81 0
4399 4398 -81 0
-4400 4399 84 0
-4400 -4399 -84 0
4400 -4399 84 0
4400 4399 -84 0
-4401 4400 85 0
-4401 -4400 -85 0
4401 -4400 85 0
4401 4400 -85 0
-4402 4401 86 0
-4402 -4401 -86 0
4402 -4401 86 0
4402 4401 -86 0
-4403 4402 90 0
-4403 -4402 -90 0
4403 -4402 90 0
4403 4402 -90 0
-4404 4403 92 0
-4404 -4403 -92 0
4404 -4403 92 0
4404 4403 -92 0
-4405 4404 93 0
-4405 -4404 -93 0
4405 -4404 93 0
4405 4404 -93 0
-4406 4405 94 0
-4406 -4405 -94 0
4406 -4405 94 0
4406 4405 -94 0
-4407 4406 95 0
-4407 -4406 -95 0
4407 -4406 95 0
4407 4406 -95 0
-4408 4407 96 0
-4408 -4407 -96 0
4408 -4407 96 0
4408 4407 -96 0
-4409 4408 97 0
-4409 -4408 -97 0
4409 -4408 97 0
4409 4408 -97 0
-4410 4409 99 0
-4410 -4409 -99 0
4410 -4409 99 0
4410 4409 -99 0
-4411 4410 102 0
-4411 -4410 -102 0
4411 -4410 102 0
4411 4410 -102 0
-4412 4411 105 0
-4412 -4411 -105 0
4412 -4411 105 0
4412 4411 -105 0
-4413 4412 106 0
-4413 -4412 -106 0
4413 -4412 106 0
4413 4412 -106 0
-4414 4413 108 0
-4414 -4413 -108 0
4414 -4413 108 0
4414 4413 -108 0
-4414 0
-4415 43 53 0
-4415 -43 -53 0
4415 -43 53 0
4415 43 -53 0
-4416 4415 57 0
-4416 -4415 -57 0
4416 -4415 57 0
4416 4415 -57 0
-4417 4416 60 0
-4417 -4416 -60 0
4417 -4416 60 0
4417 4416 -60 0
-4418 4417 63 0
-4418 -4417 -63 0
4418 -4417 63 0
4418 4417 -63 0
-4419 4418 64 0
-4419 -4418 -64 0
4419 -4418 64 0
4419 4418 -64 0
-4420 4419 65 0
-4420 -4419 -65 0
4420 -4419 65 0
4420 4419 -65 0
-4421 4420 67 0
-4421 -4420 -67 0
4421 -4420 67 0
4421 4420 -67 0
-4422 4421 68 0
-4422 -4421 -68 0
4422 -4421 68 0
4422 4421 -68 0
-4423 4422 70 0
-4423 -4422 -70 0
4423 -4422 70 0
4423 4422 -70 0
-4424 4423 74 0
-4424 -4423 -74 0
4424 -4423 74 0
4424 4423 -74 0
-4425 4424 75 0
-4425 -4424 -75 0
4425 -4424 75 0
4425 4424 -75 0
-4426 4425 77 0
-4426 -4425 -77 0
4426 -4425 77 0
4426 4425 -77 0
-4427 4426 78 0
-4427 -4426 -78 0
4427 -4426 78 0
4427 4426 -78 0
-4428 4427 79 0
-4428 -4427 -79 0
4428 -4427 79 0
4428 4427 -79 0
-4429 4428 81 0
-4429 -4428 -81 0
4429 -4428 81 0
4429 4428 -81 0
-4430 4429 82 0
-4430 -4429 -82 0
4430 -4429 82 0
4430 4429 -82 0
-4431 4430 84 0
-4431 -4430 -84 0
4431 -4430 84 0
4431 4430 -84 0
-4432 4431 87 0
-4432 -4431 -87 0
4432 -4431 87 0
4432 4431 -87 0
-4433 4432 90 0
-4433 -4432 -90 0
4433 -4432 90 0
4433 4432 -90 0
-4434 4433 91 0
-4434 -4433 -91 0
4434 -4433 91 0
4434 4433 -91 0
-4435 4434 92 0
-4435 -4434 -92 0
4435 -4434 92 0
4435 4434 -92 0
-4436 4435 96 0
-4436 -4435 -96 0
4436 -4435 96 0
4436 4435 -96 0
-4437 4436 98 0
-4437 -4436 -98 0
4437 -4436 98 0
4437 4436 -98 0
-4438 4437 99 0
-4438 -4437 -99 0
4438 -4437 99 0
4438 4437 -99 0
-4439 4438 100 0
-4439 -4438 -100 0
4439 -4438 100 0
4439 4438 -100 0
-4440 4439 101 0
-4440 -4439 -101 0
4440 -4439 101 0
4440 4439 -101 0
-4441 4440 103 0
-4441 -4440 -103 0
4441 -4440 103 0
4441 4440 -103 0
-4442 4441 105 0
-4442 -4441 -105 0
4442 -4441 105 0
4442 4441 -105 0
-4443 4442 108 0
-4443 -4442 -108 0
4443 -4442 108 0
4443 4442 -108 0
-4443 0
-4444 44 54 0
-4444 -44 -54 0
4444 -44 54 0
4444 44 -54 0
-4445 4444 57 0
-4445 -4444 -57 0
4445 -4444 57 0
4445 4444 -57 0
-4446 4445 60 0
-4446 -4445 -60 0
4446 -4445 60 0
4446 4445 -60 0
-4447 4446 61 0
-4447 -4446 -61 0
4447 -4446 61 0
4447 4446 -61 0
-4448 4447 62 0
-4448 -4447 -62 0
4448 -4447 62 0
4448 4447 -62 0
-4449 4448 66 0
-4449 -4448 -66 0
4449 -4448 66 0
4449 4448 -66 0
-4450 4449 72 0
-4450 -4449 -72 0
4450 -4449 72 0
4450 4449 -72 0
-4451 4450 85 0
-4451 -4450 -85 0
4451 -4450 85 0
4451 4450 -85 0
-4452 4451 86 0
-4452 -4451 -86 0
4452 -4451 86 0
4452 4451 -86 0
-4453 4452 87 0
-4453 -4452 -87 0
4453 -4452 87 0
4453 4452 -87 0
-4454 4453 88 0
-4454 -4453 -88 0
4454 -4453 88 0
4454 4453 -88 0
-4455 4454 89 0
-4455 -4454 -89 0
4455 -4454 89 0
4455 4454 -89 0
-4456 4455 90 0
-4456 -4455 -90 0
4456 -4455 90 0
4456 4455 -90 0
-4457 4456 92 0
-4457 -4456 -92 0
4457 -4456 92 0
4457 4456 -92 0
-4458 4457 94 0
-4458 -4457 -94 0
4458 -4457 94 0
4458 4457 -94 0
-4459 4458 96 0
-4459 -4458 -96 0
4459 -4458 96 0
4459 4458 -96 0
-4460 4459 97 0
-4460 -4459 -97 0
4460 -4459 97 0
4460 4459 -97 0
-4461 4460 98 0
-4461 -4460 -98 0
4461 -4460 98 0
4461 4460 -98 0
-4462 4461 99 0
-4462 -4461 -99 0
4462 -4461 99 0
4462 4461 -99 0
-4463 4462 102 0
-4463 -4462 -102 0
4463 -4462 102 0
4463 4462 -102 0
-4464 4463 103 0
-4464 -4463 -103 0
4464 -4463 103 0
4464 4463 -103 0
-4465 4464 105 0
-4465 -4464 -105 0
4465 -4464 105 0
4465 4464 -105 0
-4466 4465 106 0
-4466 -4465 -106 0
4466 -4465 106 0
4466 4465 -106 0
-4467 4466 107 0
-4467 -4466 -107 0
4467 -4466 107 0
4467 4466 -107 0
-4468 4467 108 0
-4468 -4467 -108 0
4468 -4467 108 0
4468 4467 -108 0
-4468 0
-4469 45 53 0
-4469 -45 -53 0
4469 -45 53 0
4469 45 -53 0
-4470 4469 54 0
-4470 -4469 -54 0
4470 -4469 54 0
4470 4469 -54 0
-4471 4470 57 0
-4471 -4470 -57 0
4471 -4470 57 0
4471 4470 -57 0
-4472 4471 60 0
-4472 -4471 -60 0
4472 -4471 60 0
4472 4471 -60 0
-4473 4472 61 0
-4473 -4472 -61 0
4473 -4472 61 0
4473 4472 -61 0
-4474 4473 62 0
-4474 -4473 -62 0
4474 -4473 62 0
4474 4473 -62 0
-4475 4474 66 0
-4475 -4474 -66 0
4475 -4474 66 0
4475 4474 -66 0
-4476 4475 67 0
-4476 -4475 -67 0
4476 -4475 67 0
4476 4475 -67 0
-4477 4476 69 0
-4477 -4476 -69 0
4477 -4476 69 0
4477 4476 -69 0
-4478 4477 70 0
-4478 -4477 -70 0
4478 -4477 70 0
4478 4477 -70 0
-4479 4478 71 0
-4479 -4478 -71 0
4479 -4478 71 0
4479 4478 -71 0
-4480 4479 73 0
-4480 -4479 -73 0
4480 -4479 73 0
4480 4479 -73 0
-4481 4480 74 0
-4481 -4480 -74 0
4481 -4480 74 0
4481 4480 -74 0
-4482 4481 76 0
-4482 -4481 -76 0
4482 -4481 76 0
4482 4481 -76 0
-4483 4482 77 0
-4483 -4482 -77 0
4483 -4482 77 0
4483 4482 -77 0
-4484 4483 80 0
-4484 -4483 -80 0
4484 -4483 80 0
4484 4483 -80 0
-4485 4484 81 0
-4485 -4484 -81 0
4485 -4484 81 0
4485 4484 -81 0
-4486 4485 83 0
-4486 -4485 -83 0
4486 -4485 83 0
4486 4485 -83 0
-4487 4486 84 0
-4487 -4486 -84 0
4487 -4486 84 0
4487 4486 -84 0
-4488 4487 86 0
-4488 -4487 -86 0
4488 -4487 86 0
4488 4487 -86 0
-4489 4488 89 0
-4489 -4488 -89 0
4489 -4488 89 0
4489 4488 -89 0
-4490 4489 91 0
-4490 -4489 -91 0
4490 -4489 91 0
4490 4489 -91 0
-4491 4490 95 0
-4491 -4490 -95 0
4491 -4490 95 0
4491 4490 -95 0
-4492 4491 96 0
-4492 -4491 -96 0
4492 -4491 96 0
4492 4491 -96 0
-4493 4492 99 0
-4493 -4492 -99 0
4493 -4492 99 0
4493 4492 -99 0
-4494 4493 100 0
-4494 -4493 -100 0
4494 -4493 100 0
4494 4493 -100 0
-4495 4494 102 0
-4495 -4494 -102 0
4495 -4494 102 0
4495 4494 -102 0
-4496 4495 103 0
-4496 -4495 -103 0
4496 -4495 103 0
4496 4495 -103 0
-4497 4496 105 0
-4497 -4496 -105 0
4497 -4496 105 0
4497 4496 -105 0
-4498 4497 107 0
-4498 -4497 -107 0
4498 -4497 107 0
4498 4497 -107 0
-4499 4498 108 0
-4499 -4498 -108 0
4499 -4498 108 0
4499 4498 -108 0
-4499 0
-4500 46 53 0
-4500 -46 -53 0
4500 -46 53 0
4500 46 -53 0
-4501 4500 57 0
-4501 -4500 -57 0
4501 -4500 57 0
4501 4500 -57 0
-4502 4501 60 0
-4502 -4501 -60 0
4502 -4501 60 0
4502 4501 -60 0
-4503 4502 61 0
-4503 -4502 -61 0
4503 -4502 61 0
4503 4502 -61 0
-4504 4503 62 0
-4504 -4503 -62 0
4504 -4503 62 0
4504 4503 -62 0
-4505 4504 66 0
-4505 -4504 -66 0
4505 -4504 66 0
4505 4504 -66 0
-4506 4505 68 0
-4506 -4505 -68 0
4506 -4505 68 0
4506 4505 -68 0
-4507 4506 69 0
-4507 -4506 -69 0
4507 -4506 69 0
4507 4506 -69 0
-4508 4507 72 0
-4508 -4507 -72 0
4508 -4507 72 0
4508 4507 -72 0
-4509 4508 73 0
-4509 -4508 -73 0
4509 -4508 73 0
4509 4508 -73 0
-4510 4509 75 0
-4510 -4509 -75 0
4510 -4509 75 0
4510 4509 -75 0
-4511 4510 76 0
-4511 -4510 -76 0
4511 -4510 76 0
4511 4510 -76 0
-4512 4511 78 0
-4512 -4511 -78 0
4512 -4511 78 0
4512 4511 -78 0
-4513 4512 79 0
-4513 -4512 -79 0
4513 -4512 79 0
4513 4512 -79 0
-4514 4513 80 0
-4514 -4513 -80 0
4514 -4513 80 0
4514 4513 -80 0
-4515 4514 82 0
-4515 -4514 -82 0
4515 -4514 82 0
4515 4514 -82 0
-4516 4515 83 0
-4516 -4515 -83 0
4516 -4515 83 0
4516 4515 -83 0
-4517 4516 85 0
-4517 -4516 -85 0
4517 -4516 85 0
4517 4516 -85 0
-4518 4517 88 0
-4518 -4517 -88 0
4518 -4517 88 0
4518 4517 -88 0
-4519 4518 91 0
-4519 -4518 -91 0
4519 -4518 91 0
4519 4518 -91 0
-4520 4519 92 0
-4520 -4519 -92 0
4520 -4519 92 0
4520 4519 -92 0
-4521 4520 93 0
-4521 -4520 -93 0
4521 -4520 93 0
4521 4520 -93 0
-4522 4521 98 0
-4522 -4521 -98 0
4522 -4521 98 0
4522 4521 -98 0
-4523 4522 100 0
-4523 -4522 -100 0
4523 -4522 100 0
4523 4522 -100 0
-4524 4523 101 0
-4524 -4523 -101 0
4524 -4523 101 0
4524 4523 -101 0
-4525 4524 102 0
-4525 -4524 -102 0
4525 -4524 102 0
4525 4524 -102 0
-4526 4525 103 0
-4526 -4525 -103 0
4526 -4525 103 0
4526 4525 -103 0
-4527 4526 105 0
-4527 -4526 -105 0
4527 -4526 105 0
4527 4526 -105 0
-4528 4527 108 0
-4528 -4527 -108 0
4528 -4527 108 0
4528 4527 -108 0
-4528 0
-4529 47 54 0
-4529 -47 -54 0
4529 -47 54 0
4529 47 -54 0
-4530 4529 57 0
-4530 -4529 -57 0
4530 -4529 57 0
4530 4529 -57 0
-4531 4530 60 0
-4531 -4530 -60 0
4531 -4530 60 0
4531 4530 -60 0
-4532 4531 63 0
-4532 -4531 -63 0
4532 -4531 63 0
4532 4531 -63 0
-4533 4532 64 0
-4533 -4532 -64 0
4533 -4532 64 0
4533 4532 -64 0
-4534 4533 65 0
-4534 -4533 -65 0
4534 -4533 65 0
4534 4533 -65 0
-4535 4534 67 0
-4535 -4534 -67 0
4535 -4534 67 0
4535 4534 -67 0
-4536 4535 68 0
-4536 -4535 -68 0
4536 -4535 68 0
4536 4535 -68 0
-4537 4536 70 0
-4537 -4536 -70 0
4537 -4536 70 0
4537 4536 -70 0
-4538 4537 71 0
-4538 -4537 -71 0
4538 -4537 71 0
4538 4537 -71 0
-4539 4538 72 0
-4539 -4538 -72 0
4539 -4538 72 0
4539 4538 -72 0
-4540 4539 74 0
-4540 -4539 -74 0
4540 -4539 74 0
4540 4539 -74 0
-4541 4540 75 0
-4541 -4540 -75 0
4541 -4540 75 0
4541 4540 -75 0
-4542 4541 77 0
-4542 -4541 -77 0
4542 -4541 77 0
4542 4541 -77 0
-4543 4542 78 0
-4543 -4542 -78 0
4543 -4542 78 0
4543 4542 -78 0
-4544 4543 79 0
-4544 -4543 -79 0
4544 -4543 79 0
4544 4543 -79 0
-4545 4544 81 0
-4545 -4544 -81 0
4545 -4544 81 0
4545 4544 -81 0
-4546 4545 82 0
-4546 -4545 -82 0
4546 -4545 82 0
4546 4545 -82 0
-4547 4546 84 0
-4547 -4546 -84 0
4547 -4546 84 0
4547 4546 -84 0
-4548 4547 87 0
-4548 -4547 -87 0
4548 -4547 87 0
4548 4547 -87 0
-4549 4548 90 0
-4549 -4548 -90 0
4549 -4548 90 0
4549 4548 -90 0
-4550 4549 91 0
-4550 -4549 -91 0
4550 -4549 91 0
4550 4549 -91 0
-4551 4550 92 0
-4551 -4550 -92 0
4551 -4550 92 0
4551 4550 -92 0
-4552 4551 96 0
-4552 -4551 -96 0
4552 -4551 96 0
4552 4551 -96 0
-4553 4552 98 0
-4553 -4552 -98 0
4553 -4552 98 0
4553 4552 -98 0
-4554 4553 99 0
-4554 -4553 -99 0
4554 -4553 99 0
4554 4553 -99 0
-4555 4554 100 0
-4555 -4554 -100 0
4555 -4554 100 0
4555 4554 -100 0
-4556 4555 102 0
-4556 -4555 -102 0
4556 -4555 102 0
4556 4555 -102 0
-4557 4556 103 0
-4557 -4556 -103 0
4557 -4556 103 0
4557 4556 -103 0
-4558 4557 105 0
-4558 -4557 -105 0
4558 -4557 105 0
4558 4557 -105 0
-4559 4558 106 0
-4559 -4558 -106 0
4559 -4558 106 0
4559 4558 -106 0
-4560 4559 107 0
-4560 -4559 -107 0
4560 -4559 107 0
4560 4559 -107 0
-4561 4560 108 0
-4561 -4560 -108 0
4561 -4560 108 0
4561 4560 -108 0
-4561 0
-4562 48 53 0
-4562 -48 -53 0
4562 -48 53 0
4562 48 -53 0
-4563 4562 54 0
-4563 -4562 -54 0
4563 -4562 54 0
4563 4562 -54 0
-4564 4563 57 0
-4564 -4563 -57 0
4564 -4563 57 0
4564 4563 -57 0
-4565 4564 60 0
-4565 -4564 -60 0
4565 -4564 60 0
4565 4564 -60 0
-4566 4565 63 0
-4566 -4565 -63 0
4566 -4565 63 0
4566 4565 -63 0
-4567 4566 64 0
-4567 -4566 -64 0
4567 -4566 64 0
4567 4566 -64 0
-4568 4567 65 0
-4568 -4567 -65 0
4568 -4567 65 0
4568 4567 -65 0
-4569 4568 67 0
-4569 -4568 -67 0
4569 -4568 67 0
4569 4568 -67 0
-4570 4569 68 0
-4570 -4569 -68 0
4570 -4569 68 0
4570 4569 -68 0
-4571 4570 70 0
-4571 -4570 -70 0
4571 -4570 70 0
4571 4570 -70 0
-4572 4571 72 0
-4572 -4571 -72 0
4572 -4571 72 0
4572 4571 -72 0
-4573 4572 74 0
-4573 -4572 -74 0
4573 -4572 74 0
4573 4572 -74 0
-4574 4573 75 0
-4574 -4573 -75 0
4574 -4573 75 0
4574 4573 -75 0
-4575 4574 77 0
-4575 -4574 -77 0
4575 -4574 77 0
4575 4574 -77 0
-4576 4575 78 0
-4576 -4575 -78 0
4576 -4575 78 0
4576 4575 -78 0
-4577 4576 79 0
-4577 -4576 -79 0
4577 -4576 79 0
4577 4576 -79 0
-4578 4577 81 0
-4578 -4577 -81 0
4578 -4577 81 0
4578 4577 -81 0
-4579 4578 82 0
-4579 -4578 -82 0
4579 -4578 82 0
4579 4578 -82 0
-4580 4579 84 0
-4580 -4579 -84 0
4580 -4579 84 0
4580 4579 -84 0
-4581 4580 87 0
-4581 -4580 -87 0
4581 -4580 87 0
4581 4580 -87 0
-4582 4581 90 0
-4582 -4581 -90 0
4582 -4581 90 0
4582 4581 -90 0
-4583 4582 91 0
-4583 -4582 -91 0
4583 -4582 91 0
4583 4582 -91 0
-4584 4583 92 0
-4584 -4583 -92 0
4584 -4583 92 0
4584 4583 -92 0
-4585 4584 96 0
-4585 -4584 -96 0
4585 -4584 96 0
4585 4584 -96 0
-4586 4585 98 0
-4586 -4585 -98 0
4586 -4585 98 0
4586 4585 -98 0
-4587 4586 99 0
-4587 -4586 -99 0
4587 -4586 99 0
4587 4586 -99 0
-4588 4587 100 0
-4588 -4587 -100 0
4588 -4587 100 0
4588 4587 -100 0
-4589 4588 101 0
-4589 -4588 -101 0
4589 -4588 101 0
4589 4588 -101 0
-4590 4589 102 0
-4590 -4589 -102 0
4590 -4589 102 0
4590 4589 -102 0
-4591 4590 103 0
-4591 -4590 -103 0
4591 -4590 103 0
4591 4590 -103 0
-4592 4591 105 0
-4592 -4591 -105 0
4592 -4591 105 0
4592 4591 -105 0
-4593 4592 107 0
-4593 -4592 -107 0
4593 -4592 107 0
4593 4592 -107 0
-4594 4593 108 0
-4594 -4593 -108 0
4594 -4593 108 0
4594 4593 -108 0
-4594 0
-4595 49 53 0
-4595 -49 -53 0
4595 -49 53 0
4595 49 -53 0
-4596 4595 54 0
-4596 -4595 -54 0
4596 -4595 54 0
4596 4595 -54 0
-4597 4596 61 0
-4597 -4596 -61 0
4597 -4596 61 0
4597 4596 -61 0
-4598 4597 62 0
-4598 -4597 -62 0
4598 -4597 62 0
4598 4597 -62 0
-4599 4598 63 0
-4599 -4598 -63 0
4599 -4598 63 0
4599 4598 -63 0
-4600 4599 64 0
-4600 -4599 -64 0
4600 -4599 64 0
4600 4599 -64 0
-4601 4600 65 0
-4601 -4600 -65 0
4601 -4600 65 0
4601 4600 -65 0
-4602 4601 66 0
-4602 -4601 -66 0
4602 -4601 66 0
4602 4601 -66 0
-4603 4602 68 0
-4603 -4602 -68 0
4603 -4602 68 0
4603 4602 -68 0
-4604 4603 70 0
-4604 -4603 -70 0
4604 -4603 70 0
4604 4603 -70 0
-4605 4604 72 0
-4605 -4604 -72 0
4605 -4604 72 0
4605 4604 -72 0
-4606 4605 74 0
-4606 -4605 -74 0
4606 -4605 74 0
4606 4605 -74 0
-4607 4606 75 0
-4607 -4606 -75 0
4607 -4606 75 0
4607 4606 -75 0
-4608 4607 77 0
-4608 -4607 -77 0
4608 -4607 77 0
4608 4607 -77 0
-4609 4608 78 0
-4609 -4608 -78 0
4609 -4608 78 0
4609 4608 -78 0
-4610 4609 79 0
-4610 -4609 -79 0
4610 -4609 79 0
4610 4609 -79 0
-4611 4610 81 0
-4611 -4610 -81 0
4611 -4610 81 0
4611 4610 -81 0
-4612 4611 82 0
-4612 -4611 -82 0
4612 -4611 82 0
4612 4611 -82 0
-4613 4612 84 0
-4613 -4612 -84 0
4613 -4612 84 0
4613 4612 -84 0
-4614 4613 85 0
-4614 -4613 -85 0
4614 -4613 85 0
4614 4613 -85 0
-4615 4614 86 0
-4615 -4614 -86 0
4615 -4614 86 0
4615 4614 -86 0
-4616 4615 88 0
-4616 -4615 -88 0
4616 -4615 88 0
4616 4615 -88 0
-4617 4616 89 0
-4617 -4616 -89 0
4617 -4616 89 0
4617 4616 -89 0
-4618 4617 91 0
-4618 -4617 -91 0
4618 -4617 91 0
4618 4617 -91 0
-4619 4618 94 0
-4619 -4618 -94 0
4619 -4618 94 0
4619 4618 -94 0
-4620 4619 100 0
-4620 -4619 -100 0
4620 -4619 100 0
4620 4619 -100 0
-4621 4620 101 0
-4621 -4620 -101 0
4621 -4620 101 0
4621 4620 -101 0
-4622 4621 102 0
-4622 -4621 -102 0
4622 -4621 102 0
4622 4621 -102 0
-4623 4622 106 0
-4623 -4622 -106 0
4623 -4622 106 0
4623 4622 -106 0
-4624 4623 107 0
-4624 -4623 -107 0
4624 -4623 107 0
4624 4623 -107 0
-4625 4624 108 0
-4625 -4624 -108 0
4625 -4624 108 0
4625 4624 -108 0
-4625 0
-4626 50 53 0
-4626 -50 -53 0
4626 -50 53 0
4626 50 -53 0
-4627 4626 67 0
-4627 -4626 -67 0
4627 -4626 67 0
4627 4626 -67 0
-4628 4627 68 0
-4628 -4627 -68 0
4628 -4627 68 0
4628 4627 -68 0
-4629 4628 69 0
-4629 -4628 -69 0
4629 -4628 69 0
4629 4628 -69 0
-4630 4629 70 0
-4630 -4629 -70 0
4630 -4629 70 0
4630 4629 -70 0
-4631 4630 71 0
-4631 -4630 -71 0
4631 -4630 71 0
4631 4630 -71 0
-4632 4631 72 0
-4632 -4631 -72 0
4632 -4631 72 0
4632 4631 -72 0
-4633 4632 73 0
-4633 -4632 -73 0
4633 -4632 73 0
4633 4632 -73 0
-4634 4633 74 0
-4634 -4633 -74 0
4634 -4633 74 0
4634 4633 -74 0
-4635 4634 76 0
-4635 -4634 -76 0
4635 -4634 76 0
4635 4634 -76 0
-4636 4635 77 0
-4636 -4635 -77 0
4636 -4635 77 0
4636 4635 -77 0
-4637 4636 80 0
-4637 -4636 -80 0
4637 -4636 80 0
4637 4636 -80 0
-4638 4637 81 0
-4638 -4637 -81 0
4638 -4637 81 0
4638 4637 -81 0
-4639 4638 83 0
-4639 -4638 -83 0
4639 -4638 83 0
4639 4638 -83 0
-4640 4639 84 0
-4640 -4639 -84 0
4640 -4639 84 0
4640 4639 -84 0
-4641 4640 85 0
-4641 -4640 -85 0
4641 -4640 85 0
4641 4640 -85 0
-4642 4641 87 0
-4642 -4641 -87 0
4642 -4641 87 0
4642 4641 -87 0
-4643 4642 88 0
-4643 -4642 -88 0
4643 -4642 88 0
4643 4642 -88 0
-4644 4643 90 0
-4644 -4643 -90 0
4644 -4643 90 0
4644 4643 -90 0
-4645 4644 91 0
-4645 -4644 -91 0
4645 -4644 91 0
4645 4644 -91 0
-4646 4645 92 0
-4646 -4645 -92 0
4646 -4645 92 0
4646 4645 -92 0
-4647 4646 94 0
-4647 -4646 -94 0
4647 -4646 94 0
4647 4646 -94 0
-4648 4647 95 0
-4648 -4647 -95 0
4648 -4647 95 0
4648 4647 -95 0
-4649 4648 97 0
-4649 -4648 -97 0
4649 -4648 97 0
4649 4648 -97 0
-4650 4649 100 0
-4650 -4649 -100 0
4650 -4649 100 0
4650 4649 -100 0
-4651 4650 103 0
-4651 -4650 -103 0
4651 -4650 103 0
4651 4650 -103 0
-4652 4651 106 0
-4652 -4651 -106 0
4652 -4651 106 0
4652 4651 -106 0
-4652 0
-4653 51 54 0
-4653 -51 -54 0
4653 -51 54 0
4653 51 -54 0
-4654 4653 67 0
-4654 -4653 -67 0
4654 -4653 67 0
4654 4653 -67 0
-4655 4654 68 0
-4655 -4654 -68 0
4655 -4654 68 0
4655 4654 -68 0
-4656 4655 69 0
-4656 -4655 -69 0
4656 -4655 69 0
4656 4655 -69 0
-4657 4656 70 0
-4657 -4656 -70 0
4657 -4656 70 0
4657 4656 -70 0
-4658 4657 71 0
-4658 -4657 -71 0
4658 -4657 71 0
4658 4657 -71 0
-4659 4658 72 0
-4659 -4658 -72 0
4659 -4658 72 0
4659 4658 -72 0
-4660 4659 74 0
-4660 -4659 -74 0
4660 -4659 74 0
4660 4659 -74 0
-4661 4660 75 0
-4661 -4660 -75 0
4661 -4660 75 0
4661 4660 -75 0
-4662 4661 77 0
-4662 -4661 -77 0
4662 -4661 77 0
4662 4661 -77 0
-4663 4662 78 0
-4663 -4662 -78 0
4663 -4662 78 0
4663 4662 -78 0
-4664 4663 79 0
-4664 -4663 -79 0
4664 -4663 79 0
4664 4663 -79 0
-4665 4664 81 0
-4665 -4664 -81 0
4665 -4664 81 0
4665 4664 -81 0
-4666 4665 82 0
-4666 -4665 -82 0
4666 -4665 82 0
4666 4665 -82 0
-4667 4666 84 0
-4667 -4666 -84 0
4667 -4666 84 0
4667 4666 -84 0
-4668 4667 85 0
-4668 -4667 -85 0
4668 -4667 85 0
4668 4667 -85 0
-4669 4668 86 0
-4669 -4668 -86 0
4669 -4668 86 0
4669 4668 -86 0
-4670 4669 88 0
-4670 -4669 -88 0
4670 -4669 88 0
4670 4669 -88 0
-4671 4670 89 0
-4671 -4670 -89 0
4671 -4670 89 0
4671 4670 -89 0
-4672 4671 92 0
-4672 -4671 -92 0
4672 -4671 92 0
4672 4671 -92 0
-4673 4672 93 0
-4673 -4672 -93 0
4673 -4672 93 0
4673 4672 -93 0
-4674 4673 95 0
-4674 -4673 -95 0
4674 -4673 95 0
4674 4673 -95 0
-4675 4674 96 0
-4675 -4674 -96 0
4675 -4674 96 0
4675 4674 -96 0
-4676 4675 98 0
-4676 -4675 -98 0
4676 -4675 98 0
4676 4675 -98 0
-4677 4676 101 0
-4677 -4676 -101 0
4677 -4676 101 0
4677 4676 -101 0
-4678 4677 104 0
-4678 -4677 -104 0
4678 -4677 104 0
4678 4677 -104 0
-4679 4678 107 0
-4679 -4678 -107 0
4679 -4678 107 0
4679 4678 -107 0
-4679 0
-4680 52 53 0
-4680 -52 -53 0
4680 -52 53 0
4680 52 -53 0
-4681 4680 54 0
-4681 -4680 -54 0
4681 -4680 54 0
4681 4680 -54 0
-4682 4681 61 0
-4682 -4681 -61 0
4682 -4681 61 0
4682 4681 -61 0
-4683 4682 62 0
-4683 -4682 -62 0
4683 -4682 62 0
4683 4682 -62 0
-4684 4683 63 0
-4684 -4683 -63 0
4684 -4683 63 0
4684 4683 -63 0
-4685 4684 64 0
-4685 -4684 -64 0
4685 -4684 64 0
4685 4684 -64 0
-4686 4685 65 0
-4686 -4685 -65 0
4686 -4685 65 0
4686 4685 -65 0
-4687 4686 66 0
-4687 -4686 -66 0
4687 -4686 66 0
4687 4686 -66 0
-4688 4687 67 0
-4688 -4687 -67 0
4688 -4687 67 0
4688 4687 -67 0
-4689 4688 69 0
-4689 -4688 -69 0
4689 -4688 69 0
4689 4688 -69 0
-4690 4689 71 0
-4690 -4689 -71 0
4690 -4689 71 0
4690 4689 -71 0
-4691 4690 73 0
-4691 -4690 -73 0
4691 -4690 73 0
4691 4690 -73 0
-4692 4691 74 0
-4692 -4691 -74 0
4692 -4691 74 0
4692 4691 -74 0
-4693 4692 76 0
-4693 -4692 -76 0
4693 -4692 76 0
4693 4692 -76 0
-4694 4693 77 0
-4694 -4693 -77 0
4694 -4693 77 0
4694 4693 -77 0
-4695 4694 80 0
-4695 -4694 -80 0
4695 -4694 80 0
4695 4694 -80 0
-4696 4695 81 0
-4696 -4695 -81 0
4696 -4695 81 0
4696 4695 -81 0
-4697 4696 83 0
-4697 -4696 -83 0
4697 -4696 83 0
4697 4696 -83 0
-4698 4697 84 0
-4698 -4697 -84 0
4698 -4697 84 0
4698 4697 -84 0
-4699 4698 85 0
-4699 -4698 -85 0
4699 -4698 85 0
4699 4698 -85 0
-4700 4699 87 0
-4700 -4699 -87 0
4700 -4699 87 0
4700 4699 -87 0
-4701 4700 88 0
-4701 -4700 -88 0
4701 -4700 88 0
4701 4700 -88 0
-4702 4701 90 0
-4702 -4701 -90 0
4702 -4701 90 0
4702 4701 -90 0
-4703 4702 93 0
-4703 -4702 -93 0
4703 -4702 93 0
4703 4702 -93 0
-4704 4703 96 0
-4704 -4703 -96 0
4704 -4703 96 0
4704 4703 -96 0
-4705 4704 99 0
-4705 -4704 -99 0
4705 -4704 99 0
4705 4704 -99 0
-4706 4705 100 0
-4706 -4705 -100 0
4706 -4705 100 0
4706 4705 -100 0
-4707 4706 101 0
-4707 -4706 -101 0
4707 -4706 101 0
4707 4706 -101 0
-4708 4707 105 0
-4708 -4707 -105 0
4708 -4707 105 0
4708 4707 -105 0
-4709 4708 106 0
-4709 -4708 -106 0
4709 -4708 106 0
4709 4708 -106 0
-4710 4709 107 0
-4710 -4709 -107 0
4710 -4709 107 0
4710 4709 -107 0
-4710 0
-4711 55 57 0
-4711 -55 -57 0
4711 -55 57 0
4711 55 -57 0
-4712 4711 58 0
-4712 -4711 -58 0
4712 -4711 58 0
4712 4711 -58 0
-4713 4712 60 0
-4713 -4712 -60 0
4713 -4712 60 0
4713 4712 -60 0
-4714 4713 61 0
-4714 -4713 -61 0
4714 -4713 61 0
4714 4713 -61 0
-4715 4714 62 0
-4715 -4714 -62 0
4715 -4714 62 0
4715 4714 -62 0
-4716 4715 64 0
-4716 -4715 -64 0
4716 -4715 64 0
4716 4715 -64 0
-4717 4716 65 0
-4717 -4716 -65 0
4717 -4716 65 0
4717 4716 -65 0
-4718 4717 68 0
-4718 -4717 -68 0
4718 -4717 68 0
4718 4717 -68 0
-4719 4718 69 0
-4719 -4718 -69 0
4719 -4718 69 0
4719 4718 -69 0
-4720 4719 71 0
-4720 -4719 -71 0
4720 -4719 71 0
4720 4719 -71 0
-4721 4720 72 0
-4721 -4720 -72 0
4721 -4720 72 0
4721 4720 -72 0
-4722 4721 73 0
-4722 -4721 -73 0
4722 -4721 73 0
4722 4721 -73 0
-4723 4722 75 0
-4723 -4722 -75 0
4723 -4722 75 0
4723 4722 -75 0
-4724 4723 76 0
-4724 -4723 -76 0
4724 -4723 76 0
4724 4723 -76 0
-4725 4724 78 0
-4725 -4724 -78 0
4725 -4724 78 0
4725 4724 -78 0
-4726 4725 79 0
-4726 -4725 -79 0
4726 -4725 79 0
4726 4725 -79 0
-4727 4726 80 0
-4727 -4726 -80 0
4727 -4726 80 0
4727 4726 -80 0
-4728 4727 82 0
-4728 -4727 -82 0
4728 -4727 82 0
4728 4727 -82 0
-4729 4728 83 0
-4729 -4728 -83 0
4729 -4728 83 0
4729 4728 -83 0
-4730 4729 86 0
-4730 -4729 -86 0
4730 -4729 86 0
4730 4729 -86 0
-4731 4730 87 0
-4731 -4730 -87 0
4731 -4730 87 0
4731 4730 -87 0
-4732 4731 89 0
-4732 -4731 -89 0
4732 -4731 89 0
4732 4731 -89 0
-4733 4732 90 0
-4733 -4732 -90 0
4733 -4732 90 0
4733 4732 -90 0
-4734 4733 91 0
-4734 -4733 -91 0
4734 -4733 91 0
4734 4733 -91 0
-4735 4734 93 0
-4735 -4734 -93 0
4735 -4734 93 0
4735 4734 -93 0
-4736 4735 94 0
-4736 -4735 -94 0
4736 -4735 94 0
4736 4735 -94 0
-4737 4736 96 0
-4737 -4736 -96 0
4737 -4736 96 0
4737 4736 -96 0
-4738 4737 97 0
-4738 -4737 -97 0
4738 -4737 97 0
4738 4737 -97 0
-4739 4738 98 0
-4739 -4738 -98 0
4739 -4738 98 0
4739 4738 -98 0
-4740 4739 100 0
-4740 -4739 -100 0
4740 -4739 100 0
4740 4739 -100 0
-4741 4740 101 0
-4741 -4740 -101 0
4741 -4740 101 0
4741 4740 -101 0
-4742 4741 104 0
-4742 -4741 -104 0
4742 -4741 104 0
4742 4741 -104 0
-4743 4742 105 0
-4743 -4742 -105 0
4743 -4742 105 0
4743 4742 -105 0
-4744 4743 107 0
-4744 -4743 -107 0
4744 -4743 107 0
4744 4743 -107 0
-4745 4744 108 0
-4745 -4744 -108 0
4745 -4744 108 0
4745 4744 -108 0
-4745 0
-4746 56 57 0
-4746 -56 -57 0
4746 -56 57 0
4746 56 -57 0
-4747 4746 59 0
-4747 -4746 -59 0
4747 -4746 59 0
4747 4746 -59 0
-4748 4747 60 0
-4748 -4747 -60 0
4748 -4747 60 0
4748 4747 -60 0
-4749 4748 61 0
-4749 -4748 -61 0
4749 -4748 61 0
4749 4748 -61 0
-4750 4749 63 0
-4750 -4749 -63 0
4750 -4749 63 0
4750 4749 -63 0
-4751 4750 64 0
-4751 -4750 -64 0
4751 -4750 64 0
4751 4750 -64 0
-4752 4751 66 0
-4752 -4751 -66 0
4752 -4751 66 0
4752 4751 -66 0
-4753 4752 67 0
-4753 -4752 -67 0
4753 -4752 67 0
4753 4752 -67 0
-4754 4753 68 0
-4754 -4753 -68 0
4754 -4753 68 0
4754 4753 -68 0
-4755 4754 70 0
-4755 -4754 -70 0
4755 -4754 70 0
4755 4754 -70 0
-4756 4755 71 0
-4756 -4755 -71 0
4756 -4755 71 0
4756 4755 -71 0
-4757 4756 74 0
-4757 -4756 -74 0
4757 -4756 74 0
4757 4756 -74 0
-4758 4757 75 0
-4758 -4757 -75 0
4758 -4757 75 0
4758 4757 -75 0
-4759 4758 77 0
-4759 -4758 -77 0
4759 -4758 77 0
4759 4758 -77 0
-4760 4759 78 0
-4760 -4759 -78 0
4760 -4759 78 0
4760 4759 -78 0
-4761 4760 79 0
-4761 -4760 -79 0
4761 -4760 79 0
4761 4760 -79 0
-4762 4761 81 0
-4762 -4761 -81 0
4762 -4761 81 0
4762 4761 -81 0
-4763 4762 82 0
-4763 -4762 -82 0
4763 -4762 82 0
4763 4762 -82 0
-4764 4763 84 0
-4764 -4763 -84 0
4764 -4763 84 0
4764 4763 -84 0
-4765 4764 85 0
-4765 -4764 -85 0
4765 -4764 85 0
4765 4764 -85 0
-4766 4765 86 0
-4766 -4765 -86 0
4766 -4765 86 0
4766 4765 -86 0
-4767 4766 88 0
-4767 -4766 -88 0
4767 -4766 88 0
4767 4766 -88 0
-4768 4767 89 0
-4768 -4767 -89 0
4768 -4767 89 0
4768 4767 -89 0
-4769 4768 92 0
-4769 -4768 -92 0
4769 -4768 92 0
4769 4768 -92 0
-4770 4769 93 0
-4770 -4769 -93 0
4770 -4769 93 0
4770 4769 -93 0
-4771 4770 95 0
-4771 -4770 -95 0
4771 -4770 95 0
4771 4770 -95 0
-4772 4771 96 0
-4772 -4771 -96 0
4772 -4771 96 0
4772 4771 -96 0
-4773 4772 97 0
-4773 -4772 -97 0
4773 -4772 97 0
4773 4772 -97 0
-4774 4773 99 0
-4774 -4773 -99 0
4774 -4773 99 0
4774 4773 -99 0
-4775 4774 100 0
-4775 -4774 -100 0
4775 -4774 100 0
4775 4774 -100 0
-4776 4775 102 0
-4776 -4775 -102 0
4776 -4775 102 0
4776 4775 -102 0
-4777 4776 103 0
-4777 -4776 -103 0
4777 -4776 103 0
4777 4776 -103 0
-4778 4777 104 0
-4778 -4777 -104 0
4778 -4777 104 0
4778 4777 -104 0
-4779 4778 106 0
-4779 -4778 -106 0
4779 -4778 106 0
4779 4778 -106 0
-4780 4779 107 0
-4780 -4779 -107 0
4780 -4779 107 0
4780 4779 -107 0
-4780 0
-4782 109 110 0
-4782 -109 -110 0
4782 -109 110 0
4782 109 -110 0
-4783 4782 112 0
-4783 -4782 -112 0
4783 -4782 112 0
4783 4782 -112 0
-4784 4783 113 0
-4784 -4783 -113 0
4784 -4783 113 0
4784 4783 -113 0
-4785 4784 121 0
-4785 -4784 -121 0
4785 -4784 121 0
4785 4784 -121 0
-4786 4785 122 0
-4786 -4785 -122 0
4786 -4785 122 0
4786 4785 -122 0
-4787 4786 124 0
-4787 -4786 -124 0
4787 -4786 124 0
4787 4786 -124 0
-4788 4787 125 0
-4788 -4787 -125 0
4788 -4787 125 0
4788 4787 -125 0
-4789 4788 127 0
-4789 -4788 -127 0
4789 -4788 127 0
4789 4788 -127 0
-4790 4789 128 0
-4790 -4789 -128 0
4790 -4789 128 0
4790 4789 -128 0
-4791 4790 130 0
-4791 -4790 -130 0
4791 -4790 130 0
4791 4790 -130 0
-4792 4791 131 0
-4792 -4791 -131 0
4792 -4791 131 0
4792 4791 -131 0
-4793 4792 139 0
-4793 -4792 -139 0
4793 -4792 139 0
4793 4792 -139 0
-4794 4793 140 0
-4794 -4793 -140 0
4794 -4793 140 0
4794 4793 -140 0
-4795 4794 142 0
-4795 -4794 -142 0
4795 -4794 142 0
4795 4794 -142 0
-4796 4795 143 0
-4796 -4795 -143 0
4796 -4795 143 0
4796 4795 -143 0
-4797 4796 145 0
-4797 -4796 -145 0
4797 -4796 145 0
4797 4796 -145 0
-4798 4797 146 0
-4798 -4797 -146 0
4798 -4797 146 0
4798 4797 -146 0
-4799 4798 148 0
-4799 -4798 -148 0
4799 -4798 148 0
4799 4798 -148 0
-4800 4799 149 0
-4800 -4799 -149 0
4800 -4799 149 0
4800 4799 -149 0
-4801 4800 157 0
-4801 -4800 -157 0
4801 -4800 157 0
4801 4800 -157 0
-4802 4801 158 0
-4802 -4801 -158 0
4802 -4801 158 0
4802 4801 -158 0
-4803 4802 160 0
-4803 -4802 -160 0
4803 -4802 160 0
4803 4802 -160 0
-4804 4803 161 0
-4804 -4803 -161 0
4804 -4803 161 0
4804 4803 -161 0
-4805 4804 163 0
-4805 -4804 -163 0
4805 -4804 163 0
4805 4804 -163 0
-4806 4805 164 0
-4806 -4805 -164 0
4806 -4805 164 0
4806 4805 -164 0
-4807 4806 166 0
-4807 -4806 -166 0
4807 -4806 166 0
4807 4806 -166 0
-4808 4807 167 0
-4808 -4807 -167 0
4808 -4807 167 0
4808 4807 -167 0
-4809 4808 169 0
-4809 -4808 -169 0
4809 -4808 169 0
4809 4808 -169 0
-4810 4809 170 0
-4810 -4809 -170 0
4810 -4809 170 0
4810 4809 -170 0
-4811 4810 172 0
-4811 -4810 -172 0
4811 -4810 172 0
4811 4810 -172 0
-4812 4811 173 0
-4812 -4811 -173 0
4812 -4811 173 0
4812 4811 -173 0
-4813 4812 181 0
-4813 -4812 -181 0
4813 -4812 181 0
4813 4812 -181 0
-4814 4813 182 0
-4814 -4813 -182 0
4814 -4813 182 0
4814 4813 -182 0
-4815 4814 184 0
-4815 -4814 -184 0
4815 -4814 184 0
4815 4814 -184 0
-4816 4815 185 0
-4816 -4815 -185 0
4816 -4815 185 0
4816 4815 -185 0
-4817 4816 187 0
-4817 -4816 -187 0
4817 -4816 187 0
4817 4816 -187 0
-4818 4817 188 0
-4818 -4817 -188 0
4818 -4817 188 0
4818 4817 -188 0
-4819 4818 190 0
-4819 -4818 -190 0
4819 -4818 190 0
4819 4818 -190 0
-4820 4819 191 0
-4820 -4819 -191 0
4820 -4819 191 0
4820 4819 -191 0
-4821 4820 199 0
-4821 -4820 -199 0
4821 -4820 199 0
4821 4820 -199 0
-4822 4821 200 0
-4822 -4821 -200 0
4822 -4821 200 0
4822 4821 -200 0
-4823 4822 202 0
-4823 -4822 -202 0
4823 -4822 202 0
4823 4822 -202 0
-4824 4823 203 0
-4824 -4823 -203 0
4824 -4823 203 0
4824 4823 -203 0
-4825 4824 205 0
-4825 -4824 -205 0
4825 -4824 205 0
4825 4824 -205 0
-4826 4825 206 0
-4826 -4825 -206 0
4826 -4825 206 0
4826 4825 -206 0
-4827 4826 208 0
-4827 -4826 -208 0
4827 -4826 208 0
4827 4826 -208 0
-4828 4827 209 0
-4828 -4827 -209 0
4828 -4827 209 0
4828 4827 -209 0
-4781 4828 0
4781 -4828 0
-4830 109 111 0
-4830 -109 -111 0
4830 -109 111 0
4830 109 -111 0
-4831 4830 112 0
-4831 -4830 -112 0
4831 -4830 112 0
4831 4830 -112 0
-4832 4831 114 0
-4832 -4831 -114 0
4832 -4831 114 0
4832 4831 -114 0
-4833 4832 121 0
-4833 -4832 -121 0
4833 -4832 121 0
4833 4832 -121 0
-4834 4833 123 0
-4834 -4833 -123 0
4834 -4833 123 0
4834 4833 -123 0
-4835 4834 124 0
-4835 -4834 -124 0
4835 -4834 124 0
4835 4834 -124 0
-4836 4835 126 0
-4836 -4835 -126 0
4836 -4835 126 0
4836 4835 -126 0
-4837 4836 127 0
-4837 -4836 -127 0
4837 -4836 127 0
4837 4836 -127 0
-4838 4837 129 0
-4838 -4837 -129 0
4838 -4837 129 0
4838 4837 -129 0
-4839 4838 130 0
-4839 -4838 -130 0
4839 -4838 130 0
4839 4838 -130 0
-4840 4839 132 0
-4840 -4839 -132 0
4840 -4839 132 0
4840 4839 -132 0
-4841 4840 139 0
-4841 -4840 -139 0
4841 -4840 139 0
4841 4840 -139 0
-4842 4841 141 0
-4842 -4841 -141 0
4842 -4841 141 0
4842 4841 -141 0
-4843 4842 142 0
-4843 -4842 -142 0
4843 -4842 142 0
4843 4842 -142 0
-4844 4843 144 0
-4844 -4843 -144 0
4844 -4843 144 0
4844 4843 -144 0
-4845 4844 145 0
-4845 -4844 -145 0
4845 -4844 145 0
4845 4844 -145 0
-4846 4845 147 0
-4846 -4845 -147 0
4846 -4845 147 0
4846 4845 -147 0
-4847 4846 148 0
-4847 -4846 -148 0
4847 -4846 148 0
4847 4846 -148 0
-4848 4847 150 0
-4848 -4847 -150 0
4848 -4847 150 0
4848 4847 -150 0
-4849 4848 157 0
-4849 -4848 -157 0
4849 -4848 157 0
4849 4848 -157 0
-4850 4849 159 0
-4850 -4849 -159 0
4850 -4849 159 0
4850 4849 -159 0
-4851 4850 160 0
-4851 -4850 -160 0
4851 -4850 160 0
4851 4850 -160 0
-4852 4851 162 0
-4852 -4851 -162 0
4852 -4851 162 0
4852 4851 -162 0
-4853 4852 163 0
-4853 -4852 -163 0
4853 -4852 163 0
4853 4852 -163 0
-4854 4853 165 0
-4854 -4853 -165 0
4854 -4853 165 0
4854 4853 -165 0
-4855 4854 166 0
-4855 -4854 -166 0
4855 -4854 166 0
4855 4854 -166 0
-4856 4855 168 0
-4856 -4855 -168 0
4856 -4855 168 0
4856 4855 -168 0
-4857 4856 169 0
-4857 -4856 -169 0
4857 -4856 169 0
4857 4856 -169 0
-4858 4857 171 0
-4858 -4857 -171 0
4858 -4857 171 0
4858 4857 -171 0
-4859 4858 172 0
-4859 -4858 -172 0
4859 -4858 172 0
4859 4858 -172 0
-4860 4859 174 0
-4860 -4859 -174 0
4860 -4859 174 0
4860 4859 -174 0
-4861 4860 181 0
-4861 -4860 -181 0
4861 -4860 181 0
4861 4860 -181 0
-4862 4861 183 0
-4862 -4861 -183 0
4862 -4861 183 0
4862 4861 -183 0
-4863 4862 184 0
-4863 -4862 -184 0
4863 -4862 184 0
4863 4862 -184 0
-4864 4863 186 0
-4864 -4863 -186 0
4864 -4863 186 0
4864 4863 -186 0
-4865 4864 187 0
-4865 -4864 -187 0
4865 -4864 187 0
4865 4864 -187 0
-4866 4865 189 0
-4866 -4865 -189 0
4866 -4865 189 0
4866 4865 -189 0
-4867 4866 190 0
-4867 -4866 -190 0
4867 -4866 190 0
4867 4866 -190 0
-4868 4867 192 0
-4868 -4867 -192 0
4868 -4867 192 0
4868 4867 -192 0
-4869 4868 199 0
-4869 -4868 -199 0
4869 -4868 199 0
4869 4868 -199 0
-4870 4869 201 0
-4870 -4869 -201 0
4870 -4869 201 0
4870 4869 -201 0
-4871 4870 202 0
-4871 -4870 -202 0
4871 -4870 202 0
4871 4870 -202 0
-4872 4871 204 0
-4872 -4871 -204 0
4872 -4871 204 0
4872 4871 -204 0
-4873 4872 205 0
-4873 -4872 -205 0
4873 -4872 205 0
4873 4872 -205 0
-4874 4873 207 0
-4874 -4873 -207 0
4874 -4873 207 0
4874 4873 -207 0
-4875 4874 208 0
-4875 -4874 -208 0
4875 -4874 208 0
4875 4874 -208 0
-4876 4875 210 0
-4876 -4875 -210 0
4876 -4875 210 0
4876 4875 -210 0
-4829 4876 0
4829 -4876 0
-4878 1 2 0
-4878 -1 -2 0
4878 -1 2 0
4878 1 -2 0
-4879 4878 4 0
-4879 -4878 -4 0
4879 -4878 4 0
4879 4878 -4 0
-4880 4879 7 0
-4880 -4879 -7 0
4880 -4879 7 0
4880 4879 -7 0
-4881 4880 109 0
-4881 -4880 -109 0
4881 -4880 109 0
4881 4880 -109 0
-4882 4881 111 0
-4882 -4881 -111 0
4882 -4881 111 0
4882 4881 -111 0
-4883 4882 112 0
-4883 -4882 -112 0
4883 -4882 112 0
4883 4882 -112 0
-4884 4883 113 0
-4884 -4883 -113 0
4884 -4883 113 0
4884 4883 -113 0
-4885 4884 118 0
-4885 -4884 -118 0
4885 -4884 118 0
4885 4884 -118 0
-4886 4885 119 0
-4886 -4885 -119 0
4886 -4885 119 0
4886 4885 -119 0
-4887 4886 121 0
-4887 -4886 -121 0
4887 -4886 121 0
4887 4886 -121 0
-4888 4887 122 0
-4888 -4887 -122 0
4888 -4887 122 0
4888 4887 -122 0
-4889 4888 123 0
-4889 -4888 -123 0
4889 -4888 123 0
4889 4888 -123 0
-4890 4889 124 0
-4890 -4889 -124 0
4890 -4889 124 0
4890 4889 -124 0
-4891 4890 127 0
-4891 -4890 -127 0
4891 -4890 127 0
4891 4890 -127 0
-4892 4891 132 0
-4892 -4891 -132 0
4892 -4891 132 0
4892 4891 -132 0
-4893 4892 133 0
-4893 -4892 -133 0
4893 -4892 133 0
4893 4892 -133 0
-4894 4893 138 0
-4894 -4893 -138 0
4894 -4893 138 0
4894 4893 -138 0
-4895 4894 139 0
-4895 -4894 -139 0
4895 -4894 139 0
4895 4894 -139 0
-4896 4895 141 0
-4896 -4895 -141 0
4896 -4895 141 0
4896 4895 -141 0
-4897 4896 142 0
-4897 -4896 -142 0
4897 -4896 142 0
4897 4896 -142 0
-4898 4897 143 0
-4898 -4897 -143 0
4898 -4897 143 0
4898 4897 -143 0
-4899 4898 144 0
-4899 -4898 -144 0
4899 -4898 144 0
4899 4898 -144 0
-4900 4899 146 0
-4900 -4899 -146 0
4900 -4899 146 0
4900 4899 -146 0
-4901 4900 147 0
-4901 -4900 -147 0
4901 -4900 147 0
4901 4900 -147 0
-4902 4901 148 0
-4902 -4901 -148 0
4902 -4901 148 0
4902 4901 -148 0
-4903 4902 150 0
-4903 -4902 -150 0
4903 -4902 150 0
4903 4902 -150 0
-4904 4903 152 0
-4904 -4903 -152 0
4904 -4903 152 0
4904 4903 -152 0
-4905 4904 155 0
-4905 -4904 -155 0
4905 -4904 155 0
4905 4904 -155 0
-4906 4905 157 0
-4906 -4905 -157 0
4906 -4905 157 0
4906 4905 -157 0
-4907 4906 158 0
-4907 -4906 -158 0
4907 -4906 158 0
4907 4906 -158 0
-4908 4907 159 0
-4908 -4907 -159 0
4908 -4907 159 0
4908 4907 -159 0
-4909 4908 160 0
-4909 -4908 -160 0
4909 -4908 160 0
4909 4908 -160 0
-4910 4909 163 0
-4910 -4909 -163 0
4910 -4909 163 0
4910 4909 -163 0
-4911 4910 165 0
-4911 -4910 -165 0
4911 -4910 165 0
4911 4910 -165 0
-4912 4911 166 0
-4912 -4911 -166 0
4912 -4911 166 0
4912 4911 -166 0
-4913 4912 167 0
-4913 -4912 -167 0
4913 -4912 167 0
4913 4912 -167 0
-4914 4913 168 0
-4914 -4913 -168 0
4914 -4913 168 0
4914 4913 -168 0
-4915 4914 169 0
-4915 -4914 -169 0
4915 -4914 169 0
4915 4914 -169 0
-4916 4915 171 0
-4916 -4915 -171 0
4916 -4915 171 0
4916 4915 -171 0
-4917 4916 174 0
-4917 -4916 -174 0
4917 -4916 174 0
4917 4916 -174 0
-4918 4917 175 0
-4918 -4917 -175 0
4918 -4917 175 0
4918 4917 -175 0
-4919 4918 176 0
-4919 -4918 -176 0
4919 -4918 176 0
4919 4918 -176 0
-4920 4919 179 0
-4920 -4919 -179 0
4920 -4919 179 0
4920 4919 -179 0
-4921 4920 181 0
-4921 -4920 -181 0
4921 -4920 181 0
4921 4920 -181 0
-4922 4921 182 0
-4922 -4921 -182 0
4922 -4921 182 0
4922 4921 -182 0
-4923 4922 183 0
-4923 -4922 -183 0
4923 -4922 183 0
4923 4922 -183 0
-4924 4923 184 0
-4924 -4923 -184 0
4924 -4923 184 0
4924 4923 -184 0
-4925 4924 187 0
-4925 -4924 -187 0
4925 -4924 187 0
4925 4924 -187 0
-4926 4925 189 0
-4926 -4925 -189 0
4926 -4925 189 0
4926 4925 -189 0
-4927 4926 190 0
-4927 -4926 -190 0
4927 -4926 190 0
4927 4926 -190 0
-4928 4927 191 0
-4928 -4927 -191 0
4928 -4927 191 0
4928 4927 -191 0
-4929 4928 196 0
-4929 -4928 -196 0
4929 -4928 196 0
4929 4928 -196 0
-4930 4929 197 0
-4930 -4929 -197 0
4930 -4929 197 0
4930 4929 -197 0
-4931 4930 201 0
-4931 -4930 -201 0
4931 -4930 201 0
4931 4930 -201 0
-4932 4931 205 0
-4932 -4931 -205 0
4932 -4931 205 0
4932 4931 -205 0
-4933 4932 207 0
-4933 -4932 -207 0
4933 -4932 207 0
4933 4932 -207 0
-4934 4933 211 0
-4934 -4933 -211 0
4934 -4933 211 0
4934 4933 -211 0
-4877 4934 0
4877 -4934 0
-4936 1 3 0
-4936 -1 -3 0
4936 -1 3 0
4936 1 -3 0
-4937 4936 4 0
-4937 -4936 -4 0
4937 -4936 4 0
4937 4936 -4 0
-4938 4937 8 0
-4938 -4937 -8 0
4938 -4937 8 0
4938 4937 -8 0
-4939 4938 111 0
-4939 -4938 -111 0
4939 -4938 111 0
4939 4938 -111 0
-4940 4939 112 0
-4940 -4939 -112 0
4940 -4939 112 0
4940 4939 -112 0
-4941 4940 114 0
-4941 -4940 -114 0
4941 -4940 114 0
4941 4940 -114 0
-4942 4941 117 0
-4942 -4941 -117 0
4942 -4941 117 0
4942 4941 -117 0
-4943 4942 121 0
-4943 -4942 -121 0
4943 -4942 121 0
4943 4942 -121 0
-4944 4943 123 0
-4944 -4943 -123 0
4944 -4943 123 0
4944 4943 -123 0
-4945 4944 124 0
-4945 -4944 -124 0
4945 -4944 124 0
4945 4944 -124 0
-4946 4945 127 0
-4946 -4945 -127 0
4946 -4945 127 0
4946 4945 -127 0
-4947 4946 128 0
-4947 -4946 -128 0
4947 -4946 128 0
4947 4946 -128 0
-4948 4947 132 0
-4948 -4947 -132 0
4948 -4947 132 0
4948 4947 -132 0
-4949 4948 133 0
-4949 -4948 -133 0
4949 -4948 133 0
4949 4948 -133 0
-4950 4949 139 0
-4950 -4949 -139 0
4950 -4949 139 0
4950 4949 -139 0
-4951 4950 141 0
-4951 -4950 -141 0
4951 -4950 141 0
4951 4950 -141 0
-4952 4951 146 0
-4952 -4951 -146 0
4952 -4951 146 0
4952 4951 -146 0
-4953 4952 147 0
-4953 -4952 -147 0
4953 -4952 147 0
4953 4952 -147 0
-4954 4953 150 0
-4954 -4953 -150 0
4954 -4953 150 0
4954 4953 -150 0
-4955 4954 155 0
-4955 -4954 -155 0
4955 -4954 155 0
4955 4954 -155 0
-4956 4955 157 0
-4956 -4955 -157 0
4956 -4955 157 0
4956 4955 -157 0
-4957 4956 159 0
-4957 -4956 -159 0
4957 -4956 159 0
4957 4956 -159 0
-4958 4957 160 0
-4958 -4957 -160 0
4958 -4957 160 0
4958 4957 -160 0
-4959 4958 163 0
-4959 -4958 -163 0
4959 -4958 163 0
4959 4958 -163 0
-4960 4959 165 0
-4960 -4959 -165 0
4960 -4959 165 0
4960 4959 -165 0
-4961 4960 169 0
-4961 -4960 -169 0
4961 -4960 169 0
4961 4960 -169 0
-4962 4961 170 0
-4962 -4961 -170 0
4962 -4961 170 0
4962 4961 -170 0
-4963 4962 172 0
-4963 -4962 -172 0
4963 -4962 172 0
4963 4962 -172 0
-4964 4963 174 0
-4964 -4963 -174 0
4964 -4963 174 0
4964 4963 -174 0
-4965 4964 176 0
-4965 -4964 -176 0
4965 -4964 176 0
4965 4964 -176 0
-4966 4965 179 0
-4966 -4965 -179 0
4966 -4965 179 0
4966 4965 -179 0
-4967 4966 181 0
-4967 -4966 -181 0
4967 -4966 181 0
4967 4966 -181 0
-4968 4967 183 0
-4968 -4967 -183 0
4968 -4967 183 0
4968 4967 -183 0
-4969 4968 184 0
-4969 -4968 -184 0
4969 -4968 184 0
4969 4968 -184 0
-4970 4969 189 0
-4970 -4969 -189 0
4970 -4969 189 0
4970 4969 -189 0
-4971 4970 190 0
-4971 -4970 -190 0
4971 -4970 190 0
4971 4970 -190 0
-4972 4971 192 0
-4972 -4971 -192 0
4972 -4971 192 0
4972 4971 -192 0
-4973 4972 195 0
-4973 -4972 -195 0
4973 -4972 195 0
4973 4972 -195 0
-4974 4973 205 0
-4974 -4973 -205 0
4974 -4973 205 0
4974 4973 -205 0
-4975 4974 206 0
-4975 -4974 -206 0
4975 -4974 206 0
4975 4974 -206 0
-4976 4975 207 0
-4976 -4975 -207 0
4976 -4975 207 0
4976 4975 -207 0
-4935 4976 0
4935 -4976 0
4781 4829 4877 4935 0
217 0
-217 4977 0
-4977 4978 0
-218 -4977 4979 0
-4979 4980 0
-219 -4979 4981 0
-4981 4982 0
-220 -4981 4983 0
-4983 4984 0
-221 -4983 4985 0
-4985 4986 0
-222 -4985 4987 0
-4987 4988 0
-223 -4987 4989 0
-4989 4990 0
-224 -4989 4991 0
-4991 4992 0
-225 -4991 4993 0
-4993 4994 0
-226 -4993 0
-218 4978 0
-4978 4995 0
-219 -4978 4980 0
-4980 4996 0
-220 -4980 4982 0
-4982 4997 0
-221 -4982 4984 0
-4984 4998 0
-222 -4984 4986 0
-4986 4999 0
-223 -4986 4988 0
-4988 5000 0
-224 -4988 4990 0
-4990 5001 0
-225 -4990 4992 0
-4992 5002 0
-226 -4992 4994 0
-4994 5003 0
-227 -4994 0
-219 4995 0
-4995 5004 0
-220 -4995 4996 0
-4996 5005 0
-221 -4996 4997 0
-4997 5006 0
-222 -4997 4998 0
-4998 5007 0
-223 -4998 4999 0
-4999 5008 0
-224 -4999 5000 0
-5000 5009 0
-225 -5000 5001 0
-5001 5010 0
-226 -5001 5002 0
-5002 5011 0
-227 -5002 5003 0
-5003 5012 0
-228 -5003 0
-220 5004 0
-5004 5013 0
-221 -5004 5005 0
-5005 5014 0
-222 -5005 5006 0
-5006 5015 0
-223 -5006 5007 0
-5007 5016 0
-224 -5007 5008 0
-5008 5017 0
-225 -5008 5009 0
-5009 5018 0
-226 -5009 5010 0
-5010 5019 0
-227 -5010 5011 0
-5011 5020 0
-228 -5011 5012 0
-5012 5021 0
-229 -5012 0
-221 5013 0
-5013 5022 0
-222 -5013 5014 0
-5014 5023 0
-223 -5014 5015 0
-5015 5024 0
-224 -5015 5016 0
-5016 5025 0
-225 -5016 5017 0
-5017 5026 0
-226 -5017 5018 0
-5018 5027 0
-227 -5018 5019 0
-5019 5028 0
-228 -5019 5020 0
-5020 5029 0
-229 -5020 5021 0
-5021 5030 0
-230 -5021 0
-222 5022 0
-5022 5031 0
-223 -5022 5023 0
-5023 5032 0
-224 -5023 5024 0
-5024 5033 0
-225 -5024 5025 0
-5025 5034 0
-226 -5025 5026 0
-5026 5035 0
-227 -5026 5027 0
-5027 5036 0
-228 -5027 5028 0
-5028 5037 0
-229 -5028 5029 0
-5029 5038 0
-230 -5029 5030 0
-5030 5039 0
-231 -5030 0
-223 5031 0
-5031 5040 0
-224 -5031 5032 0
-5032 5041 0
-225 -5032 5033 0
-5033 5042 0
-226 -5033 5034 0
-5034 5043 0
-227 -5034 5035 0
-5035 5044 0
-228 -5035 5036 0
-5036 5045 0
-229 -5036 5037 0
-5037 5046 0
-230 -5037 5038 0
-5038 5047 0
-231 -5038 5039 0
-5039 5048 0
-232 -5039 0
-224 5040 0
-5040 5049 0
-225 -5040 5041 0
-5041 5050 0
-226 -5041 5042 0
-5042 5051 0
-227 -5042 5043 0
-5043 5052 0
-228 -5043 5044 0
-5044 5053 0
-229 -5044 5045 0
-5045 5054 0
-230 -5045 5046 0
-5046 5055 0
-231 -5046 5047 0
-5047 5056 0
-232 -5047 5048 0
-5048 5057 0
-233 -5048 0
-225 5049 0
-5049 5058 0
-226 -5049 5050 0
-5050 5059 0
-227 -5050 5051 0
-5051 5060 0
-228 -5051 5052 0
-5052 5061 0
-229 -5052 5053 0
-5053 5062 0
-230 -5053 5054 0
-5054 5063 0
-231 -5054 5055 0
-5055 5064 0
-232 -5055 5056 0
-5056 5065 0
-233 -5056 5057 0
-5057 5066 0
-234 -5057 0
-226 5058 0
-5058 5067 0
-227 -5058 5059 0
-5059 5068 0
-228 -5059 5060 0
-5060 5069 0
-229 -5060 5061 0
-5061 5070 0
-230 -5061 5062 0
-5062 5071 0
-231 -5062 5063 0
-5063 5072 0
-232 -5063 5064 0
-5064 5073 0
-233 -5064 5065 0
-5065 5074 0
-234 -5065 5066 0
-5066 5075 0
-235 -5066 0
-227 5067 0
-5067 5076 0
-228 -5067 5068 0
-5068 5077 0
-229 -5068 5069 0
-5069 5078 0
-230 -5069 5070 0
-5070 5079 0
-231 -5070 5071 0
-5071 5080 0
-232 -5071 5072 0
-5072 5081 0
-233 -5072 5073 0
-5073 5082 0
-234 -5073 5074 0
-5074 5083 0
-235 -5074 5075 0
-5075 5084 0
-236 -5075 0
-228 5076 0
-5076 5085 0
-229 -5076 5077 0
-5077 5086 0
-230 -5077 5078 0
-5078 5087 0
-231 -5078 5079 0
-5079 5088 0
-232 -5079 5080 0
-5080 5089 0
-233 -5080 5081 0
-5081 5090 0
-234 -5081 5082 0
-5082 5091 0
-235 -5082 5083 0
-5083 5092 0
-236 -5083 5084 0
-5084 5093 0
-237 -5084 0
-229 5085 0
-5085 5094 0
-230 -5085 5086 0
-5086 5095 0
-231 -5086 5087 0
-5087 5096 0
-232 -5087 5088 0
-5088 5097 0
-233 -5088 5089 0
-5089 5098 0
-234 -5089 5090 0
-5090 5099 0
-235 -5090 5091 0
-5091 5100 0
-236 -5091 5092 0
-5092 5101 0
-237 -5092 5093 0
-5093 5102 0
-238 -5093 0
-230 5094 0
-5094 5103 0
-231 -5094 5095 0
-5095 5104 0
-232 -5095 5096 0
-5096 5105 0
-233 -5096 5097 0
-5097 5106 0
-234 -5097 5098 0
-5098 5107 0
-235 -5098 5099 0
-5099 5108 0
-236 -5099 5100 0
-5100 5109 0
-237 -5100 5101 0
-5101 5110 0
-238 -5101 5102 0
-5102 5111 0
-239 -5102 0
-231 5103 0
-5103 5112 0
-232 -5103 5104 0
-5104 5113 0
-233 -5104 5105 0
-5105 5114 0
-234 -5105 5106 0
-5106 5115 0
-235 -5106 5107 0
-5107 5116 0
-236 -5107 5108 0
-5108 5117 0
-237 -5108 5109 0
-5109 5118 0
-238 -5109 5110 0
-5110 5119 0
-239 -5110 5111 0
-5111 5120 0
-240 -5111 0
-232 5112 0
-5112 5121 0
-233 -5112 5113 0
-5113 5122 0
-234 -5113 5114 0
-5114 5123 0
-235 -5114 5115 0
-5115 5124 0
-236 -5115 5116 0
-5116 5125 0
-237 -5116 5117 0
-5117 5126 0
-238 -5117 5118 0
-5118 5127 0
-239 -5118 5119 0
-5119 5128 0
-240 -5119 5120 0
-5120 5129 0
-241 -5120 0
-233 5121 0
-5121 5130 0
-234 -5121 5122 0
-5122 5131 0
-235 -5122 5123 0
-5123 5132 0
-236 -5123 5124 0
-5124 5133 0
-237 -5124 5125 0
-5125 5134 0
-238 -5125 5126 0
-5126 5135 0
-239 -5126 5127 0
-5127 5136 0
-240 -5127 5128 0
-5128 5137 0
-241 -5128 5129 0
-5129 5138 0
-242 -5129 0
-234 5130 0
-5130 5139 0
-235 -5130 5131 0
-5131 5140 0
-236 -5131 5132 0
-5132 5141 0
-237 -5132 5133 0
-5133 5142 0
-238 -5133 5134 0
-5134 5143 0
-239 -5134 5135 0
-5135 5144 0
-240 -5135 5136 0
-5136 5145 0
-241 -5136 5137 0
-5137 5146 0
-242 -5137 5138 0
-5138 5147 0
-243 -5138 0
-235 5139 0
-5139 5148 0
-236 -5139 5140 0
-5140 5149 0
-237 -5140 5141 0
-5141 5150 0
-238 -5141 5142 0
-5142 5151 0
-239 -5142 5143 0
-5143 5152 0
-240 -5143 5144 0
-5144 5153 0
-241 -5144 5145 0
-5145 5154 0
-242 -5145 5146 0
-5146 5155 0
-243 -5146 5147 0
-5147 5156 0
-244 -5147 0
-236 5148 0
-5148 5157 0
-237 -5148 5149 0
-5149 5158 0
-238 -5149 5150 0
-5150 5159 0
-239 -5150 5151 0
-5151 5160 0
-240 -5151 5152 0
-5152 5161 0
-241 -5152 5153 0
-5153 5162 0
-242 -5153 5154 0
-5154 5163 0
-243 -5154 5155 0
-5155 5164 0
-244 -5155 5156 0
-5156 5165 0
-245 -5156 0
-237 5157 0
-5157 5166 0
-238 -5157 5158 0
-5158 5167 0
-239 -5158 5159 0
-5159 5168 0
-240 -5159 5160 0
-5160 5169 0
-241 -5160 5161 0
-5161 5170 0
-242 -5161 5162 0
-5162 5171 0
-243 -5162 5163 0
-5163 5172 0
-244 -5163 5164 0
-5164 5173 0
-245 -5164 5165 0
-5165 5174 0
-246 -5165 0
-238 5166 0
-5166 5175 0
-239 -5166 5167 0
-5167 5176 0
-240 -5167 5168 0
-5168 5177 0
-241 -5168 5169 0
-5169 5178 0
-242 -5169 5170 0
-5170 5179 0
-243 -5170 5171 0
-5171 5180 0
-244 -5171 5172 0
-5172 5181 0
-245 -5172 5173 0
-5173 5182 0
-246 -5173 5174 0
-5174 5183 0
-247 -5174 0
-239 5175 0
-5175 5184 0
-240 -5175 5176 0
-5176 5185 0
-241 -5176 5177 0
-5177 5186 0
-242 -5177 5178 0
-5178 5187 0
-243 -5178 5179 0
-5179 5188 0
-244 -5179 5180 0
-5180 5189 0
-245 -5180 5181 0
-5181 5190 0
-246 -5181 5182 0
-5182 5191 0
-247 -5182 5183 0
-5183 5192 0
-248 -5183 0
-240 5184 0
-5184 5193 0
-241 -5184 5185 0
-5185 5194 0
-242 -5185 5186 0
-5186 5195 0
-243 -5186 5187 0
-5187 5196 0
-244 -5187 5188 0
-5188 5197 0
-245 -5188 5189 0
-5189 5198 0
-246 -5189 5190 0
-5190 5199 0
-247 -5190 5191 0
-5191 5200 0
-248 -5191 5192 0
-5192 5201 0
-249 -5192 0
-241 5193 0
-5193 5202 0
-242 -5193 5194 0
-5194 5203 0
-243 -5194 5195 0
-5195 5204 0
-244 -5195 5196 0
-5196 5205 0
-245 -5196 5197 0
-5197 5206 0
-246 -5197 5198 0
-5198 5207 0
-247 -5198 5199 0
-5199 5208 0
-248 -5199 5200 0
-5200 5209 0
-249 -5200 5201 0
-5201 5210 0
-250 -5201 0
-242 5202 0
-5202 5211 0
-243 -5202 5203 0
-5203 5212 0
-244 -5203 5204 0
-5204 5213 0
-245 -5204 5205 0
-5205 5214 0
-246 -5205 5206 0
-5206 5215 0
-247 -5206 5207 0
-5207 5216 0
-248 -5207 5208 0
-5208 5217 0
-249 -5208 5209 0
-5209 5218 0
-250 -5209 5210 0
-5210 5219 0
-251 -5210 0
-243 5211 0
-5211 5220 0
-244 -5211 5212 0
-5212 5221 0
-245 -5212 5213 0
-5213 5222 0
-246 -5213 5214 0
-5214 5223 0
-247 -5214 5215 0
-5215 5224 0
-248 -5215 5216 0
-5216 5225 0
-249 -5216 5217 0
-5217 5226 0
-250 -5217 5218 0
-5218 5227 0
-251 -5218 5219 0
-5219 5228 0
-252 -5219 0
-244 5220 0
-5220 5229 0
-245 -5220 5221 0
-5221 5230 0
-246 -5221 5222 0
-5222 5231 0
-247 -5222 5223 0
-5223 5232 0
-248 -5223 5224 0
-5224 5233 0
-249 -5224 5225 0
-5225 5234 0
-250 -5225 5226 0
-5226 5235 0
-251 -5226 5227 0
-5227 5236 0
-252 -5227 5228 0
-5228 5237 0
-253 -5228 0
-245 5229 0
-5229 5238 0
-246 -5229 5230 0
-5230 5239 0
-247 -5230 5231 0
-5231 5240 0
-248 -5231 5232 0
-5232 5241 0
-249 -5232 5233 0
-5233 5242 0
-250 -5233 5234 0
-5234 5243 0
-251 -5234 5235 0
-5235 5244 0
-252 -5235 5236 0
-5236 5245 0
-253 -5236 5237 0
-5237 5246 0
-254 -5237 0
-246 5238 0
-5238 5247 0
-247 -5238 5239 0
-5239 5248 0
-248 -5239 5240 0
-5240 5249 0
-249 -5240 5241 0
-5241 5250 0
-250 -5241 5242 0
-5242 5251 0
-251 -5242 5243 0
-5243 5252 0
-252 -5243 5244 0
-5244 5253 0
-253 -5244 5245 0
-5245 5254 0
-254 -5245 5246 0
-5246 5255 0
-255 -5246 0
-247 5247 0
-5247 5256 0
-248 -5247 5248 0
-5248 5257 0
-249 -5248 5249 0
-5249 5258 0
-250 -5249 5250 0
-5250 5259 0
-251 -5250 5251 0
-5251 5260 0
-252 -5251 5252 0
-5252 5261 0
-253 -5252 5253 0
-5253 5262 0
-254 -5253 5254 0
-5254 5263 0
-255 -5254 5255 0
-5255 5264 0
-256 -5255 0
-248 5256 0
-5256 5265 0
-249 -5256 5257 0
-5257 5266 0
-250 -5257 5258 0
-5258 5267 0
-251 -5258 5259 0
-5259 5268 0
-252 -5259 5260 0
-5260 5269 0
-253 -5260 5261 0
-5261 5270 0
-254 -5261 5262 0
-5262 5271 0
-255 -5262 5263 0
-5263 5272 0
-256 -5263 5264 0
-5264 5273 0
-257 -5264 0
-249 5265 0
-5265 5274 0
-250 -5265 5266 0
-5266 5275 0
-251 -5266 5267 0
-5267 5276 0
-252 -5267 5268 0
-5268 5277 0
-253 -5268 5269 0
-5269 5278 0
-254 -5269 5270 0
-5270 5279 0
-255 -5270 5271 0
-5271 5280 0
-256 -5271 5272 0
-5272 5281 0
-257 -5272 5273 0
-5273 5282 0
-258 -5273 0
-250 5274 0
-5274 5283 0
-251 -5274 5275 0
-5275 5284 0
-252 -5275 5276 0
-5276 5285 0
-253 -5276 5277 0
-5277 5286 0
-254 -5277 5278 0
-5278 5287 0
-255 -5278 5279 0
-5279 5288 0
-256 -5279 5280 0
-5280 5289 0
-257 -5280 5281 0
-5281 5290 0
-258 -5281 5282 0
-5282 5291 0
-259 -5282 0
-251 5283 0
-5283 5292 0
-252 -5283 5284 0
-5284 5293 0
-253 -5284 5285 0
-5285 5294 0
-254 -5285 5286 0
-5286 5295 0
-255 -5286 5287 0
-5287 5296 0
-256 -5287 5288 0
-5288 5297 0
-257 -5288 5289 0
-5289 5298 0
-258 -5289 5290 0
-5290 5299 0
-259 -5290 5291 0
-5291 5300 0
-260 -5291 0
-252 5292 0
-5292 5301 0
-253 -5292 5293 0
-5293 5302 0
-254 -5293 5294 0
-5294 5303 0
-255 -5294 5295 0
-5295 5304 0
-256 -5295 5296 0
-5296 5305 0
-257 -5296 5297 0
-5297 5306 0
-258 -5297 5298 0
-5298 5307 0
-259 -5298 5299 0
-5299 5308 0
-260 -5299 5300 0
-5300 5309 0
-261 -5300 0
-253 5301 0
-5301 5310 0
-254 -5301 5302 0
-5302 5311 0
-255 -5302 5303 0
-5303 5312 0
-256 -5303 5304 0
-5304 5313 0
-257 -5304 5305 0
-5305 5314 0
-258 -5305 5306 0
-5306 5315 0
-259 -5306 5307 0
-5307 5316 0
-260 -5307 5308 0
-5308 5317 0
-261 -5308 5309 0
-5309 5318 0
-262 -5309 0
-254 5310 0
-5310 5319 0
-255 -5310 5311 0
-5311 5320 0
-256 -5311 5312 0
-5312 5321 0
-257 -5312 5313 0
-5313 5322 0
-258 -5313 5314 0
-5314 5323 0
-259 -5314 5315 0
-5315 5324 0
-260 -5315 5316 0
-5316 5325 0
-261 -5316 5317 0
-5317 5326 0
-262 -5317 5318 0
-5318 5327 0
-263 -5318 0
-255 5319 0
-5319 5328 0
-256 -5319 5320 0
-5320 5329 0
-257 -5320 5321 0
-5321 5330 0
-258 -5321 5322 0
-5322 5331 0
-259 -5322 5323 0
-5323 5332 0
-260 -5323 5324 0
-5324 5333 0
-261 -5324 5325 0
-5325 5334 0
-262 -5325 5326 0
-5326 5335 0
-263 -5326 5327 0
-5327 5336 0
-264 -5327 0
-256 5328 0
-5328 5337 0
-257 -5328 5329 0
-5329 5338 0
-258 -5329 5330 0
-5330 5339 0
-259 -5330 5331 0
-5331 5340 0
-260 -5331 5332 0
-5332 5341 0
-261 -5332 5333 0
-5333 5342 0
-262 -5333 5334 0
-5334 5343 0
-263 -5334 5335 0
-5335 5344 0
-264 -5335 5336 0
-5336 5345 0
-265 -5336 0
-257 5337 0
-5337 5346 0
-258 -5337 5338 0
-5338 5347 0
-259 -5338 5339 0
-5339 5348 0
-260 -5339 5340 0
-5340 5349 0
-261 -5340 5341 0
-5341 5350 0
-262 -5341 5342 0
-5342 5351 0
-263 -5342 5343 0
-5343 5352 0
-264 -5343 5344 0
-5344 5353 0
-265 -5344 5345 0
-5345 5354 0
-266 -5345 0
-258 5346 0
-5346 5355 0
-259 -5346 5347 0
-5347 5356 0
-260 -5347 5348 0
-5348 5357 0
-261 -5348 5349 0
-5349 5358 0
-262 -5349 5350 0
-5350 5359 0
-263 -5350 5351 0
-5351 5360 0
-264 -5351 5352 0
-5352 5361 0
-265 -5352 5353 0
-5353 5362 0
-266 -5353 5354 0
-5354 5363 0
-267 -5354 0
-259 5355 0
-5355 5364 0
-260 -5355 5356 0
-5356 5365 0
-261 -5356 5357 0
-5357 5366 0
-262 -5357 5358 0
-5358 5367 0
-263 -5358 5359 0
-5359 5368 0
-264 -5359 5360 0
-5360 5369 0
-265 -5360 5361 0
-5361 5370 0
-266 -5361 5362 0
-5362 5371 0
-267 -5362 5363 0
-5363 5372 0
-268 -5363 0
-260 5364 0
-5364 5373 0
-261 -5364 5365 0
-5365 5374 0
-262 -5365 5366 0
-5366 5375 0
-263 -5366 5367 0
-5367 5376 0
-264 -5367 5368 0
-5368 5377 0
-265 -5368 5369 0
-5369 5378 0
-266 -5369 5370 0
-5370 5379 0
-267 -5370 5371 0
-5371 5380 0
-268 -5371 5372 0
-5372 5381 0
-269 -5372 0
-261 5373 0
-5373 5382 0
-262 -5373 5374 0
-5374 5383 0
-263 -5374 5375 0
-5375 5384 0
-264 -5375 5376 0
-5376 5385 0
-265 -5376 5377 0
-5377 5386 0
-266 -5377 5378 0
-5378 5387 0
-267 -5378 5379 0
-5379 5388 0
-268 -5379 5380 0
-5380 5389 0
-269 -5380 5381 0
-5381 5390 0
-270 -5381 0
-262 5382 0
-5382 5391 0
-263 -5382 5383 0
-5383 5392 0
-264 -5383 5384 0
-5384 5393 0
-265 -5384 5385 0
-5385 5394 0
-266 -5385 5386 0
-5386 5395 0
-267 -5386 5387 0
-5387 5396 0
-268 -5387 5388 0
-5388 5397 0
-269 -5388 5389 0
-5389 5398 0
-270 -5389 5390 0
-5390 5399 0
-271 -5390 0
-263 5391 0
-5391 5400 0
-264 -5391 5392 0
-5392 5401 0
-265 -5392 5393 0
-5393 5402 0
-266 -5393 5394 0
-5394 5403 0
-267 -5394 5395 0
-5395 5404 0
-268 -5395 5396 0
-5396 5405 0
-269 -5396 5397 0
-5397 5406 0
-270 -5397 5398 0
-5398 5407 0
-271 -5398 5399 0
-5399 5408 0
-272 -5399 0
-264 5400 0
-5400 5409 0
-265 -5400 5401 0
-5401 5410 0
-266 -5401 5402 0
-5402 5411 0
-267 -5402 5403 0
-5403 5412 0
-268 -5403 5404 0
-5404 5413 0
-269 -5404 5405 0
-5405 5414 0
-270 -5405 5406 0
-5406 5415 0
-271 -5406 5407 0
-5407 5416 0
-272 -5407 5408 0
-5408 5417 0
-273 -5408 0
-265 5409 0
-5409 5418 0
-266 -5409 5410 0
-5410 5419 0
-267 -5410 5411 0
-5411 5420 0
-268 -5411 5412 0
-5412 5421 0
-269 -5412 5413 0
-5413 5422 0
-270 -5413 5414 0
-5414 5423 0
-271 -5414 5415 0
-5415 5424 0
-272 -5415 5416 0
-5416 5425 0
-273 -5416 5417 0
-5417 5426 0
-274 -5417 0
-266 5418 0
-5418 5427 0
-267 -5418 5419 0
-5419 5428 0
-268 -5419 5420 0
-5420 5429 0
-269 -5420 5421 0
-5421 5430 0
-270 -5421 5422 0
-5422 5431 0
-271 -5422 5423 0
-5423 5432 0
-272 -5423 5424 0
-5424 5433 0
-273 -5424 5425 0
-5425 5434 0
-274 -5425 5426 0
-5426 5435 0
-275 -5426 0
-267 5427 0
-5427 5436 0
-268 -5427 5428 0
-5428 5437 0
-269 -5428 5429 0
-5429 5438 0
-270 -5429 5430 0
-5430 5439 0
-271 -5430 5431 0
-5431 5440 0
-272 -5431 5432 0
-5432 5441 0
-273 -5432 5433 0
-5433 5442 0
-274 -5433 5434 0
-5434 5443 0
-275 -5434 5435 0
-5435 5444 0
-276 -5435 0
-268 5436 0
-5436 5445 0
-269 -5436 5437 0
-5437 5446 0
-270 -5437 5438 0
-5438 5447 0
-271 -5438 5439 0
-5439 5448 0
-272 -5439 5440 0
-5440 5449 0
-273 -5440 5441 0
-5441 5450 0
-274 -5441 5442 0
-5442 5451 0
-275 -5442 5443 0
-5443 5452 0
-276 -5443 5444 0
-5444 5453 0
-277 -5444 0
-269 5445 0
-5445 5454 0
-270 -5445 5446 0
-5446 5455 0
-271 -5446 5447 0
-5447 5456 0
-272 -5447 5448 0
-5448 5457 0
-273 -5448 5449 0
-5449 5458 0
-274 -5449 5450 0
-5450 5459 0
-275 -5450 5451 0
-5451 5460 0
-276 -5451 5452 0
-5452 5461 0
-277 -5452 5453 0
-5453 5462 0
-278 -5453 0
-270 5454 0
-5454 5463 0
-271 -5454 5455 0
-5455 5464 0
-272 -5455 5456 0
-5456 5465 0
-273 -5456 5457 0
-5457 5466 0
-274 -5457 5458 0
-5458 5467 0
-275 -5458 5459 0
-5459 5468 0
-276 -5459 5460 0
-5460 5469 0
-277 -5460 5461 0
-5461 5470 0
-278 -5461 5462 0
-5462 5471 0
-279 -5462 0
-271 5463 0
-5463 5472 0
-272 -5463 5464 0
-5464 5473 0
-273 -5464 5465 0
-5465 5474 0
-274 -5465 5466 0
-5466 5475 0
-275 -5466 5467 0
-5467 5476 0
-276 -5467 5468 0
-5468 5477 0
-277 -5468 5469 0
-5469 5478 0
-278 -5469 5470 0
-5470 5479 0
-279 -5470 5471 0
-5471 5480 0
-280 -5471 0
-272 5472 0
-5472 5481 0
-273 -5472 5473 0
-5473 5482 0
-274 -5473 5474 0
-5474 5483 0
-275 -5474 5475 0
-5475 5484 0
-276 -5475 5476 0
-5476 5485 0
-277 -5476 5477 0
-5477 5486 0
-278 -5477 5478 0
-5478 5487 0
-279 -5478 5479 0
-5479 5488 0
-280 -5479 5480 0
-5480 5489 0
-281 -5480 0
-273 5481 0
-5481 5490 0
-274 -5481 5482 0
-5482 5491 0
-275 -5482 5483 0
-5483 5492 0
-276 -5483 5484 0
-5484 5493 0
-277 -5484 5485 0
-5485 5494 0
-278 -5485 5486 0
-5486 5495 0
-279 -5486 5487 0
-5487 5496 0
-280 -5487 5488 0
-5488 5497 0
-281 -5488 5489 0
-5489 5498 0
-282 -5489 0
-274 5490 0
-5490 5499 0
-275 -5490 5491 0
-5491 5500 0
-276 -5491 5492 0
-5492 5501 0
-277 -5492 5493 0
-5493 5502 0
-278 -5493 5494 0
-5494 5503 0
-279 -5494 5495 0
-5495 5504 0
-280 -5495 5496 0
-5496 5505 0
-281 -5496 5497 0
-5497 5506 0
-282 -5497 5498 0
-5498 5507 0
-283 -5498 0
-275 5499 0
-5499 5508 0
-276 -5499 5500 0
-5500 5509 0
-277 -5500 5501 0
-5501 5510 0
-278 -5501 5502 0
-5502 5511 0
-279 -5502 5503 0
-5503 5512 0
-280 -5503 5504 0
-5504 5513 0
-281 -5504 5505 0
-5505 5514 0
-282 -5505 5506 0
-5506 5515 0
-283 -5506 5507 0
-5507 5516 0
-284 -5507 0
-276 5508 0
-5508 5517 0
-277 -5508 5509 0
-5509 5518 0
-278 -5509 5510 0
-5510 5519 0
-279 -5510 5511 0
-5511 5520 0
-280 -5511 5512 0
-5512 5521 0
-281 -5512 5513 0
-5513 5522 0
-282 -5513 5514 0
-5514 5523 0
-283 -5514 5515 0
-5515 5524 0
-284 -5515 5516 0
-5516 5525 0
-285 -5516 0
-277 5517 0
-5517 5526 0
-278 -5517 5518 0
-5518 5527 0
-279 -5518 5519 0
-5519 5528 0
-280 -5519 5520 0
-5520 5529 0
-281 -5520 5521 0
-5521 5530 0
-282 -5521 5522 0
-5522 5531 0
-283 -5522 5523 0
-5523 5532 0
-284 -5523 5524 0
-5524 5533 0
-285 -5524 5525 0
-5525 5534 0
-286 -5525 0
-278 5526 0
-5526 5535 0
-279 -5526 5527 0
-5527 5536 0
-280 -5527 5528 0
-5528 5537 0
-281 -5528 5529 0
-5529 5538 0
-282 -5529 5530 0
-5530 5539 0
-283 -5530 5531 0
-5531 5540 0
-284 -5531 5532 0
-5532 5541 0
-285 -5532 5533 0
-5533 5542 0
-286 -5533 5534 0
-5534 5543 0
-287 -5534 0
-279 5535 0
-5535 5544 0
-280 -5535 5536 0
-5536 5545 0
-281 -5536 5537 0
-5537 5546 0
-282 -5537 5538 0
-5538 5547 0
-283 -5538 5539 0
-5539 5548 0
-284 -5539 5540 0
-5540 5549 0
-285 -5540 5541 0
-5541 5550 0
-286 -5541 5542 0
-5542 5551 0
-287 -5542 5543 0
-5543 5552 0
-288 -5543 0
-280 5544 0
-5544 5553 0
-281 -5544 5545 0
-5545 5554 0
-282 -5545 5546 0
-5546 5555 0
-283 -5546 5547 0
-5547 5556 0
-284 -5547 5548 0
-5548 5557 0
-285 -5548 5549 0
-5549 5558 0
-286 -5549 5550 0
-5550 5559 0
-287 -5550 5551 0
-5551 5560 0
-288 -5551 5552 0
-5552 5561 0
-289 -5552 0
-281 5553 0
-5553 5562 0
-282 -5553 5554 0
-5554 5563 0
-283 -5554 5555 0
-5555 5564 0
-284 -5555 5556 0
-5556 5565 0
-285 -5556 5557 0
-5557 5566 0
-286 -5557 5558 0
-5558 5567 0
-287 -5558 5559 0
-5559 5568 0
-288 -5559 5560 0
-5560 5569 0
-289 -5560 5561 0
-5561 5570 0
-290 -5561 0
-282 5562 0
-5562 5571 0
-283 -5562 5563 0
-5563 5572 0
-284 -5563 5564 0
-5564 5573 0
-285 -5564 5565 0
-5565 5574 0
-286 -5565 5566 0
-5566 5575 0
-287 -5566 5567 0
-5567 5576 0
-288 -5567 5568 0
-5568 5577 0
-289 -5568 5569 0
-5569 5578 0
-290 -5569 5570 0
-5570 5579 0
-291 -5570 0
-283 5571 0
-5571 5580 0
-284 -5571 5572 0
-5572 5581 0
-285 -5572 5573 0
-5573 5582 0
-286 -5573 5574 0
-5574 5583 0
-287 -5574 5575 0
-5575 5584 0
-288 -5575 5576 0
-5576 5585 0
-289 -5576 5577 0
-5577 5586 0
-290 -5577 5578 0
-5578 5587 0
-291 -5578 5579 0
-5579 5588 0
-292 -5579 0
-284 5580 0
-5580 5589 0
-285 -5580 5581 0
-5581 5590 0
-286 -5581 5582 0
-5582 5591 0
-287 -5582 5583 0
-5583 5592 0
-288 -5583 5584 0
-5584 5593 0
-289 -5584 5585 0
-5585 5594 0
-290 -5585 5586 0
-5586 5595 0
-291 -5586 5587 0
-5587 5596 0
-292 -5587 5588 0
-5588 5597 0
-293 -5588 0
-285 5589 0
-5589 5598 0
-286 -5589 5590 0
-5590 5599 0
-287 -5590 5591 0
-5591 5600 0
-288 -5591 5592 0
-5592 5601 0
-289 -5592 5593 0
-5593 5602 0
-290 -5593 5594 0
-5594 5603 0
-291 -5594 5595 0
-5595 5604 0
-292 -5595 5596 0
-5596 5605 0
-293 -5596 5597 0
-5597 5606 0
-294 -5597 0
-286 5598 0
-5598 5607 0
-287 -5598 5599 0
-5599 5608 0
-288 -5599 5600 0
-5600 5609 0
-289 -5600 5601 0
-5601 5610 0
-290 -5601 5602 0
-5602 5611 0
-291 -5602 5603 0
-5603 5612 0
-292 -5603 5604 0
-5604 5613 0
-293 -5604 5605 0
-5605 5614 0
-294 -5605 5606 0
-5606 5615 0
-295 -5606 0
-287 5607 0
-5607 5616 0
-288 -5607 5608 0
-5608 5617 0
-289 -5608 5609 0
-5609 5618 0
-290 -5609 5610 0
-5610 5619 0
-291 -5610 5611 0
-5611 5620 0
-292 -5611 5612 0
-5612 5621 0
-293 -5612 5613 0
-5613 5622 0
-294 -5613 5614 0
-5614 5623 0
-295 -5614 5615 0
-5615 5624 0
-296 -5615 0
-288 5616 0
-5616 5625 0
-289 -5616 5617 0
-5617 5626 0
-290 -5617 5618 0
-5618 5627 0
-291 -5618 5619 0
-5619 5628 0
-292 -5619 5620 0
-5620 5629 0
-293 -5620 5621 0
-5621 5630 0
-294 -5621 5622 0
-5622 5631 0
-295 -5622 5623 0
-5623 5632 0
-296 -5623 5624 0
-5624 5633 0
-297 -5624 0
-289 5625 0
-5625 5634 0
-290 -5625 5626 0
-5626 5635 0
-291 -5626 5627 0
-5627 5636 0
-292 -5627 5628 0
-5628 5637 0
-293 -5628 5629 0
-5629 5638 0
-294 -5629 5630 0
-5630 5639 0
-295 -5630 5631 0
-5631 5640 0
-296 -5631 5632 0
-5632 5641 0
-297 -5632 5633 0
-5633 5642 0
-298 -5633 0
-290 5634 0
-5634 5643 0
-291 -5634 5635 0
-5635 5644 0
-292 -5635 5636 0
-5636 5645 0
-293 -5636 5637 0
-5637 5646 0
-294 -5637 5638 0
-5638 5647 0
-295 -5638 5639 0
-5639 5648 0
-296 -5639 5640 0
-5640 5649 0
-297 -5640 5641 0
-5641 5650 0
-298 -5641 5642 0
-5642 5651 0
-299 -5642 0
-291 5643 0
-5643 5652 0
-292 -5643 5644 0
-5644 5653 0
-293 -5644 5645 0
-5645 5654 0
-294 -5645 5646 0
-5646 5655 0
-295 -5646 5647 0
-5647 5656 0
-296 -5647 5648 0
-5648 5657 0
-297 -5648 5649 0
-5649 5658 0
-298 -5649 5650 0
-5650 5659 0
-299 -5650 5651 0
-5651 5660 0
-300 -5651 0
-292 5652 0
-5652 5661 0
-293 -5652 5653 0
-5653 5662 0
-294 -5653 5654 0
-5654 5663 0
-295 -5654 5655 0
-5655 5664 0
-296 -5655 5656 0
-5656 5665 0
-297 -5656 5657 0
-5657 5666 0
-298 -5657 5658 0
-5658 5667 0
-299 -5658 5659 0
-5659 5668 0
-300 -5659 5660 0
-5660 5669 0
-301 -5660 0
-293 5661 0
-5661 5670 0
-294 -5661 5662 0
-5662 5671 0
-295 -5662 5663 0
-5663 5672 0
-296 -5663 5664 0
-5664 5673 0
-297 -5664 5665 0
-5665 5674 0
-298 -5665 5666 0
-5666 5675 0
-299 -5666 5667 0
-5667 5676 0
-300 -5667 5668 0
-5668 5677 0
-301 -5668 5669 0
-5669 5678 0
-302 -5669 0
-294 5670 0
-5670 5679 0
-295 -5670 5671 0
-5671 5680 0
-296 -5671 5672 0
-5672 5681 0
-297 -5672 5673 0
-5673 5682 0
-298 -5673 5674 0
-5674 5683 0
-299 -5674 5675 0
-5675 5684 0
-300 -5675 5676 0
-5676 5685 0
-301 -5676 5677 0
-5677 5686 0
-302 -5677 5678 0
-5678 5687 0
-303 -5678 0
-295 5679 0
-5679 5688 0
-296 -5679 5680 0
-5680 5689 0
-297 -5680 5681 0
-5681 5690 0
-298 -5681 5682 0
-5682 5691 0
-299 -5682 5683 0
-5683 5692 0
-300 -5683 5684 0
-5684 5693 0
-301 -5684 5685 0
-5685 5694 0
-302 -5685 5686 0
-5686 5695 0
-303 -5686 5687 0
-5687 5696 0
-304 -5687 0
-296 5688 0
-5688 5697 0
-297 -5688 5689 0
-5689 5698 0
-298 -5689 5690 0
-5690 5699 0
-299 -5690 5691 0
-5691 5700 0
-300 -5691 5692 0
-5692 5701 0
-301 -5692 5693 0
-5693 5702 0
-302 -5693 5694 0
-5694 5703 0
-303 -5694 5695 0
-5695 5704 0
-304 -5695 5696 0
-5696 5705 0
-305 -5696 0
-297 5697 0
-5697 5706 0
-298 -5697 5698 0
-5698 5707 0
-299 -5698 5699 0
-5699 5708 0
-300 -5699 5700 0
-5700 5709 0
-301 -5700 5701 0
-5701 5710 0
-302 -5701 5702 0
-5702 5711 0
-303 -5702 5703 0
-5703 5712 0
-304 -5703 5704 0
-5704 5713 0
-305 -5704 5705 0
-5705 5714 0
-306 -5705 0
-298 5706 0
-5706 5715 0
-299 -5706 5707 0
-5707 5716 0
-300 -5707 5708 0
-5708 5717 0
-301 -5708 5709 0
-5709 5718 0
-302 -5709 5710 0
-5710 5719 0
-303 -5710 5711 0
-5711 5720 0
-304 -5711 5712 0
-5712 5721 0
-305 -5712 5713 0
-5713 5722 0
-306 -5713 5714 0
-5714 5723 0
-307 -5714 0
-299 5715 0
-5715 5724 0
-300 -5715 5716 0
-5716 5725 0
-301 -5716 5717 0
-5717 5726 0
-302 -5717 5718 0
-5718 5727 0
-303 -5718 5719 0
-5719 5728 0
-304 -5719 5720 0
-5720 5729 0
-305 -5720 5721 0
-5721 5730 0
-306 -5721 5722 0
-5722 5731 0
-307 -5722 5723 0
-5723 5732 0
-308 -5723 0
-300 5724 0
-5724 5733 0
-301 -5724 5725 0
-5725 5734 0
-302 -5725 5726 0
-5726 5735 0
-303 -5726 5727 0
-5727 5736 0
-304 -5727 5728 0
-5728 5737 0
-305 -5728 5729 0
-5729 5738 0
-306 -5729 5730 0
-5730 5739 0
-307 -5730 5731 0
-5731 5740 0
-308 -5731 5732 0
-5732 5741 0
-309 -5732 0
-301 5733 0
-5733 5742 0
-302 -5733 5734 0
-5734 5743 0
-303 -5734 5735 0
-5735 5744 0
-304 -5735 5736 0
-5736 5745 0
-305 -5736 5737 0
-5737 5746 0
-306 -5737 5738 0
-5738 5747 0
-307 -5738 5739 0
-5739 5748 0
-308 -5739 5740 0
-5740 5749 0
-309 -5740 5741 0
-5741 5750 0
-310 -5741 0
-302 5742 0
-5742 5751 0
-303 -5742 5743 0
-5743 5752 0
-304 -5743 5744 0
-5744 5753 0
-305 -5744 5745 0
-5745 5754 0
-306 -5745 5746 0
-5746 5755 0
-307 -5746 5747 0
-5747 5756 0
-308 -5747 5748 0
-5748 5757 0
-309 -5748 5749 0
-5749 5758 0
-310 -5749 5750 0
-5750 5759 0
-311 -5750 0
-303 5751 0
-5751 5760 0
-304 -5751 5752 0
-5752 5761 0
-305 -5752 5753 0
-5753 5762 0
-306 -5753 5754 0
-5754 5763 0
-307 -5754 5755 0
-5755 5764 0
-308 -5755 5756 0
-5756 5765 0
-309 -5756 5757 0
-5757 5766 0
-310 -5757 5758 0
-5758 5767 0
-311 -5758 5759 0
-5759 5768 0
-312 -5759 0
-304 5760 0
-5760 5769 0
-305 -5760 5761 0
-5761 5770 0
-306 -5761 5762 0
-5762 5771 0
-307 -5762 5763 0
-5763 5772 0
-308 -5763 5764 0
-5764 5773 0
-309 -5764 5765 0
-5765 5774 0
-310 -5765 5766 0
-5766 5775 0
-311 -5766 5767 0
-5767 5776 0
-312 -5767 5768 0
-5768 5777 0
-313 -5768 0
-305 5769 0
-5769 5778 0
-306 -5769 5770 0
-5770 5779 0
-307 -5770 5771 0
-5771 5780 0
-308 -5771 5772 0
-5772 5781 0
-309 -5772 5773 0
-5773 5782 0
-310 -5773 5774 0
-5774 5783 0
-311 -5774 5775 0
-5775 5784 0
-312 -5775 5776 0
-5776 5785 0
-313 -5776 5777 0
-5777 5786 0
-314 -5777 0
-306 5778 0
-5778 5787 0
-307 -5778 5779 0
-5779 5788 0
-308 -5779 5780 0
-5780 5789 0
-309 -5780 5781 0
-5781 5790 0
-310 -5781 5782 0
-5782 5791 0
-311 -5782 5783 0
-5783 5792 0
-312 -5783 5784 0
-5784 5793 0
-313 -5784 5785 0
-5785 5794 0
-314 -5785 5786 0
-5786 5795 0
-315 -5786 0
-307 5787 0
-5787 5796 0
-308 -5787 5788 0
-5788 5797 0
-309 -5788 5789 0
-5789 5798 0
-310 -5789 5790 0
-5790 5799 0
-311 -5790 5791 0
-5791 5800 0
-312 -5791 5792 0
-5792 5801 0
-313 -5792 5793 0
-5793 5802 0
-314 -5793 5794 0
-5794 5803 0
-315 -5794 5795 0
-5795 5804 0
-316 -5795 0
-308 5796 0
-5796 5805 0
-309 -5796 5797 0
-5797 5806 0
-310 -5797 5798 0
-5798 5807 0
-311 -5798 5799 0
-5799 5808 0
-312 -5799 5800 0
-5800 5809 0
-313 -5800 5801 0
-5801 5810 0
-314 -5801 5802 0
-5802 5811 0
-315 -5802 5803 0
-5803 5812 0
-316 -5803 5804 0
-5804 5813 0
-317 -5804 0
-309 5805 0
-5805 5814 0
-310 -5805 5806 0
-5806 5815 0
-311 -5806 5807 0
-5807 5816 0
-312 -5807 5808 0
-5808 5817 0
-313 -5808 5809 0
-5809 5818 0
-314 -5809 5810 0
-5810 5819 0
-315 -5810 5811 0
-5811 5820 0
-316 -5811 5812 0
-5812 5821 0
-317 -5812 5813 0
-5813 5822 0
-318 -5813 0
-310 5814 0
-5814 5823 0
-311 -5814 5815 0
-5815 5824 0
-312 -5815 5816 0
-5816 5825 0
-313 -5816 5817 0
-5817 5826 0
-314 -5817 5818 0
-5818 5827 0
-315 -5818 5819 0
-5819 5828 0
-316 -5819 5820 0
-5820 5829 0
-317 -5820 5821 0
-5821 5830 0
-318 -5821 5822 0
-5822 5831 0
-319 -5822 0
-311 5823 0
-5823 5832 0
-312 -5823 5824 0
-5824 5833 0
-313 -5824 5825 0
-5825 5834 0
-314 -5825 5826 0
-5826 5835 0
-315 -5826 5827 0
-5827 5836 0
-316 -5827 5828 0
-5828 5837 0
-317 -5828 5829 0
-5829 5838 0
-318 -5829 5830 0
-5830 5839 0
-319 -5830 5831 0
-5831 5840 0
-320 -5831 0
-312 5832 0
-5832 5841 0
-313 -5832 5833 0
-5833 5842 0
-314 -5833 5834 0
-5834 5843 0
-315 -5834 5835 0
-5835 5844 0
-316 -5835 5836 0
-5836 5845 0
-317 -5836 5837 0
-5837 5846 0
-318 -5837 5838 0
-5838 5847 0
-319 -5838 5839 0
-5839 5848 0
-320 -5839 5840 0
-5840 5849 0
-321 -5840 0
-313 5841 0
-5841 5850 0
-314 -5841 5842 0
-5842 5851 0
-315 -5842 5843 0
-5843 5852 0
-316 -5843 5844 0
-5844 5853 0
-317 -5844 5845 0
-5845 5854 0
-318 -5845 5846 0
-5846 5855 0
-319 -5846 5847 0
-5847 5856 0
-320 -5847 5848 0
-5848 5857 0
-321 -5848 5849 0
-5849 5858 0
-322 -5849 0
-314 5850 0
-5850 5859 0
-315 -5850 5851 0
-5851 5860 0
-316 -5851 5852 0
-5852 5861 0
-317 -5852 5853 0
-5853 5862 0
-318 -5853 5854 0
-5854 5863 0
-319 -5854 5855 0
-5855 5864 0
-320 -5855 5856 0
-5856 5865 0
-321 -5856 5857 0
-5857 5866 0
-322 -5857 5858 0
-5858 5867 0
-323 -5858 0
-315 5859 0
-316 -5859 5860 0
-317 -5860 5861 0
-318 -5861 5862 0
-319 -5862 5863 0
-320 -5863 5864 0
-321 -5864 5865 0
-322 -5865 5866 0
-323 -5866 5867 0
-324 -5867 0
