p cnf 7735 26966
-1 289 0
-145 289 0
-289 1 145 0
-2 290 0
-146 290 0
-290 2 146 0
-3 291 0
-147 291 0
-291 3 147 0
-4 292 0
-148 292 0
-292 4 148 0
-5 293 0
-149 293 0
-293 5 149 0
-6 294 0
-150 294 0
-294 6 150 0
-7 295 0
-151 295 0
-295 7 151 0
-8 296 0
-152 296 0
-296 8 152 0
-9 297 0
-153 297 0
-297 9 153 0
-10 298 0
-154 298 0
-298 10 154 0
-11 299 0
-155 299 0
-299 11 155 0
-12 300 0
-156 300 0
-300 12 156 0
-13 301 0
-157 301 0
-301 13 157 0
-14 302 0
-158 302 0
-302 14 158 0
-15 303 0
-159 303 0
-303 15 159 0
-16 304 0
-160 304 0
-304 16 160 0
-17 305 0
-161 305 0
-305 17 161 0
-18 306 0
-162 306 0
-306 18 162 0
-19 307 0
-163 307 0
-307 19 163 0
-20 308 0
-164 308 0
-308 20 164 0
-21 309 0
-165 309 0
-309 21 165 0
-22 310 0
-166 310 0
-310 22 166 0
-23 311 0
-167 311 0
-311 23 167 0
-24 312 0
-168 312 0
-312 24 168 0
-25 313 0
-169 313 0
-313 25 169 0
-26 314 0
-170 314 0
-314 26 170 0
-27 315 0
-171 315 0
-315 27 171 0
-28 316 0
-172 316 0
-316 28 172 0
-29 317 0
-173 317 0
-317 29 173 0
-30 318 0
-174 318 0
-318 30 174 0
-31 319 0
-175 319 0
-319 31 175 0
-32 320 0
-176 320 0
-320 32 176 0
-33 321 0
-177 321 0
-321 33 177 0
-34 322 0
-178 322 0
-322 34 178 0
-35 323 0
-179 323 0
-323 35 179 0
-36 324 0
-180 324 0
-324 36 180 0
-37 325 0
-181 325 0
-325 37 181 0
-38 326 0
-182 326 0
-326 38 182 0
-39 327 0
-183 327 0
-327 39 183 0
-40 328 0
-184 328 0
-328 40 184 0
-41 329 0
-185 329 0
-329 41 185 0
-42 330 0
-186 330 0
-330 42 186 0
-43 331 0
-187 331 0
-331 43 187 0
-44 332 0
-188 332 0
-332 44 188 0
-45 333 0
-189 333 0
-333 45 189 0
-46 334 0
-190 334 0
-334 46 190 0
-47 335 0
-191 335 0
-335 47 191 0
-48 336 0
-192 336 0
-336 48 192 0
-49 337 0
-193 337 0
-337 49 193 0
-50 338 0
-194 338 0
-338 50 194 0
-51 339 0
-195 339 0
-339 51 195 0
-52 340 0
-196 340 0
-340 52 196 0
-53 341 0
-197 341 0
-341 53 197 0
-54 342 0
-198 342 0
-342 54 198 0
-55 343 0
-199 343 0
-343 55 199 0
-56 344 0
-200 344 0
-344 56 200 0
-57 345 0
-201 345 0
-345 57 201 0
-58 346 0
-202 346 0
-346 58 202 0
-59 347 0
-203 347 0
-347 59 203 0
-60 348 0
-204 348 0
-348 60 204 0
-61 349 0
-205 349 0
-349 61 205 0
-62 350 0
-206 350 0
-350 62 206 0
-63 351 0
-207 351 0
-351 63 207 0
-64 352 0
-208 352 0
-352 64 208 0
-65 353 0
-209 353 0
-353 65 209 0
-66 354 0
-210 354 0
-354 66 210 0
-67 355 0
-211 355 0
-355 67 211 0
-68 356 0
-212 356 0
-356 68 212 0
-69 357 0
-213 357 0
-357 69 213 0
-70 358 0
-214 358 0
-358 70 214 0
-71 359 0
-215 359 0
-359 71 215 0
-72 360 0
-216 360 0
-360 72 216 0
-73 361 0
-217 361 0
-361 73 217 0
-74 362 0
-218 362 0
-362 74 218 0
-75 363 0
-219 363 0
-363 75 219 0
-76 364 0
-220 364 0
-364 76 220 0
-77 365 0
-221 365 0
-365 77 221 0
-78 366 0
-222 366 0
-366 78 222 0
-79 367 0
-223 367 0
-367 79 223 0
-80 368 0
-224 368 0
-368 80 224 0
-81 369 0
-225 369 0
-369 81 225 0
-82 370 0
-226 370 0
-370 82 226 0
-83 371 0
-227 371 0
-371 83 227 0
-84 372 0
-228 372 0
-372 84 228 0
-85 373 0
-229 373 0
-373 85 229 0
-86 374 0
-230 374 0
-374 86 230 0
-87 375 0
-231 375 0
-375 87 231 0
-88 376 0
-232 376 0
-376 88 232 0
-89 377 0
-233 377 0
-377 89 233 0
-90 378 0
-234 378 0
-378 90 234 0
-91 379 0
-235 379 0
-379 91 235 0
-92 380 0
-236 380 0
-380 92 236 0
-93 381 0
-237 381 0
-381 93 237 0
-94 382 0
-238 382 0
-382 94 238 0
-95 383 0
-239 383 0
-383 95 239 0
-96 384 0
-240 384 0
-384 96 240 0
-97 385 0
-241 385 0
-385 97 241 0
-98 386 0
-242 386 0
-386 98 242 0
-99 387 0
-243 387 0
-387 99 243 0
-100 388 0
-244 388 0
-388 100 244 0
-101 389 0
-245 389 0
-389 101 245 0
-102 390 0
-246 390 0
-390 102 246 0
-103 391 0
-247 391 0
-391 103 247 0
-104 392 0
-248 392 0
-392 104 248 0
-105 393 0
-249 393 0
-393 105 249 0
-106 394 0
-250 394 0
-394 106 250 0
-107 395 0
-251 395 0
-395 107 251 0
-108 396 0
-252 396 0
-396 108 252 0
-109 397 0
-253 397 0
-397 109 253 0
-110 398 0
-254 398 0
-398 110 254 0
-111 399 0
-255 399 0
-399 111 255 0
-112 400 0
-256 400 0
-400 112 256 0
-113 401 0
-257 401 0
-401 113 257 0
-114 402 0
-258 402 0
-402 114 258 0
-115 403 0
-259 403 0
-403 115 259 0
-116 404 0
-260 404 0
-404 116 260 0
-117 405 0
-261 405 0
-405 117 261 0
-118 406 0
-262 406 0
-406 118 262 0
-119 407 0
-263 407 0
-407 119 263 0
-120 408 0
-264 408 0
-408 120 264 0
-121 409 0
-265 409 0
-409 121 265 0
-122 410 0
-266 410 0
-410 122 266 0
-123 411 0
-267 411 0
-411 123 267 0
-124 412 0
-268 412 0
-412 124 268 0
-125 413 0
-269 413 0
-413 125 269 0
-126 414 0
-270 414 0
-414 126 270 0
-127 415 0
-271 415 0
-415 127 271 0
-128 416 0
-272 416 0
-416 128 272 0
-129 417 0
-273 417 0
-417 129 273 0
-130 418 0
-274 418 0
-418 130 274 0
-131 419 0
-275 419 0
-419 131 275 0
-132 420 0
-276 420 0
-420 132 276 0
-133 421 0
-277 421 0
-421 133 277 0
-134 422 0
-278 422 0
-422 134 278 0
-135 423 0
-279 423 0
-423 135 279 0
-136 424 0
-280 424 0
-424 136 280 0
-137 425 0
-281 425 0
-425 137 281 0
-138 426 0
-282 426 0
-426 138 282 0
-139 427 0
-283 427 0
-427 139 283 0
-140 428 0
-284 428 0
-428 140 284 0
-141 429 0
-285 429 0
-429 141 285 0
-142 430 0
-286 430 0
-430 142 286 0
-143 431 0
-287 431 0
-431 143 287 0
-144 432 0
-288 432 0
-432 144 288 0
-433 64 66 0
-433 -64 -66 0
433 -64 66 0
433 64 -66 0
-434 433 69 0
-434 -433 -69 0
434 -433 69 0
434 433 -69 0
-435 434 71 0
-435 -434 -71 0
435 -434 71 0
435 434 -71 0
-436 435 72 0
-436 -435 -72 0
436 -435 72 0
436 435 -72 0
-437 436 84 0
-437 -436 -84 0
437 -436 84 0
437 436 -84 0
-438 437 85 0
-438 -437 -85 0
438 -437 85 0
438 437 -85 0
-439 438 90 0
-439 -438 -90 0
439 -438 90 0
439 438 -90 0
-440 439 92 0
-440 -439 -92 0
440 -439 92 0
440 439 -92 0
-441 440 93 0
-441 -440 -93 0
441 -440 93 0
441 440 -93 0
-442 441 95 0
-442 -441 -95 0
442 -441 95 0
442 441 -95 0
-443 442 96 0
-443 -442 -96 0
443 -442 96 0
443 442 -96 0
-444 443 99 0
-444 -443 -99 0
444 -443 99 0
444 443 -99 0
-445 444 100 0
-445 -444 -100 0
445 -444 100 0
445 444 -100 0
-446 445 101 0
-446 -445 -101 0
446 -445 101 0
446 445 -101 0
-447 446 102 0
-447 -446 -102 0
447 -446 102 0
447 446 -102 0
-448 447 106 0
-448 -447 -106 0
448 -447 106 0
448 447 -106 0
-449 448 107 0
-449 -448 -107 0
449 -448 107 0
449 448 -107 0
-450 449 108 0
-450 -449 -108 0
450 -449 108 0
450 449 -108 0
-451 450 109 0
-451 -450 -109 0
451 -450 109 0
451 450 -109 0
-452 451 110 0
-452 -451 -110 0
452 -451 110 0
452 451 -110 0
-453 452 111 0
-453 -452 -111 0
453 -452 111 0
453 452 -111 0
-454 453 114 0
-454 -453 -114 0
454 -453 114 0
454 453 -114 0
-455 454 115 0
-455 -454 -115 0
455 -454 115 0
455 454 -115 0
-456 455 116 0
-456 -455 -116 0
456 -455 116 0
456 455 -116 0
-457 456 118 0
-457 -456 -118 0
457 -456 118 0
457 456 -118 0
-458 457 119 0
-458 -457 -119 0
458 -457 119 0
458 457 -119 0
-459 458 120 0
-459 -458 -120 0
459 -458 120 0
459 458 -120 0
-460 459 123 0
-460 -459 -123 0
460 -459 123 0
460 459 -123 0
-461 460 125 0
-461 -460 -125 0
461 -460 125 0
461 460 -125 0
-462 461 126 0
-462 -461 -126 0
462 -461 126 0
462 461 -126 0
-463 462 131 0
-463 -462 -131 0
463 -462 131 0
463 462 -131 0
-464 463 134 0
-464 -463 -134 0
464 -463 134 0
464 463 -134 0
-465 464 142 0
-465 -464 -142 0
465 -464 142 0
465 464 -142 0
-466 465 143 0
-466 -465 -143 0
466 -465 143 0
466 465 -143 0
-467 466 144 0
-467 -466 -144 0
467 -466 144 0
467 466 -144 0
-468 467 145 0
-468 -467 -145 0
468 -467 145 0
468 467 -145 0
-469 468 207 0
-469 -468 -207 0
469 -468 207 0
469 468 -207 0
-470 469 208 0
-470 -469 -208 0
470 -469 208 0
470 469 -208 0
-471 470 210 0
-471 -470 -210 0
471 -470 210 0
471 470 -210 0
-472 471 221 0
-472 -471 -221 0
472 -471 221 0
472 471 -221 0
-473 472 222 0
-473 -472 -222 0
473 -472 222 0
473 472 -222 0
-474 473 227 0
-474 -473 -227 0
474 -473 227 0
474 473 -227 0
-475 474 228 0
-475 -474 -228 0
475 -474 228 0
475 474 -228 0
-476 475 230 0
-476 -475 -230 0
476 -475 230 0
476 475 -230 0
-477 476 234 0
-477 -476 -234 0
477 -476 234 0
477 476 -234 0
-478 477 236 0
-478 -477 -236 0
478 -477 236 0
478 477 -236 0
-479 478 240 0
-479 -478 -240 0
479 -478 240 0
479 478 -240 0
-480 479 241 0
-480 -479 -241 0
480 -479 241 0
480 479 -241 0
-481 480 242 0
-481 -480 -242 0
481 -480 242 0
481 480 -242 0
-482 481 243 0
-482 -481 -243 0
482 -481 243 0
482 481 -243 0
-483 482 244 0
-483 -482 -244 0
483 -482 244 0
483 482 -244 0
-484 483 247 0
-484 -483 -247 0
484 -483 247 0
484 483 -247 0
-485 484 248 0
-485 -484 -248 0
485 -484 248 0
485 484 -248 0
-486 485 249 0
-486 -485 -249 0
486 -485 249 0
486 485 -249 0
-487 486 250 0
-487 -486 -250 0
487 -486 250 0
487 486 -250 0
-488 487 254 0
-488 -487 -254 0
488 -487 254 0
488 487 -254 0
-489 488 258 0
-489 -488 -258 0
489 -488 258 0
489 488 -258 0
-490 489 263 0
-490 -489 -263 0
490 -489 263 0
490 489 -263 0
-491 490 267 0
-491 -490 -267 0
491 -490 267 0
491 490 -267 0
-492 491 280 0
-492 -491 -280 0
492 -491 280 0
492 491 -280 0
-493 492 286 0
-493 -492 -286 0
493 -492 286 0
493 492 -286 0
-493 0
-494 63 68 0
-494 -63 -68 0
494 -63 68 0
494 63 -68 0
-495 494 69 0
-495 -494 -69 0
495 -494 69 0
495 494 -69 0
-496 495 71 0
-496 -495 -71 0
496 -495 71 0
496 495 -71 0
-497 496 84 0
-497 -496 -84 0
497 -496 84 0
497 496 -84 0
-498 497 85 0
-498 -497 -85 0
498 -497 85 0
498 497 -85 0
-499 498 90 0
-499 -498 -90 0
499 -498 90 0
499 498 -90 0
-500 499 92 0
-500 -499 -92 0
500 -499 92 0
500 499 -92 0
-501 500 93 0
-501 -500 -93 0
501 -500 93 0
501 500 -93 0
-502 501 95 0
-502 -501 -95 0
502 -501 95 0
502 501 -95 0
-503 502 96 0
-503 -502 -96 0
503 -502 96 0
503 502 -96 0
-504 503 99 0
-504 -503 -99 0
504 -503 99 0
504 503 -99 0
-505 504 100 0
-505 -504 -100 0
505 -504 100 0
505 504 -100 0
-506 505 101 0
-506 -505 -101 0
506 -505 101 0
506 505 -101 0
-507 506 102 0
-507 -506 -102 0
507 -506 102 0
507 506 -102 0
-508 507 103 0
-508 -507 -103 0
508 -507 103 0
508 507 -103 0
-509 508 106 0
-509 -508 -106 0
509 -508 106 0
509 508 -106 0
-510 509 107 0
-510 -509 -107 0
510 -509 107 0
510 509 -107 0
-511 510 108 0
-511 -510 -108 0
511 -510 108 0
511 510 -108 0
-512 511 110 0
-512 -511 -110 0
512 -511 110 0
512 511 -110 0
-513 512 111 0
-513 -512 -111 0
513 -512 111 0
513 512 -111 0
-514 513 120 0
-514 -513 -120 0
514 -513 120 0
514 513 -120 0
-515 514 121 0
-515 -514 -121 0
515 -514 121 0
515 514 -121 0
-516 515 122 0
-516 -515 -122 0
516 -515 122 0
516 515 -122 0
-517 516 123 0
-517 -516 -123 0
517 -516 123 0
517 516 -123 0
-518 517 125 0
-518 -517 -125 0
518 -517 125 0
518 517 -125 0
-519 518 128 0
-519 -518 -128 0
519 -518 128 0
519 518 -128 0
-520 519 131 0
-520 -519 -131 0
520 -519 131 0
520 519 -131 0
-521 520 132 0
-521 -520 -132 0
521 -520 132 0
521 520 -132 0
-522 521 136 0
-522 -521 -136 0
522 -521 136 0
522 521 -136 0
-523 522 143 0
-523 -522 -143 0
523 -522 143 0
523 522 -143 0
-524 523 144 0
-524 -523 -144 0
524 -523 144 0
524 523 -144 0
-525 524 146 0
-525 -524 -146 0
525 -524 146 0
525 524 -146 0
-526 525 207 0
-526 -525 -207 0
526 -525 207 0
526 525 -207 0
-527 526 208 0
-527 -526 -208 0
527 -526 208 0
527 526 -208 0
-528 527 221 0
-528 -527 -221 0
528 -527 221 0
528 527 -221 0
-529 528 222 0
-529 -528 -222 0
529 -528 222 0
529 528 -222 0
-530 529 227 0
-530 -529 -227 0
530 -529 227 0
530 529 -227 0
-531 530 228 0
-531 -530 -228 0
531 -530 228 0
531 530 -228 0
-532 531 230 0
-532 -531 -230 0
532 -531 230 0
532 531 -230 0
-533 532 234 0
-533 -532 -234 0
533 -532 234 0
533 532 -234 0
-534 533 236 0
-534 -533 -236 0
534 -533 236 0
534 533 -236 0
-535 534 240 0
-535 -534 -240 0
535 -534 240 0
535 534 -240 0
-536 535 241 0
-536 -535 -241 0
536 -535 241 0
536 535 -241 0
-537 536 242 0
-537 -536 -242 0
537 -536 242 0
537 536 -242 0
-538 537 243 0
-538 -537 -243 0
538 -537 243 0
538 537 -243 0
-539 538 244 0
-539 -538 -244 0
539 -538 244 0
539 538 -244 0
-540 539 247 0
-540 -539 -247 0
540 -539 247 0
540 539 -247 0
-541 540 248 0
-541 -540 -248 0
541 -540 248 0
541 540 -248 0
-542 541 249 0
-542 -541 -249 0
542 -541 249 0
542 541 -249 0
-543 542 250 0
-543 -542 -250 0
543 -542 250 0
543 542 -250 0
-544 543 254 0
-544 -543 -254 0
544 -543 254 0
544 543 -254 0
-545 544 258 0
-545 -544 -258 0
545 -544 258 0
545 544 -258 0
-546 545 260 0
-546 -545 -260 0
546 -545 260 0
546 545 -260 0
-547 546 263 0
-547 -546 -263 0
547 -546 263 0
547 546 -263 0
-548 547 267 0
-548 -547 -267 0
548 -547 267 0
548 547 -267 0
-549 548 268 0
-549 -548 -268 0
549 -548 268 0
549 548 -268 0
-550 549 273 0
-550 -549 -273 0
550 -549 273 0
550 549 -273 0
-551 550 280 0
-551 -550 -280 0
551 -550 280 0
551 550 -280 0
-552 551 286 0
-552 -551 -286 0
552 -551 286 0
552 551 -286 0
-552 0
-553 64 69 0
-553 -64 -69 0
553 -64 69 0
553 64 -69 0
-554 553 70 0
-554 -553 -70 0
554 -553 70 0
554 553 -70 0
-555 554 72 0
-555 -554 -72 0
555 -554 72 0
555 554 -72 0
-556 555 84 0
-556 -555 -84 0
556 -555 84 0
556 555 -84 0
-557 556 86 0
-557 -556 -86 0
557 -556 86 0
557 556 -86 0
-558 557 87 0
-558 -557 -87 0
558 -557 87 0
558 557 -87 0
-559 558 88 0
-559 -558 -88 0
559 -558 88 0
559 558 -88 0
-560 559 89 0
-560 -559 -89 0
560 -559 89 0
560 559 -89 0
-561 560 92 0
-561 -560 -92 0
561 -560 92 0
561 560 -92 0
-562 561 93 0
-562 -561 -93 0
562 -561 93 0
562 561 -93 0
-563 562 95 0
-563 -562 -95 0
563 -562 95 0
563 562 -95 0
-564 563 96 0
-564 -563 -96 0
564 -563 96 0
564 563 -96 0
-565 564 97 0
-565 -564 -97 0
565 -564 97 0
565 564 -97 0
-566 565 98 0
-566 -565 -98 0
566 -565 98 0
566 565 -98 0
-567 566 104 0
-567 -566 -104 0
567 -566 104 0
567 566 -104 0
-568 567 105 0
-568 -567 -105 0
568 -567 105 0
568 567 -105 0
-569 568 106 0
-569 -568 -106 0
569 -568 106 0
569 568 -106 0
-570 569 108 0
-570 -569 -108 0
570 -569 108 0
570 569 -108 0
-571 570 110 0
-571 -570 -110 0
571 -570 110 0
571 570 -110 0
-572 571 112 0
-572 -571 -112 0
572 -571 112 0
572 571 -112 0
-573 572 113 0
-573 -572 -113 0
573 -572 113 0
573 572 -113 0
-574 573 114 0
-574 -573 -114 0
574 -573 114 0
574 573 -114 0
-575 574 116 0
-575 -574 -116 0
575 -574 116 0
575 574 -116 0
-576 575 117 0
-576 -575 -117 0
576 -575 117 0
576 575 -117 0
-577 576 119 0
-577 -576 -119 0
577 -576 119 0
577 576 -119 0
-578 577 121 0
-578 -577 -121 0
578 -577 121 0
578 577 -121 0
-579 578 123 0
-579 -578 -123 0
579 -578 123 0
579 578 -123 0
-580 579 130 0
-580 -579 -130 0
580 -579 130 0
580 579 -130 0
-581 580 135 0
-581 -580 -135 0
581 -580 135 0
581 580 -135 0
-582 581 136 0
-582 -581 -136 0
582 -581 136 0
582 581 -136 0
-583 582 137 0
-583 -582 -137 0
583 -582 137 0
583 582 -137 0
-584 583 140 0
-584 -583 -140 0
584 -583 140 0
584 583 -140 0
-585 584 142 0
-585 -584 -142 0
585 -584 142 0
585 584 -142 0
-586 585 147 0
-586 -585 -147 0
586 -585 147 0
586 585 -147 0
-587 586 208 0
-587 -586 -208 0
587 -586 208 0
587 586 -208 0
-588 587 209 0
-588 -587 -209 0
588 -587 209 0
588 587 -209 0
-589 588 221 0
-589 -588 -221 0
589 -588 221 0
589 588 -221 0
-590 589 222 0
-590 -589 -222 0
590 -589 222 0
590 589 -222 0
-591 590 227 0
-591 -590 -227 0
591 -590 227 0
591 590 -227 0
-592 591 228 0
-592 -591 -228 0
592 -591 228 0
592 591 -228 0
-593 592 230 0
-593 -592 -230 0
593 -592 230 0
593 592 -230 0
-594 593 234 0
-594 -593 -234 0
594 -593 234 0
594 593 -234 0
-595 594 236 0
-595 -594 -236 0
595 -594 236 0
595 594 -236 0
-596 595 240 0
-596 -595 -240 0
596 -595 240 0
596 595 -240 0
-597 596 241 0
-597 -596 -241 0
597 -596 241 0
597 596 -241 0
-598 597 242 0
-598 -597 -242 0
598 -597 242 0
598 597 -242 0
-599 598 243 0
-599 -598 -243 0
599 -598 243 0
599 598 -243 0
-600 599 244 0
-600 -599 -244 0
600 -599 244 0
600 599 -244 0
-601 600 247 0
-601 -600 -247 0
601 -600 247 0
601 600 -247 0
-602 601 248 0
-602 -601 -248 0
602 -601 248 0
602 601 -248 0
-603 602 249 0
-603 -602 -249 0
603 -602 249 0
603 602 -249 0
-604 603 250 0
-604 -603 -250 0
604 -603 250 0
604 603 -250 0
-605 604 254 0
-605 -604 -254 0
605 -604 254 0
605 604 -254 0
-606 605 258 0
-606 -605 -258 0
606 -605 258 0
606 605 -258 0
-607 606 259 0
-607 -606 -259 0
607 -606 259 0
607 606 -259 0
-608 607 260 0
-608 -607 -260 0
608 -607 260 0
608 607 -260 0
-609 608 265 0
-609 -608 -265 0
609 -608 265 0
609 608 -265 0
-610 609 268 0
-610 -609 -268 0
610 -609 268 0
610 609 -268 0
-611 610 271 0
-611 -610 -271 0
611 -610 271 0
611 610 -271 0
-612 611 274 0
-612 -611 -274 0
612 -611 274 0
612 611 -274 0
-613 612 275 0
-613 -612 -275 0
613 -612 275 0
613 612 -275 0
-614 613 277 0
-614 -613 -277 0
614 -613 277 0
614 613 -277 0
-615 614 278 0
-615 -614 -278 0
615 -614 278 0
615 614 -278 0
-616 615 279 0
-616 -615 -279 0
616 -615 279 0
616 615 -279 0
-617 616 281 0
-617 -616 -281 0
617 -616 281 0
617 616 -281 0
-618 617 282 0
-618 -617 -282 0
618 -617 282 0
618 617 -282 0
-619 618 283 0
-619 -618 -283 0
619 -618 283 0
619 618 -283 0
-620 619 284 0
-620 -619 -284 0
620 -619 284 0
620 619 -284 0
-621 620 285 0
-621 -620 -285 0
621 -620 285 0
621 620 -285 0
-622 621 287 0
-622 -621 -287 0
622 -621 287 0
622 621 -287 0
-623 622 288 0
-623 -622 -288 0
623 -622 288 0
623 622 -288 0
-623 0
-624 65 67 0
-624 -65 -67 0
624 -65 67 0
624 65 -67 0
-625 624 70 0
-625 -624 -70 0
625 -624 70 0
625 624 -70 0
-626 625 71 0
-626 -625 -71 0
626 -625 71 0
626 625 -71 0
-627 626 84 0
-627 -626 -84 0
627 -626 84 0
627 626 -84 0
-628 627 85 0
-628 -627 -85 0
628 -627 85 0
628 627 -85 0
-629 628 90 0
-629 -628 -90 0
629 -628 90 0
629 628 -90 0
-630 629 92 0
-630 -629 -92 0
630 -629 92 0
630 629 -92 0
-631 630 93 0
-631 -630 -93 0
631 -630 93 0
631 630 -93 0
-632 631 95 0
-632 -631 -95 0
632 -631 95 0
632 631 -95 0
-633 632 96 0
-633 -632 -96 0
633 -632 96 0
633 632 -96 0
-634 633 99 0
-634 -633 -99 0
634 -633 99 0
634 633 -99 0
-635 634 100 0
-635 -634 -100 0
635 -634 100 0
635 634 -100 0
-636 635 101 0
-636 -635 -101 0
636 -635 101 0
636 635 -101 0
-637 636 102 0
-637 -636 -102 0
637 -636 102 0
637 636 -102 0
-638 637 109 0
-638 -637 -109 0
638 -637 109 0
638 637 -109 0
-639 638 110 0
-639 -638 -110 0
639 -638 110 0
639 638 -110 0
-640 639 115 0
-640 -639 -115 0
640 -639 115 0
640 639 -115 0
-641 640 116 0
-641 -640 -116 0
641 -640 116 0
641 640 -116 0
-642 641 118 0
-642 -641 -118 0
642 -641 118 0
642 641 -118 0
-643 642 119 0
-643 -642 -119 0
643 -642 119 0
643 642 -119 0
-644 643 120 0
-644 -643 -120 0
644 -643 120 0
644 643 -120 0
-645 644 121 0
-645 -644 -121 0
645 -644 121 0
645 644 -121 0
-646 645 126 0
-646 -645 -126 0
646 -645 126 0
646 645 -126 0
-647 646 127 0
-647 -646 -127 0
647 -646 127 0
647 646 -127 0
-648 647 129 0
-648 -647 -129 0
648 -647 129 0
648 647 -129 0
-649 648 130 0
-649 -648 -130 0
649 -648 130 0
649 648 -130 0
-650 649 131 0
-650 -649 -131 0
650 -649 131 0
650 649 -131 0
-651 650 132 0
-651 -650 -132 0
651 -650 132 0
651 650 -132 0
-652 651 135 0
-652 -651 -135 0
652 -651 135 0
652 651 -135 0
-653 652 137 0
-653 -652 -137 0
653 -652 137 0
653 652 -137 0
-654 653 138 0
-654 -653 -138 0
654 -653 138 0
654 653 -138 0
-655 654 139 0
-655 -654 -139 0
655 -654 139 0
655 654 -139 0
-656 655 140 0
-656 -655 -140 0
656 -655 140 0
656 655 -140 0
-657 656 141 0
-657 -656 -141 0
657 -656 141 0
657 656 -141 0
-658 657 142 0
-658 -657 -142 0
658 -657 142 0
658 657 -142 0
-659 658 143 0
-659 -658 -143 0
659 -658 143 0
659 658 -143 0
-660 659 144 0
-660 -659 -144 0
660 -659 144 0
660 659 -144 0
-661 660 148 0
-661 -660 -148 0
661 -660 148 0
661 660 -148 0
-662 661 209 0
-662 -661 -209 0
662 -661 209 0
662 661 -209 0
-663 662 210 0
-663 -662 -210 0
663 -662 210 0
663 662 -210 0
-664 663 221 0
-664 -663 -221 0
664 -663 221 0
664 663 -221 0
-665 664 222 0
-665 -664 -222 0
665 -664 222 0
665 664 -222 0
-666 665 227 0
-666 -665 -227 0
666 -665 227 0
666 665 -227 0
-667 666 228 0
-667 -666 -228 0
667 -666 228 0
667 666 -228 0
-668 667 230 0
-668 -667 -230 0
668 -667 230 0
668 667 -230 0
-669 668 234 0
-669 -668 -234 0
669 -668 234 0
669 668 -234 0
-670 669 236 0
-670 -669 -236 0
670 -669 236 0
670 669 -236 0
-671 670 240 0
-671 -670 -240 0
671 -670 240 0
671 670 -240 0
-672 671 241 0
-672 -671 -241 0
672 -671 241 0
672 671 -241 0
-673 672 242 0
-673 -672 -242 0
673 -672 242 0
673 672 -242 0
-674 673 243 0
-674 -673 -243 0
674 -673 243 0
674 673 -243 0
-675 674 244 0
-675 -674 -244 0
675 -674 244 0
675 674 -244 0
-676 675 247 0
-676 -675 -247 0
676 -675 247 0
676 675 -247 0
-677 676 248 0
-677 -676 -248 0
677 -676 248 0
677 676 -248 0
-678 677 249 0
-678 -677 -249 0
678 -677 249 0
678 677 -249 0
-679 678 250 0
-679 -678 -250 0
679 -678 250 0
679 678 -250 0
-680 679 254 0
-680 -679 -254 0
680 -679 254 0
680 679 -254 0
-681 680 258 0
-681 -680 -258 0
681 -680 258 0
681 680 -258 0
-682 681 259 0
-682 -681 -259 0
682 -681 259 0
682 681 -259 0
-683 682 264 0
-683 -682 -264 0
683 -682 264 0
683 682 -264 0
-684 683 265 0
-684 -683 -265 0
684 -683 265 0
684 683 -265 0
-685 684 266 0
-685 -684 -266 0
685 -684 266 0
685 684 -266 0
-686 685 271 0
-686 -685 -271 0
686 -685 271 0
686 685 -271 0
-687 686 272 0
-687 -686 -272 0
687 -686 272 0
687 686 -272 0
-688 687 276 0
-688 -687 -276 0
688 -687 276 0
688 687 -276 0
-689 688 280 0
-689 -688 -280 0
689 -688 280 0
689 688 -280 0
-690 689 286 0
-690 -689 -286 0
690 -689 286 0
690 689 -286 0
-690 0
-691 61 63 0
-691 -61 -63 0
691 -61 63 0
691 61 -63 0
-692 691 65 0
-692 -691 -65 0
692 -691 65 0
692 691 -65 0
-693 692 66 0
-693 -692 -66 0
693 -692 66 0
693 692 -66 0
-694 693 67 0
-694 -693 -67 0
694 -693 67 0
694 693 -67 0
-695 694 69 0
-695 -694 -69 0
695 -694 69 0
695 694 -69 0
-696 695 70 0
-696 -695 -70 0
696 -695 70 0
696 695 -70 0
-697 696 84 0
-697 -696 -84 0
697 -696 84 0
697 696 -84 0
-698 697 85 0
-698 -697 -85 0
698 -697 85 0
698 697 -85 0
-699 698 90 0
-699 -698 -90 0
699 -698 90 0
699 698 -90 0
-700 699 92 0
-700 -699 -92 0
700 -699 92 0
700 699 -92 0
-701 700 93 0
-701 -700 -93 0
701 -700 93 0
701 700 -93 0
-702 701 95 0
-702 -701 -95 0
702 -701 95 0
702 701 -95 0
-703 702 96 0
-703 -702 -96 0
703 -702 96 0
703 702 -96 0
-704 703 99 0
-704 -703 -99 0
704 -703 99 0
704 703 -99 0
-705 704 100 0
-705 -704 -100 0
705 -704 100 0
705 704 -100 0
-706 705 101 0
-706 -705 -101 0
706 -705 101 0
706 705 -101 0
-707 706 102 0
-707 -706 -102 0
707 -706 102 0
707 706 -102 0
-708 707 106 0
-708 -707 -106 0
708 -707 106 0
708 707 -106 0
-709 708 109 0
-709 -708 -109 0
709 -708 109 0
709 708 -109 0
-710 709 110 0
-710 -709 -110 0
710 -709 110 0
710 709 -110 0
-711 710 111 0
-711 -710 -111 0
711 -710 111 0
711 710 -111 0
-712 711 112 0
-712 -711 -112 0
712 -711 112 0
712 711 -112 0
-713 712 120 0
-713 -712 -120 0
713 -712 120 0
713 712 -120 0
-714 713 121 0
-714 -713 -121 0
714 -713 121 0
714 713 -121 0
-715 714 123 0
-715 -714 -123 0
715 -714 123 0
715 714 -123 0
-716 715 124 0
-716 -715 -124 0
716 -715 124 0
716 715 -124 0
-717 716 125 0
-717 -716 -125 0
717 -716 125 0
717 716 -125 0
-718 717 126 0
-718 -717 -126 0
718 -717 126 0
718 717 -126 0
-719 718 127 0
-719 -718 -127 0
719 -718 127 0
719 718 -127 0
-720 719 130 0
-720 -719 -130 0
720 -719 130 0
720 719 -130 0
-721 720 132 0
-721 -720 -132 0
721 -720 132 0
721 720 -132 0
-722 721 133 0
-722 -721 -133 0
722 -721 133 0
722 721 -133 0
-723 722 135 0
-723 -722 -135 0
723 -722 135 0
723 722 -135 0
-724 723 138 0
-724 -723 -138 0
724 -723 138 0
724 723 -138 0
-725 724 140 0
-725 -724 -140 0
725 -724 140 0
725 724 -140 0
-726 725 141 0
-726 -725 -141 0
726 -725 141 0
726 725 -141 0
-727 726 142 0
-727 -726 -142 0
727 -726 142 0
727 726 -142 0
-728 727 143 0
-728 -727 -143 0
728 -727 143 0
728 727 -143 0
-729 728 144 0
-729 -728 -144 0
729 -728 144 0
729 728 -144 0
-730 729 149 0
-730 -729 -149 0
730 -729 149 0
730 729 -149 0
-731 730 207 0
-731 -730 -207 0
731 -730 207 0
731 730 -207 0
-732 731 209 0
-732 -731 -209 0
732 -731 209 0
732 731 -209 0
-733 732 210 0
-733 -732 -210 0
733 -732 210 0
733 732 -210 0
-734 733 221 0
-734 -733 -221 0
734 -733 221 0
734 733 -221 0
-735 734 222 0
-735 -734 -222 0
735 -734 222 0
735 734 -222 0
-736 735 227 0
-736 -735 -227 0
736 -735 227 0
736 735 -227 0
-737 736 228 0
-737 -736 -228 0
737 -736 228 0
737 736 -228 0
-738 737 230 0
-738 -737 -230 0
738 -737 230 0
738 737 -230 0
-739 738 234 0
-739 -738 -234 0
739 -738 234 0
739 738 -234 0
-740 739 236 0
-740 -739 -236 0
740 -739 236 0
740 739 -236 0
-741 740 240 0
-741 -740 -240 0
741 -740 240 0
741 740 -240 0
-742 741 241 0
-742 -741 -241 0
742 -741 241 0
742 741 -241 0
-743 742 242 0
-743 -742 -242 0
743 -742 242 0
743 742 -242 0
-744 743 243 0
-744 -743 -243 0
744 -743 243 0
744 743 -243 0
-745 744 244 0
-745 -744 -244 0
745 -744 244 0
745 744 -244 0
-746 745 247 0
-746 -745 -247 0
746 -745 247 0
746 745 -247 0
-747 746 248 0
-747 -746 -248 0
747 -746 248 0
747 746 -248 0
-748 747 249 0
-748 -747 -249 0
748 -747 249 0
748 747 -249 0
-749 748 250 0
-749 -748 -250 0
749 -748 250 0
749 748 -250 0
-750 749 254 0
-750 -749 -254 0
750 -749 254 0
750 749 -254 0
-751 750 258 0
-751 -750 -258 0
751 -750 258 0
751 750 -258 0
-752 751 259 0
-752 -751 -259 0
752 -751 259 0
752 751 -259 0
-753 752 263 0
-753 -752 -263 0
753 -752 263 0
753 752 -263 0
-754 753 264 0
-754 -753 -264 0
754 -753 264 0
754 753 -264 0
-755 754 266 0
-755 -754 -266 0
755 -754 266 0
755 754 -266 0
-756 755 271 0
-756 -755 -271 0
756 -755 271 0
756 755 -271 0
-757 756 272 0
-757 -756 -272 0
757 -756 272 0
757 756 -272 0
-758 757 280 0
-758 -757 -280 0
758 -757 280 0
758 757 -280 0
-759 758 286 0
-759 -758 -286 0
759 -758 286 0
759 758 -286 0
-759 0
-760 62 63 0
-760 -62 -63 0
760 -62 63 0
760 62 -63 0
-761 760 64 0
-761 -760 -64 0
761 -760 64 0
761 760 -64 0
-762 761 65 0
-762 -761 -65 0
762 -761 65 0
762 761 -65 0
-763 762 66 0
-763 -762 -66 0
763 -762 66 0
763 762 -66 0
-764 763 67 0
-764 -763 -67 0
764 -763 67 0
764 763 -67 0
-765 764 69 0
-765 -764 -69 0
765 -764 69 0
765 764 -69 0
-766 765 72 0
-766 -765 -72 0
766 -765 72 0
766 765 -72 0
-767 766 84 0
-767 -766 -84 0
767 -766 84 0
767 766 -84 0
-768 767 85 0
-768 -767 -85 0
768 -767 85 0
768 767 -85 0
-769 768 90 0
-769 -768 -90 0
769 -768 90 0
769 768 -90 0
-770 769 92 0
-770 -769 -92 0
770 -769 92 0
770 769 -92 0
-771 770 93 0
-771 -770 -93 0
771 -770 93 0
771 770 -93 0
-772 771 95 0
-772 -771 -95 0
772 -771 95 0
772 771 -95 0
-773 772 96 0
-773 -772 -96 0
773 -772 96 0
773 772 -96 0
-774 773 99 0
-774 -773 -99 0
774 -773 99 0
774 773 -99 0
-775 774 100 0
-775 -774 -100 0
775 -774 100 0
775 774 -100 0
-776 775 101 0
-776 -775 -101 0
776 -775 101 0
776 775 -101 0
-777 776 102 0
-777 -776 -102 0
777 -776 102 0
777 776 -102 0
-778 777 106 0
-778 -777 -106 0
778 -777 106 0
778 777 -106 0
-779 778 107 0
-779 -778 -107 0
779 -778 107 0
779 778 -107 0
-780 779 109 0
-780 -779 -109 0
780 -779 109 0
780 779 -109 0
-781 780 110 0
-781 -780 -110 0
781 -780 110 0
781 780 -110 0
-782 781 111 0
-782 -781 -111 0
782 -781 111 0
782 781 -111 0
-783 782 113 0
-783 -782 -113 0
783 -782 113 0
783 782 -113 0
-784 783 116 0
-784 -783 -116 0
784 -783 116 0
784 783 -116 0
-785 784 117 0
-785 -784 -117 0
785 -784 117 0
785 784 -117 0
-786 785 119 0
-786 -785 -119 0
786 -785 119 0
786 785 -119 0
-787 786 121 0
-787 -786 -121 0
787 -786 121 0
787 786 -121 0
-788 787 123 0
-788 -787 -123 0
788 -787 123 0
788 787 -123 0
-789 788 127 0
-789 -788 -127 0
789 -788 127 0
789 788 -127 0
-790 789 133 0
-790 -789 -133 0
790 -789 133 0
790 789 -133 0
-791 790 134 0
-791 -790 -134 0
791 -790 134 0
791 790 -134 0
-792 791 135 0
-792 -791 -135 0
792 -791 135 0
792 791 -135 0
-793 792 141 0
-793 -792 -141 0
793 -792 141 0
793 792 -141 0
-794 793 142 0
-794 -793 -142 0
794 -793 142 0
794 793 -142 0
-795 794 143 0
-795 -794 -143 0
795 -794 143 0
795 794 -143 0
-796 795 144 0
-796 -795 -144 0
796 -795 144 0
796 795 -144 0
-797 796 150 0
-797 -796 -150 0
797 -796 150 0
797 796 -150 0
-798 797 207 0
-798 -797 -207 0
798 -797 207 0
798 797 -207 0
-799 798 208 0
-799 -798 -208 0
799 -798 208 0
799 798 -208 0
-800 799 209 0
-800 -799 -209 0
800 -799 209 0
800 799 -209 0
-801 800 210 0
-801 -800 -210 0
801 -800 210 0
801 800 -210 0
-802 801 221 0
-802 -801 -221 0
802 -801 221 0
802 801 -221 0
-803 802 222 0
-803 -802 -222 0
803 -802 222 0
803 802 -222 0
-804 803 227 0
-804 -803 -227 0
804 -803 227 0
804 803 -227 0
-805 804 228 0
-805 -804 -228 0
805 -804 228 0
805 804 -228 0
-806 805 230 0
-806 -805 -230 0
806 -805 230 0
806 805 -230 0
-807 806 234 0
-807 -806 -234 0
807 -806 234 0
807 806 -234 0
-808 807 236 0
-808 -807 -236 0
808 -807 236 0
808 807 -236 0
-809 808 240 0
-809 -808 -240 0
809 -808 240 0
809 808 -240 0
-810 809 241 0
-810 -809 -241 0
810 -809 241 0
810 809 -241 0
-811 810 242 0
-811 -810 -242 0
811 -810 242 0
811 810 -242 0
-812 811 243 0
-812 -811 -243 0
812 -811 243 0
812 811 -243 0
-813 812 244 0
-813 -812 -244 0
813 -812 244 0
813 812 -244 0
-814 813 247 0
-814 -813 -247 0
814 -813 247 0
814 813 -247 0
-815 814 248 0
-815 -814 -248 0
815 -814 248 0
815 814 -248 0
-816 815 249 0
-816 -815 -249 0
816 -815 249 0
816 815 -249 0
-817 816 250 0
-817 -816 -250 0
817 -816 250 0
817 816 -250 0
-818 817 254 0
-818 -817 -254 0
818 -817 254 0
818 817 -254 0
-819 818 258 0
-819 -818 -258 0
819 -818 258 0
819 818 -258 0
-820 819 259 0
-820 -819 -259 0
820 -819 259 0
820 819 -259 0
-821 820 263 0
-821 -820 -263 0
821 -820 263 0
821 820 -263 0
-822 821 272 0
-822 -821 -272 0
822 -821 272 0
822 821 -272 0
-823 822 280 0
-823 -822 -280 0
823 -822 280 0
823 822 -280 0
-824 823 286 0
-824 -823 -286 0
824 -823 286 0
824 823 -286 0
-824 0
-825 62 64 0
-825 -62 -64 0
825 -62 64 0
825 62 -64 0
-826 825 65 0
-826 -825 -65 0
826 -825 65 0
826 825 -65 0
-827 826 67 0
-827 -826 -67 0
827 -826 67 0
827 826 -67 0
-828 827 69 0
-828 -827 -69 0
828 -827 69 0
828 827 -69 0
-829 828 72 0
-829 -828 -72 0
829 -828 72 0
829 828 -72 0
-830 829 83 0
-830 -829 -83 0
830 -829 83 0
830 829 -83 0
-831 830 84 0
-831 -830 -84 0
831 -830 84 0
831 830 -84 0
-832 831 85 0
-832 -831 -85 0
832 -831 85 0
832 831 -85 0
-833 832 86 0
-833 -832 -86 0
833 -832 86 0
833 832 -86 0
-834 833 87 0
-834 -833 -87 0
834 -833 87 0
834 833 -87 0
-835 834 88 0
-835 -834 -88 0
835 -834 88 0
835 834 -88 0
-836 835 89 0
-836 -835 -89 0
836 -835 89 0
836 835 -89 0
-837 836 90 0
-837 -836 -90 0
837 -836 90 0
837 836 -90 0
-838 837 93 0
-838 -837 -93 0
838 -837 93 0
838 837 -93 0
-839 838 95 0
-839 -838 -95 0
839 -838 95 0
839 838 -95 0
-840 839 96 0
-840 -839 -96 0
840 -839 96 0
840 839 -96 0
-841 840 99 0
-841 -840 -99 0
841 -840 99 0
841 840 -99 0
-842 841 101 0
-842 -841 -101 0
842 -841 101 0
842 841 -101 0
-843 842 105 0
-843 -842 -105 0
843 -842 105 0
843 842 -105 0
-844 843 106 0
-844 -843 -106 0
844 -843 106 0
844 843 -106 0
-845 844 107 0
-845 -844 -107 0
845 -844 107 0
845 844 -107 0
-846 845 109 0
-846 -845 -109 0
846 -845 109 0
846 845 -109 0
-847 846 110 0
-847 -846 -110 0
847 -846 110 0
847 846 -110 0
-848 847 112 0
-848 -847 -112 0
848 -847 112 0
848 847 -112 0
-849 848 113 0
-849 -848 -113 0
849 -848 113 0
849 848 -113 0
-850 849 115 0
-850 -849 -115 0
850 -849 115 0
850 849 -115 0
-851 850 119 0
-851 -850 -119 0
851 -850 119 0
851 850 -119 0
-852 851 121 0
-852 -851 -121 0
852 -851 121 0
852 851 -121 0
-853 852 122 0
-853 -852 -122 0
853 -852 122 0
853 852 -122 0
-854 853 123 0
-854 -853 -123 0
854 -853 123 0
854 853 -123 0
-855 854 124 0
-855 -854 -124 0
855 -854 124 0
855 854 -124 0
-856 855 125 0
-856 -855 -125 0
856 -855 125 0
856 855 -125 0
-857 856 126 0
-857 -856 -126 0
857 -856 126 0
857 856 -126 0
-858 857 127 0
-858 -857 -127 0
858 -857 127 0
858 857 -127 0
-859 858 130 0
-859 -858 -130 0
859 -858 130 0
859 858 -130 0
-860 859 132 0
-860 -859 -132 0
860 -859 132 0
860 859 -132 0
-861 860 133 0
-861 -860 -133 0
861 -860 133 0
861 860 -133 0
-862 861 136 0
-862 -861 -136 0
862 -861 136 0
862 861 -136 0
-863 862 138 0
-863 -862 -138 0
863 -862 138 0
863 862 -138 0
-864 863 139 0
-864 -863 -139 0
864 -863 139 0
864 863 -139 0
-865 864 142 0
-865 -864 -142 0
865 -864 142 0
865 864 -142 0
-866 865 143 0
-866 -865 -143 0
866 -865 143 0
866 865 -143 0
-867 866 144 0
-867 -866 -144 0
867 -866 144 0
867 866 -144 0
-868 867 151 0
-868 -867 -151 0
868 -867 151 0
868 867 -151 0
-869 868 213 0
-869 -868 -213 0
869 -868 213 0
869 868 -213 0
-870 869 214 0
-870 -869 -214 0
870 -869 214 0
870 869 -214 0
-871 870 216 0
-871 -870 -216 0
871 -870 216 0
871 870 -216 0
-872 871 222 0
-872 -871 -222 0
872 -871 222 0
872 871 -222 0
-873 872 226 0
-873 -872 -226 0
873 -872 226 0
873 872 -226 0
-874 873 227 0
-874 -873 -227 0
874 -873 227 0
874 873 -227 0
-875 874 229 0
-875 -874 -229 0
875 -874 229 0
875 874 -229 0
-876 875 230 0
-876 -875 -230 0
876 -875 230 0
876 875 -230 0
-877 876 235 0
-877 -876 -235 0
877 -876 235 0
877 876 -235 0
-878 877 239 0
-878 -877 -239 0
878 -877 239 0
878 877 -239 0
-879 878 242 0
-879 -878 -242 0
879 -878 242 0
879 878 -242 0
-880 879 244 0
-880 -879 -244 0
880 -879 244 0
880 879 -244 0
-881 880 247 0
-881 -880 -247 0
881 -880 247 0
881 880 -247 0
-882 881 248 0
-882 -881 -248 0
882 -881 248 0
882 881 -248 0
-883 882 249 0
-883 -882 -249 0
883 -882 249 0
883 882 -249 0
-884 883 252 0
-884 -883 -252 0
884 -883 252 0
884 883 -252 0
-885 884 255 0
-885 -884 -255 0
885 -884 255 0
885 884 -255 0
-886 885 256 0
-886 -885 -256 0
886 -885 256 0
886 885 -256 0
-887 886 257 0
-887 -886 -257 0
887 -886 257 0
887 886 -257 0
-888 887 258 0
-888 -887 -258 0
888 -887 258 0
888 887 -258 0
-889 888 259 0
-889 -888 -259 0
889 -888 259 0
889 888 -259 0
-890 889 263 0
-890 -889 -263 0
890 -889 263 0
890 889 -263 0
-891 890 268 0
-891 -890 -268 0
891 -890 268 0
891 890 -268 0
-892 891 269 0
-892 -891 -269 0
892 -891 269 0
892 891 -269 0
-893 892 270 0
-893 -892 -270 0
893 -892 270 0
893 892 -270 0
-894 893 273 0
-894 -893 -273 0
894 -893 273 0
894 893 -273 0
-895 894 274 0
-895 -894 -274 0
895 -894 274 0
895 894 -274 0
-896 895 276 0
-896 -895 -276 0
896 -895 276 0
896 895 -276 0
-897 896 277 0
-897 -896 -277 0
897 -896 277 0
897 896 -277 0
-898 897 278 0
-898 -897 -278 0
898 -897 278 0
898 897 -278 0
-899 898 281 0
-899 -898 -281 0
899 -898 281 0
899 898 -281 0
-900 899 282 0
-900 -899 -282 0
900 -899 282 0
900 899 -282 0
-901 900 283 0
-901 -900 -283 0
901 -900 283 0
901 900 -283 0
-902 901 284 0
-902 -901 -284 0
902 -901 284 0
902 901 -284 0
-903 902 286 0
-903 -902 -286 0
903 -902 286 0
903 902 -286 0
-904 903 287 0
-904 -903 -287 0
904 -903 287 0
904 903 -287 0
-905 904 288 0
-905 -904 -288 0
905 -904 288 0
905 904 -288 0
-905 0
-906 61 62 0
-906 -61 -62 0
906 -61 62 0
906 61 -62 0
-907 906 64 0
-907 -906 -64 0
907 -906 64 0
907 906 -64 0
-908 907 67 0
-908 -907 -67 0
908 -907 67 0
908 907 -67 0
-909 908 72 0
-909 -908 -72 0
909 -908 72 0
909 908 -72 0
-910 909 84 0
-910 -909 -84 0
910 -909 84 0
910 909 -84 0
-911 910 85 0
-911 -910 -85 0
911 -910 85 0
911 910 -85 0
-912 911 86 0
-912 -911 -86 0
912 -911 86 0
912 911 -86 0
-913 912 87 0
-913 -912 -87 0
913 -912 87 0
913 912 -87 0
-914 913 90 0
-914 -913 -90 0
914 -913 90 0
914 913 -90 0
-915 914 94 0
-915 -914 -94 0
915 -914 94 0
915 914 -94 0
-916 915 95 0
-916 -915 -95 0
916 -915 95 0
916 915 -95 0
-917 916 98 0
-917 -916 -98 0
917 -916 98 0
917 916 -98 0
-918 917 101 0
-918 -917 -101 0
918 -917 101 0
918 917 -101 0
-919 918 102 0
-919 -918 -102 0
919 -918 102 0
919 918 -102 0
-920 919 104 0
-920 -919 -104 0
920 -919 104 0
920 919 -104 0
-921 920 105 0
-921 -920 -105 0
921 -920 105 0
921 920 -105 0
-922 921 107 0
-922 -921 -107 0
922 -921 107 0
922 921 -107 0
-923 922 110 0
-923 -922 -110 0
923 -922 110 0
923 922 -110 0
-924 923 113 0
-924 -923 -113 0
924 -923 113 0
924 923 -113 0
-925 924 115 0
-925 -924 -115 0
925 -924 115 0
925 924 -115 0
-926 925 116 0
-926 -925 -116 0
926 -925 116 0
926 925 -116 0
-927 926 117 0
-927 -926 -117 0
927 -926 117 0
927 926 -117 0
-928 927 123 0
-928 -927 -123 0
928 -927 123 0
928 927 -123 0
-929 928 124 0
-929 -928 -124 0
929 -928 124 0
929 928 -124 0
-930 929 125 0
-930 -929 -125 0
930 -929 125 0
930 929 -125 0
-931 930 126 0
-931 -930 -126 0
931 -930 126 0
931 930 -126 0
-932 931 129 0
-932 -931 -129 0
932 -931 129 0
932 931 -129 0
-933 932 130 0
-933 -932 -130 0
933 -932 130 0
933 932 -130 0
-934 933 132 0
-934 -933 -132 0
934 -933 132 0
934 933 -132 0
-935 934 133 0
-935 -934 -133 0
935 -934 133 0
935 934 -133 0
-936 935 135 0
-936 -935 -135 0
936 -935 135 0
936 935 -135 0
-937 936 136 0
-937 -936 -136 0
937 -936 136 0
937 936 -136 0
-938 937 138 0
-938 -937 -138 0
938 -937 138 0
938 937 -138 0
-939 938 139 0
-939 -938 -139 0
939 -938 139 0
939 938 -139 0
-940 939 142 0
-940 -939 -142 0
940 -939 142 0
940 939 -142 0
-941 940 143 0
-941 -940 -143 0
941 -940 143 0
941 940 -143 0
-942 941 144 0
-942 -941 -144 0
942 -941 144 0
942 941 -144 0
-943 942 152 0
-943 -942 -152 0
943 -942 152 0
943 942 -152 0
-944 943 213 0
-944 -943 -213 0
944 -943 213 0
944 943 -213 0
-945 944 214 0
-945 -944 -214 0
945 -944 214 0
945 944 -214 0
-946 945 222 0
-946 -945 -222 0
946 -945 222 0
946 945 -222 0
-947 946 226 0
-947 -946 -226 0
947 -946 226 0
947 946 -226 0
-948 947 227 0
-948 -947 -227 0
948 -947 227 0
948 947 -227 0
-949 948 229 0
-949 -948 -229 0
949 -948 229 0
949 948 -229 0
-950 949 230 0
-950 -949 -230 0
950 -949 230 0
950 949 -230 0
-951 950 235 0
-951 -950 -235 0
951 -950 235 0
951 950 -235 0
-952 951 239 0
-952 -951 -239 0
952 -951 239 0
952 951 -239 0
-953 952 242 0
-953 -952 -242 0
953 -952 242 0
953 952 -242 0
-954 953 244 0
-954 -953 -244 0
954 -953 244 0
954 953 -244 0
-955 954 247 0
-955 -954 -247 0
955 -954 247 0
955 954 -247 0
-956 955 248 0
-956 -955 -248 0
956 -955 248 0
956 955 -248 0
-957 956 249 0
-957 -956 -249 0
957 -956 249 0
957 956 -249 0
-958 957 252 0
-958 -957 -252 0
958 -957 252 0
958 957 -252 0
-959 958 255 0
-959 -958 -255 0
959 -958 255 0
959 958 -255 0
-960 959 256 0
-960 -959 -256 0
960 -959 256 0
960 959 -256 0
-961 960 257 0
-961 -960 -257 0
961 -960 257 0
961 960 -257 0
-962 961 258 0
-962 -961 -258 0
962 -961 258 0
962 961 -258 0
-963 962 259 0
-963 -962 -259 0
963 -962 259 0
963 962 -259 0
-964 963 263 0
-964 -963 -263 0
964 -963 263 0
964 963 -263 0
-965 964 266 0
-965 -964 -266 0
965 -964 266 0
965 964 -266 0
-966 965 268 0
-966 -965 -268 0
966 -965 268 0
966 965 -268 0
-967 966 269 0
-967 -966 -269 0
967 -966 269 0
967 966 -269 0
-968 967 270 0
-968 -967 -270 0
968 -967 270 0
968 967 -270 0
-969 968 273 0
-969 -968 -273 0
969 -968 273 0
969 968 -273 0
-970 969 276 0
-970 -969 -276 0
970 -969 276 0
970 969 -276 0
-971 970 277 0
-971 -970 -277 0
971 -970 277 0
971 970 -277 0
-972 971 278 0
-972 -971 -278 0
972 -971 278 0
972 971 -278 0
-973 972 279 0
-973 -972 -279 0
973 -972 279 0
973 972 -279 0
-974 973 281 0
-974 -973 -281 0
974 -973 281 0
974 973 -281 0
-975 974 282 0
-975 -974 -282 0
975 -974 282 0
975 974 -282 0
-976 975 283 0
-976 -975 -283 0
976 -975 283 0
976 975 -283 0
-977 976 284 0
-977 -976 -284 0
977 -976 284 0
977 976 -284 0
-978 977 286 0
-978 -977 -286 0
978 -977 286 0
978 977 -286 0
-979 978 287 0
-979 -978 -287 0
979 -978 287 0
979 978 -287 0
-980 979 288 0
-980 -979 -288 0
980 -979 288 0
980 979 -288 0
-980 0
-981 62 63 0
-981 -62 -63 0
981 -62 63 0
981 62 -63 0
-982 981 65 0
-982 -981 -65 0
982 -981 65 0
982 981 -65 0
-983 982 67 0
-983 -982 -67 0
983 -982 67 0
983 982 -67 0
-984 983 68 0
-984 -983 -68 0
984 -983 68 0
984 983 -68 0
-985 984 84 0
-985 -984 -84 0
985 -984 84 0
985 984 -84 0
-986 985 87 0
-986 -985 -87 0
986 -985 87 0
986 985 -87 0
-987 986 90 0
-987 -986 -90 0
987 -986 90 0
987 986 -90 0
-988 987 92 0
-988 -987 -92 0
988 -987 92 0
988 987 -92 0
-989 988 93 0
-989 -988 -93 0
989 -988 93 0
989 988 -93 0
-990 989 98 0
-990 -989 -98 0
990 -989 98 0
990 989 -98 0
-991 990 101 0
-991 -990 -101 0
991 -990 101 0
991 990 -101 0
-992 991 102 0
-992 -991 -102 0
992 -991 102 0
992 991 -102 0
-993 992 104 0
-993 -992 -104 0
993 -992 104 0
993 992 -104 0
-994 993 106 0
-994 -993 -106 0
994 -993 106 0
994 993 -106 0
-995 994 108 0
-995 -994 -108 0
995 -994 108 0
995 994 -108 0
-996 995 110 0
-996 -995 -110 0
996 -995 110 0
996 995 -110 0
-997 996 113 0
-997 -996 -113 0
997 -996 113 0
997 996 -113 0
-998 997 115 0
-998 -997 -115 0
998 -997 115 0
998 997 -115 0
-999 998 118 0
-999 -998 -118 0
999 -998 118 0
999 998 -118 0
-1000 999 119 0
-1000 -999 -119 0
1000 -999 119 0
1000 999 -119 0
-1001 1000 123 0
-1001 -1000 -123 0
1001 -1000 123 0
1001 1000 -123 0
-1002 1001 126 0
-1002 -1001 -126 0
1002 -1001 126 0
1002 1001 -126 0
-1003 1002 127 0
-1003 -1002 -127 0
1003 -1002 127 0
1003 1002 -127 0
-1004 1003 130 0
-1004 -1003 -130 0
1004 -1003 130 0
1004 1003 -130 0
-1005 1004 131 0
-1005 -1004 -131 0
1005 -1004 131 0
1005 1004 -131 0
-1006 1005 134 0
-1006 -1005 -134 0
1006 -1005 134 0
1006 1005 -134 0
-1007 1006 136 0
-1007 -1006 -136 0
1007 -1006 136 0
1007 1006 -136 0
-1008 1007 137 0
-1008 -1007 -137 0
1008 -1007 137 0
1008 1007 -137 0
-1009 1008 138 0
-1009 -1008 -138 0
1009 -1008 138 0
1009 1008 -138 0
-1010 1009 139 0
-1010 -1009 -139 0
1010 -1009 139 0
1010 1009 -139 0
-1011 1010 140 0
-1011 -1010 -140 0
1011 -1010 140 0
1011 1010 -140 0
-1012 1011 153 0
-1012 -1011 -153 0
1012 -1011 153 0
1012 1011 -153 0
-1013 1012 214 0
-1013 -1012 -214 0
1013 -1012 214 0
1013 1012 -214 0
-1014 1013 215 0
-1014 -1013 -215 0
1014 -1013 215 0
1014 1013 -215 0
-1015 1014 221 0
-1015 -1014 -221 0
1015 -1014 221 0
1015 1014 -221 0
-1016 1015 225 0
-1016 -1015 -225 0
1016 -1015 225 0
1016 1015 -225 0
-1017 1016 226 0
-1017 -1016 -226 0
1017 -1016 226 0
1017 1016 -226 0
-1018 1017 229 0
-1018 -1017 -229 0
1018 -1017 229 0
1018 1017 -229 0
-1019 1018 234 0
-1019 -1018 -234 0
1019 -1018 234 0
1019 1018 -234 0
-1020 1019 238 0
-1020 -1019 -238 0
1020 -1019 238 0
1020 1019 -238 0
-1021 1020 240 0
-1021 -1020 -240 0
1021 -1020 240 0
1021 1020 -240 0
-1022 1021 241 0
-1022 -1021 -241 0
1022 -1021 241 0
1022 1021 -241 0
-1023 1022 243 0
-1023 -1022 -243 0
1023 -1022 243 0
1023 1022 -243 0
-1024 1023 247 0
-1024 -1023 -247 0
1024 -1023 247 0
1024 1023 -247 0
-1025 1024 248 0
-1025 -1024 -248 0
1025 -1024 248 0
1025 1024 -248 0
-1026 1025 251 0
-1026 -1025 -251 0
1026 -1025 251 0
1026 1025 -251 0
-1027 1026 252 0
-1027 -1026 -252 0
1027 -1026 252 0
1027 1026 -252 0
-1028 1027 254 0
-1028 -1027 -254 0
1028 -1027 254 0
1028 1027 -254 0
-1029 1028 255 0
-1029 -1028 -255 0
1029 -1028 255 0
1029 1028 -255 0
-1030 1029 256 0
-1030 -1029 -256 0
1030 -1029 256 0
1030 1029 -256 0
-1031 1030 257 0
-1031 -1030 -257 0
1031 -1030 257 0
1031 1030 -257 0
-1032 1031 262 0
-1032 -1031 -262 0
1032 -1031 262 0
1032 1031 -262 0
-1033 1032 264 0
-1033 -1032 -264 0
1033 -1032 264 0
1033 1032 -264 0
-1034 1033 267 0
-1034 -1033 -267 0
1034 -1033 267 0
1034 1033 -267 0
-1035 1034 270 0
-1035 -1034 -270 0
1035 -1034 270 0
1035 1034 -270 0
-1036 1035 271 0
-1036 -1035 -271 0
1036 -1035 271 0
1036 1035 -271 0
-1037 1036 273 0
-1037 -1036 -273 0
1037 -1036 273 0
1037 1036 -273 0
-1038 1037 275 0
-1038 -1037 -275 0
1038 -1037 275 0
1038 1037 -275 0
-1039 1038 276 0
-1039 -1038 -276 0
1039 -1038 276 0
1039 1038 -276 0
-1040 1039 280 0
-1040 -1039 -280 0
1040 -1039 280 0
1040 1039 -280 0
-1041 1040 283 0
-1041 -1040 -283 0
1041 -1040 283 0
1041 1040 -283 0
-1042 1041 285 0
-1042 -1041 -285 0
1042 -1041 285 0
1042 1041 -285 0
-1043 1042 286 0
-1043 -1042 -286 0
1043 -1042 286 0
1043 1042 -286 0
-1044 1043 287 0
-1044 -1043 -287 0
1044 -1043 287 0
1044 1043 -287 0
-1045 1044 288 0
-1045 -1044 -288 0
1045 -1044 288 0
1045 1044 -288 0
-1045 0
-1046 63 64 0
-1046 -63 -64 0
1046 -63 64 0
1046 63 -64 0
-1047 1046 66 0
-1047 -1046 -66 0
1047 -1046 66 0
1047 1046 -66 0
-1048 1047 68 0
-1048 -1047 -68 0
1048 -1047 68 0
1048 1047 -68 0
-1049 1048 69 0
-1049 -1048 -69 0
1049 -1048 69 0
1049 1048 -69 0
-1050 1049 83 0
-1050 -1049 -83 0
1050 -1049 83 0
1050 1049 -83 0
-1051 1050 84 0
-1051 -1050 -84 0
1051 -1050 84 0
1051 1050 -84 0
-1052 1051 85 0
-1052 -1051 -85 0
1052 -1051 85 0
1052 1051 -85 0
-1053 1052 89 0
-1053 -1052 -89 0
1053 -1052 89 0
1053 1052 -89 0
-1054 1053 90 0
-1054 -1053 -90 0
1054 -1053 90 0
1054 1053 -90 0
-1055 1054 91 0
-1055 -1054 -91 0
1055 -1054 91 0
1055 1054 -91 0
-1056 1055 92 0
-1056 -1055 -92 0
1056 -1055 92 0
1056 1055 -92 0
-1057 1056 95 0
-1057 -1056 -95 0
1057 -1056 95 0
1057 1056 -95 0
-1058 1057 96 0
-1058 -1057 -96 0
1058 -1057 96 0
1058 1057 -96 0
-1059 1058 97 0
-1059 -1058 -97 0
1059 -1058 97 0
1059 1058 -97 0
-1060 1059 98 0
-1060 -1059 -98 0
1060 -1059 98 0
1060 1059 -98 0
-1061 1060 100 0
-1061 -1060 -100 0
1061 -1060 100 0
1061 1060 -100 0
-1062 1061 102 0
-1062 -1061 -102 0
1062 -1061 102 0
1062 1061 -102 0
-1063 1062 103 0
-1063 -1062 -103 0
1063 -1062 103 0
1063 1062 -103 0
-1064 1063 105 0
-1064 -1063 -105 0
1064 -1063 105 0
1064 1063 -105 0
-1065 1064 106 0
-1065 -1064 -106 0
1065 -1064 106 0
1065 1064 -106 0
-1066 1065 108 0
-1066 -1065 -108 0
1066 -1065 108 0
1066 1065 -108 0
-1067 1066 111 0
-1067 -1066 -111 0
1067 -1066 111 0
1067 1066 -111 0
-1068 1067 114 0
-1068 -1067 -114 0
1068 -1067 114 0
1068 1067 -114 0
-1069 1068 115 0
-1069 -1068 -115 0
1069 -1068 115 0
1069 1068 -115 0
-1070 1069 116 0
-1070 -1069 -116 0
1070 -1069 116 0
1070 1069 -116 0
-1071 1070 121 0
-1071 -1070 -121 0
1071 -1070 121 0
1071 1070 -121 0
-1072 1071 125 0
-1072 -1071 -125 0
1072 -1071 125 0
1072 1071 -125 0
-1073 1072 126 0
-1073 -1072 -126 0
1073 -1072 126 0
1073 1072 -126 0
-1074 1073 127 0
-1074 -1073 -127 0
1074 -1073 127 0
1074 1073 -127 0
-1075 1074 129 0
-1075 -1074 -129 0
1075 -1074 129 0
1075 1074 -129 0
-1076 1075 130 0
-1076 -1075 -130 0
1076 -1075 130 0
1076 1075 -130 0
-1077 1076 133 0
-1077 -1076 -133 0
1077 -1076 133 0
1077 1076 -133 0
-1078 1077 134 0
-1078 -1077 -134 0
1078 -1077 134 0
1078 1077 -134 0
-1079 1078 136 0
-1079 -1078 -136 0
1079 -1078 136 0
1079 1078 -136 0
-1080 1079 137 0
-1080 -1079 -137 0
1080 -1079 137 0
1080 1079 -137 0
-1081 1080 138 0
-1081 -1080 -138 0
1081 -1080 138 0
1081 1080 -138 0
-1082 1081 140 0
-1082 -1081 -140 0
1082 -1081 140 0
1082 1081 -140 0
-1083 1082 141 0
-1083 -1082 -141 0
1083 -1082 141 0
1083 1082 -141 0
-1084 1083 142 0
-1084 -1083 -142 0
1084 -1083 142 0
1084 1083 -142 0
-1085 1084 143 0
-1085 -1084 -143 0
1085 -1084 143 0
1085 1084 -143 0
-1086 1085 144 0
-1086 -1085 -144 0
1086 -1085 144 0
1086 1085 -144 0
-1087 1086 154 0
-1087 -1086 -154 0
1087 -1086 154 0
1087 1086 -154 0
-1088 1087 215 0
-1088 -1087 -215 0
1088 -1087 215 0
1088 1087 -215 0
-1089 1088 216 0
-1089 -1088 -216 0
1089 -1088 216 0
1089 1088 -216 0
-1090 1089 222 0
-1090 -1089 -222 0
1090 -1089 222 0
1090 1089 -222 0
-1091 1090 226 0
-1091 -1090 -226 0
1091 -1090 226 0
1091 1090 -226 0
-1092 1091 227 0
-1092 -1091 -227 0
1092 -1091 227 0
1092 1091 -227 0
-1093 1092 229 0
-1093 -1092 -229 0
1093 -1092 229 0
1093 1092 -229 0
-1094 1093 230 0
-1094 -1093 -230 0
1094 -1093 230 0
1094 1093 -230 0
-1095 1094 235 0
-1095 -1094 -235 0
1095 -1094 235 0
1095 1094 -235 0
-1096 1095 239 0
-1096 -1095 -239 0
1096 -1095 239 0
1096 1095 -239 0
-1097 1096 242 0
-1097 -1096 -242 0
1097 -1096 242 0
1097 1096 -242 0
-1098 1097 244 0
-1098 -1097 -244 0
1098 -1097 244 0
1098 1097 -244 0
-1099 1098 247 0
-1099 -1098 -247 0
1099 -1098 247 0
1099 1098 -247 0
-1100 1099 248 0
-1100 -1099 -248 0
1100 -1099 248 0
1100 1099 -248 0
-1101 1100 249 0
-1101 -1100 -249 0
1101 -1100 249 0
1101 1100 -249 0
-1102 1101 252 0
-1102 -1101 -252 0
1102 -1101 252 0
1102 1101 -252 0
-1103 1102 255 0
-1103 -1102 -255 0
1103 -1102 255 0
1103 1102 -255 0
-1104 1103 256 0
-1104 -1103 -256 0
1104 -1103 256 0
1104 1103 -256 0
-1105 1104 257 0
-1105 -1104 -257 0
1105 -1104 257 0
1105 1104 -257 0
-1106 1105 258 0
-1106 -1105 -258 0
1106 -1105 258 0
1106 1105 -258 0
-1107 1106 259 0
-1107 -1106 -259 0
1107 -1106 259 0
1107 1106 -259 0
-1108 1107 263 0
-1108 -1107 -263 0
1108 -1107 263 0
1108 1107 -263 0
-1109 1108 265 0
-1109 -1108 -265 0
1109 -1108 265 0
1109 1108 -265 0
-1110 1109 268 0
-1110 -1109 -268 0
1110 -1109 268 0
1110 1109 -268 0
-1111 1110 271 0
-1111 -1110 -271 0
1111 -1110 271 0
1111 1110 -271 0
-1112 1111 272 0
-1112 -1111 -272 0
1112 -1111 272 0
1112 1111 -272 0
-1113 1112 274 0
-1113 -1112 -274 0
1113 -1112 274 0
1113 1112 -274 0
-1114 1113 276 0
-1114 -1113 -276 0
1114 -1113 276 0
1114 1113 -276 0
-1115 1114 281 0
-1115 -1114 -281 0
1115 -1114 281 0
1115 1114 -281 0
-1116 1115 283 0
-1116 -1115 -283 0
1116 -1115 283 0
1116 1115 -283 0
-1117 1116 284 0
-1117 -1116 -284 0
1117 -1116 284 0
1117 1116 -284 0
-1118 1117 286 0
-1118 -1117 -286 0
1118 -1117 286 0
1118 1117 -286 0
-1119 1118 287 0
-1119 -1118 -287 0
1119 -1118 287 0
1119 1118 -287 0
-1120 1119 288 0
-1120 -1119 -288 0
1120 -1119 288 0
1120 1119 -288 0
-1120 0
-1121 62 63 0
-1121 -62 -63 0
1121 -62 63 0
1121 62 -63 0
-1122 1121 66 0
-1122 -1121 -66 0
1122 -1121 66 0
1122 1121 -66 0
-1123 1122 68 0
-1123 -1122 -68 0
1123 -1122 68 0
1123 1122 -68 0
-1124 1123 69 0
-1124 -1123 -69 0
1124 -1123 69 0
1124 1123 -69 0
-1125 1124 72 0
-1125 -1124 -72 0
1125 -1124 72 0
1125 1124 -72 0
-1126 1125 84 0
-1126 -1125 -84 0
1126 -1125 84 0
1126 1125 -84 0
-1127 1126 85 0
-1127 -1126 -85 0
1127 -1126 85 0
1127 1126 -85 0
-1128 1127 86 0
-1128 -1127 -86 0
1128 -1127 86 0
1128 1127 -86 0
-1129 1128 88 0
-1129 -1128 -88 0
1129 -1128 88 0
1129 1128 -88 0
-1130 1129 89 0
-1130 -1129 -89 0
1130 -1129 89 0
1130 1129 -89 0
-1131 1130 90 0
-1131 -1130 -90 0
1131 -1130 90 0
1131 1130 -90 0
-1132 1131 92 0
-1132 -1131 -92 0
1132 -1131 92 0
1132 1131 -92 0
-1133 1132 93 0
-1133 -1132 -93 0
1133 -1132 93 0
1133 1132 -93 0
-1134 1133 95 0
-1134 -1133 -95 0
1134 -1133 95 0
1134 1133 -95 0
-1135 1134 97 0
-1135 -1134 -97 0
1135 -1134 97 0
1135 1134 -97 0
-1136 1135 99 0
-1136 -1135 -99 0
1136 -1135 99 0
1136 1135 -99 0
-1137 1136 100 0
-1137 -1136 -100 0
1137 -1136 100 0
1137 1136 -100 0
-1138 1137 103 0
-1138 -1137 -103 0
1138 -1137 103 0
1138 1137 -103 0
-1139 1138 105 0
-1139 -1138 -105 0
1139 -1138 105 0
1139 1138 -105 0
-1140 1139 107 0
-1140 -1139 -107 0
1140 -1139 107 0
1140 1139 -107 0
-1141 1140 108 0
-1141 -1140 -108 0
1141 -1140 108 0
1141 1140 -108 0
-1142 1141 109 0
-1142 -1141 -109 0
1142 -1141 109 0
1142 1141 -109 0
-1143 1142 111 0
-1143 -1142 -111 0
1143 -1142 111 0
1143 1142 -111 0
-1144 1143 112 0
-1144 -1143 -112 0
1144 -1143 112 0
1144 1143 -112 0
-1145 1144 114 0
-1145 -1144 -114 0
1145 -1144 114 0
1145 1144 -114 0
-1146 1145 115 0
-1146 -1145 -115 0
1146 -1145 115 0
1146 1145 -115 0
-1147 1146 116 0
-1147 -1146 -116 0
1147 -1146 116 0
1147 1146 -116 0
-1148 1147 120 0
-1148 -1147 -120 0
1148 -1147 120 0
1148 1147 -120 0
-1149 1148 126 0
-1149 -1148 -126 0
1149 -1148 126 0
1149 1148 -126 0
-1150 1149 127 0
-1150 -1149 -127 0
1150 -1149 127 0
1150 1149 -127 0
-1151 1150 129 0
-1151 -1150 -129 0
1151 -1150 129 0
1151 1150 -129 0
-1152 1151 132 0
-1152 -1151 -132 0
1152 -1151 132 0
1152 1151 -132 0
-1153 1152 133 0
-1153 -1152 -133 0
1153 -1152 133 0
1153 1152 -133 0
-1154 1153 136 0
-1154 -1153 -136 0
1154 -1153 136 0
1154 1153 -136 0
-1155 1154 139 0
-1155 -1154 -139 0
1155 -1154 139 0
1155 1154 -139 0
-1156 1155 140 0
-1156 -1155 -140 0
1156 -1155 140 0
1156 1155 -140 0
-1157 1156 141 0
-1157 -1156 -141 0
1157 -1156 141 0
1157 1156 -141 0
-1158 1157 143 0
-1158 -1157 -143 0
1158 -1157 143 0
1158 1157 -143 0
-1159 1158 144 0
-1159 -1158 -144 0
1159 -1158 144 0
1159 1158 -144 0
-1160 1159 155 0
-1160 -1159 -155 0
1160 -1159 155 0
1160 1159 -155 0
-1161 1160 213 0
-1161 -1160 -213 0
1161 -1160 213 0
1161 1160 -213 0
-1162 1161 215 0
-1162 -1161 -215 0
1162 -1161 215 0
1162 1161 -215 0
-1163 1162 216 0
-1163 -1162 -216 0
1163 -1162 216 0
1163 1162 -216 0
-1164 1163 222 0
-1164 -1163 -222 0
1164 -1163 222 0
1164 1163 -222 0
-1165 1164 226 0
-1165 -1164 -226 0
1165 -1164 226 0
1165 1164 -226 0
-1166 1165 227 0
-1166 -1165 -227 0
1166 -1165 227 0
1166 1165 -227 0
-1167 1166 229 0
-1167 -1166 -229 0
1167 -1166 229 0
1167 1166 -229 0
-1168 1167 230 0
-1168 -1167 -230 0
1168 -1167 230 0
1168 1167 -230 0
-1169 1168 235 0
-1169 -1168 -235 0
1169 -1168 235 0
1169 1168 -235 0
-1170 1169 239 0
-1170 -1169 -239 0
1170 -1169 239 0
1170 1169 -239 0
-1171 1170 242 0
-1171 -1170 -242 0
1171 -1170 242 0
1171 1170 -242 0
-1172 1171 244 0
-1172 -1171 -244 0
1172 -1171 244 0
1172 1171 -244 0
-1173 1172 247 0
-1173 -1172 -247 0
1173 -1172 247 0
1173 1172 -247 0
-1174 1173 248 0
-1174 -1173 -248 0
1174 -1173 248 0
1174 1173 -248 0
-1175 1174 249 0
-1175 -1174 -249 0
1175 -1174 249 0
1175 1174 -249 0
-1176 1175 252 0
-1176 -1175 -252 0
1176 -1175 252 0
1176 1175 -252 0
-1177 1176 255 0
-1177 -1176 -255 0
1177 -1176 255 0
1177 1176 -255 0
-1178 1177 256 0
-1178 -1177 -256 0
1178 -1177 256 0
1178 1177 -256 0
-1179 1178 257 0
-1179 -1178 -257 0
1179 -1178 257 0
1179 1178 -257 0
-1180 1179 258 0
-1180 -1179 -258 0
1180 -1179 258 0
1180 1179 -258 0
-1181 1180 259 0
-1181 -1180 -259 0
1181 -1180 259 0
1181 1180 -259 0
-1182 1181 263 0
-1182 -1181 -263 0
1182 -1181 263 0
1182 1181 -263 0
-1183 1182 265 0
-1183 -1182 -265 0
1183 -1182 265 0
1183 1182 -265 0
-1184 1183 268 0
-1184 -1183 -268 0
1184 -1183 268 0
1184 1183 -268 0
-1185 1184 269 0
-1185 -1184 -269 0
1185 -1184 269 0
1185 1184 -269 0
-1186 1185 272 0
-1186 -1185 -272 0
1186 -1185 272 0
1186 1185 -272 0
-1187 1186 274 0
-1187 -1186 -274 0
1187 -1186 274 0
1187 1186 -274 0
-1188 1187 276 0
-1188 -1187 -276 0
1188 -1187 276 0
1188 1187 -276 0
-1189 1188 281 0
-1189 -1188 -281 0
1189 -1188 281 0
1189 1188 -281 0
-1190 1189 282 0
-1190 -1189 -282 0
1190 -1189 282 0
1190 1189 -282 0
-1191 1190 283 0
-1191 -1190 -283 0
1191 -1190 283 0
1191 1190 -283 0
-1192 1191 284 0
-1192 -1191 -284 0
1192 -1191 284 0
1192 1191 -284 0
-1193 1192 286 0
-1193 -1192 -286 0
1193 -1192 286 0
1193 1192 -286 0
-1194 1193 287 0
-1194 -1193 -287 0
1194 -1193 287 0
1194 1193 -287 0
-1195 1194 288 0
-1195 -1194 -288 0
1195 -1194 288 0
1195 1194 -288 0
-1195 0
-1196 62 65 0
-1196 -62 -65 0
1196 -62 65 0
1196 62 -65 0
-1197 1196 66 0
-1197 -1196 -66 0
1197 -1196 66 0
1197 1196 -66 0
-1198 1197 67 0
-1198 -1197 -67 0
1198 -1197 67 0
1198 1197 -67 0
-1199 1198 68 0
-1199 -1198 -68 0
1199 -1198 68 0
1199 1198 -68 0
-1200 1199 69 0
-1200 -1199 -69 0
1200 -1199 69 0
1200 1199 -69 0
-1201 1200 72 0
-1201 -1200 -72 0
1201 -1200 72 0
1201 1200 -72 0
-1202 1201 85 0
-1202 -1201 -85 0
1202 -1201 85 0
1202 1201 -85 0
-1203 1202 86 0
-1203 -1202 -86 0
1203 -1202 86 0
1203 1202 -86 0
-1204 1203 87 0
-1204 -1203 -87 0
1204 -1203 87 0
1204 1203 -87 0
-1205 1204 88 0
-1205 -1204 -88 0
1205 -1204 88 0
1205 1204 -88 0
-1206 1205 90 0
-1206 -1205 -90 0
1206 -1205 90 0
1206 1205 -90 0
-1207 1206 91 0
-1207 -1206 -91 0
1207 -1206 91 0
1207 1206 -91 0
-1208 1207 93 0
-1208 -1207 -93 0
1208 -1207 93 0
1208 1207 -93 0
-1209 1208 94 0
-1209 -1208 -94 0
1209 -1208 94 0
1209 1208 -94 0
-1210 1209 95 0
-1210 -1209 -95 0
1210 -1209 95 0
1210 1209 -95 0
-1211 1210 103 0
-1211 -1210 -103 0
1211 -1210 103 0
1211 1210 -103 0
-1212 1211 105 0
-1212 -1211 -105 0
1212 -1211 105 0
1212 1211 -105 0
-1213 1212 109 0
-1213 -1212 -109 0
1213 -1212 109 0
1213 1212 -109 0
-1214 1213 110 0
-1214 -1213 -110 0
1214 -1213 110 0
1214 1213 -110 0
-1215 1214 111 0
-1215 -1214 -111 0
1215 -1214 111 0
1215 1214 -111 0
-1216 1215 112 0
-1216 -1215 -112 0
1216 -1215 112 0
1216 1215 -112 0
-1217 1216 113 0
-1217 -1216 -113 0
1217 -1216 113 0
1217 1216 -113 0
-1218 1217 114 0
-1218 -1217 -114 0
1218 -1217 114 0
1218 1217 -114 0
-1219 1218 116 0
-1219 -1218 -116 0
1219 -1218 116 0
1219 1218 -116 0
-1220 1219 120 0
-1220 -1219 -120 0
1220 -1219 120 0
1220 1219 -120 0
-1221 1220 122 0
-1221 -1220 -122 0
1221 -1220 122 0
1221 1220 -122 0
-1222 1221 129 0
-1222 -1221 -129 0
1222 -1221 129 0
1222 1221 -129 0
-1223 1222 131 0
-1223 -1222 -131 0
1223 -1222 131 0
1223 1222 -131 0
-1224 1223 132 0
-1224 -1223 -132 0
1224 -1223 132 0
1224 1223 -132 0
-1225 1224 135 0
-1225 -1224 -135 0
1225 -1224 135 0
1225 1224 -135 0
-1226 1225 136 0
-1226 -1225 -136 0
1226 -1225 136 0
1226 1225 -136 0
-1227 1226 138 0
-1227 -1226 -138 0
1227 -1226 138 0
1227 1226 -138 0
-1228 1227 139 0
-1228 -1227 -139 0
1228 -1227 139 0
1228 1227 -139 0
-1229 1228 141 0
-1229 -1228 -141 0
1229 -1228 141 0
1229 1228 -141 0
-1230 1229 144 0
-1230 -1229 -144 0
1230 -1229 144 0
1230 1229 -144 0
-1231 1230 156 0
-1231 -1230 -156 0
1231 -1230 156 0
1231 1230 -156 0
-1232 1231 213 0
-1232 -1231 -213 0
1232 -1231 213 0
1232 1231 -213 0
-1233 1232 214 0
-1233 -1232 -214 0
1233 -1232 214 0
1233 1232 -214 0
-1234 1233 215 0
-1234 -1233 -215 0
1234 -1233 215 0
1234 1233 -215 0
-1235 1234 216 0
-1235 -1234 -216 0
1235 -1234 216 0
1235 1234 -216 0
-1236 1235 222 0
-1236 -1235 -222 0
1236 -1235 222 0
1236 1235 -222 0
-1237 1236 226 0
-1237 -1236 -226 0
1237 -1236 226 0
1237 1236 -226 0
-1238 1237 227 0
-1238 -1237 -227 0
1238 -1237 227 0
1238 1237 -227 0
-1239 1238 229 0
-1239 -1238 -229 0
1239 -1238 229 0
1239 1238 -229 0
-1240 1239 230 0
-1240 -1239 -230 0
1240 -1239 230 0
1240 1239 -230 0
-1241 1240 235 0
-1241 -1240 -235 0
1241 -1240 235 0
1241 1240 -235 0
-1242 1241 239 0
-1242 -1241 -239 0
1242 -1241 239 0
1242 1241 -239 0
-1243 1242 242 0
-1243 -1242 -242 0
1243 -1242 242 0
1243 1242 -242 0
-1244 1243 244 0
-1244 -1243 -244 0
1244 -1243 244 0
1244 1243 -244 0
-1245 1244 247 0
-1245 -1244 -247 0
1245 -1244 247 0
1245 1244 -247 0
-1246 1245 248 0
-1246 -1245 -248 0
1246 -1245 248 0
1246 1245 -248 0
-1247 1246 249 0
-1247 -1246 -249 0
1247 -1246 249 0
1247 1246 -249 0
-1248 1247 252 0
-1248 -1247 -252 0
1248 -1247 252 0
1248 1247 -252 0
-1249 1248 255 0
-1249 -1248 -255 0
1249 -1248 255 0
1249 1248 -255 0
-1250 1249 256 0
-1250 -1249 -256 0
1250 -1249 256 0
1250 1249 -256 0
-1251 1250 257 0
-1251 -1250 -257 0
1251 -1250 257 0
1251 1250 -257 0
-1252 1251 258 0
-1252 -1251 -258 0
1252 -1251 258 0
1252 1251 -258 0
-1253 1252 259 0
-1253 -1252 -259 0
1253 -1252 259 0
1253 1252 -259 0
-1254 1253 263 0
-1254 -1253 -263 0
1254 -1253 263 0
1254 1253 -263 0
-1255 1254 265 0
-1255 -1254 -265 0
1255 -1254 265 0
1255 1254 -265 0
-1256 1255 268 0
-1256 -1255 -268 0
1256 -1255 268 0
1256 1255 -268 0
-1257 1256 269 0
-1257 -1256 -269 0
1257 -1256 269 0
1257 1256 -269 0
-1258 1257 270 0
-1258 -1257 -270 0
1258 -1257 270 0
1258 1257 -270 0
-1259 1258 274 0
-1259 -1258 -274 0
1259 -1258 274 0
1259 1258 -274 0
-1260 1259 276 0
-1260 -1259 -276 0
1260 -1259 276 0
1260 1259 -276 0
-1261 1260 277 0
-1261 -1260 -277 0
1261 -1260 277 0
1261 1260 -277 0
-1262 1261 281 0
-1262 -1261 -281 0
1262 -1261 281 0
1262 1261 -281 0
-1263 1262 282 0
-1263 -1262 -282 0
1263 -1262 282 0
1263 1262 -282 0
-1264 1263 283 0
-1264 -1263 -283 0
1264 -1263 283 0
1264 1263 -283 0
-1265 1264 284 0
-1265 -1264 -284 0
1265 -1264 284 0
1265 1264 -284 0
-1266 1265 286 0
-1266 -1265 -286 0
1266 -1265 286 0
1266 1265 -286 0
-1267 1266 287 0
-1267 -1266 -287 0
1267 -1266 287 0
1267 1266 -287 0
-1268 1267 288 0
-1268 -1267 -288 0
1268 -1267 288 0
1268 1267 -288 0
-1268 0
-1269 63 65 0
-1269 -63 -65 0
1269 -63 65 0
1269 63 -65 0
-1270 1269 67 0
-1270 -1269 -67 0
1270 -1269 67 0
1270 1269 -67 0
-1271 1270 68 0
-1271 -1270 -68 0
1271 -1270 68 0
1271 1270 -68 0
-1272 1271 71 0
-1272 -1271 -71 0
1272 -1271 71 0
1272 1271 -71 0
-1273 1272 83 0
-1273 -1272 -83 0
1273 -1272 83 0
1273 1272 -83 0
-1274 1273 84 0
-1274 -1273 -84 0
1274 -1273 84 0
1274 1273 -84 0
-1275 1274 88 0
-1275 -1274 -88 0
1275 -1274 88 0
1275 1274 -88 0
-1276 1275 89 0
-1276 -1275 -89 0
1276 -1275 89 0
1276 1275 -89 0
-1277 1276 90 0
-1277 -1276 -90 0
1277 -1276 90 0
1277 1276 -90 0
-1278 1277 91 0
-1278 -1277 -91 0
1278 -1277 91 0
1278 1277 -91 0
-1279 1278 92 0
-1279 -1278 -92 0
1279 -1278 92 0
1279 1278 -92 0
-1280 1279 93 0
-1280 -1279 -93 0
1280 -1279 93 0
1280 1279 -93 0
-1281 1280 94 0
-1281 -1280 -94 0
1281 -1280 94 0
1281 1280 -94 0
-1282 1281 97 0
-1282 -1281 -97 0
1282 -1281 97 0
1282 1281 -97 0
-1283 1282 99 0
-1283 -1282 -99 0
1283 -1282 99 0
1283 1282 -99 0
-1284 1283 101 0
-1284 -1283 -101 0
1284 -1283 101 0
1284 1283 -101 0
-1285 1284 102 0
-1285 -1284 -102 0
1285 -1284 102 0
1285 1284 -102 0
-1286 1285 104 0
-1286 -1285 -104 0
1286 -1285 104 0
1286 1285 -104 0
-1287 1286 109 0
-1287 -1286 -109 0
1287 -1286 109 0
1287 1286 -109 0
-1288 1287 110 0
-1288 -1287 -110 0
1288 -1287 110 0
1288 1287 -110 0
-1289 1288 112 0
-1289 -1288 -112 0
1289 -1288 112 0
1289 1288 -112 0
-1290 1289 116 0
-1290 -1289 -116 0
1290 -1289 116 0
1290 1289 -116 0
-1291 1290 117 0
-1291 -1290 -117 0
1291 -1290 117 0
1291 1290 -117 0
-1292 1291 118 0
-1292 -1291 -118 0
1292 -1291 118 0
1292 1291 -118 0
-1293 1292 119 0
-1293 -1292 -119 0
1293 -1292 119 0
1293 1292 -119 0
-1294 1293 122 0
-1294 -1293 -122 0
1294 -1293 122 0
1294 1293 -122 0
-1295 1294 123 0
-1295 -1294 -123 0
1295 -1294 123 0
1295 1294 -123 0
-1296 1295 126 0
-1296 -1295 -126 0
1296 -1295 126 0
1296 1295 -126 0
-1297 1296 127 0
-1297 -1296 -127 0
1297 -1296 127 0
1297 1296 -127 0
-1298 1297 128 0
-1298 -1297 -128 0
1298 -1297 128 0
1298 1297 -128 0
-1299 1298 130 0
-1299 -1298 -130 0
1299 -1298 130 0
1299 1298 -130 0
-1300 1299 131 0
-1300 -1299 -131 0
1300 -1299 131 0
1300 1299 -131 0
-1301 1300 135 0
-1301 -1300 -135 0
1301 -1300 135 0
1301 1300 -135 0
-1302 1301 157 0
-1302 -1301 -157 0
1302 -1301 157 0
1302 1301 -157 0
-1303 1302 207 0
-1303 -1302 -207 0
1303 -1302 207 0
1303 1302 -207 0
-1304 1303 209 0
-1304 -1303 -209 0
1304 -1303 209 0
1304 1303 -209 0
-1305 1304 221 0
-1305 -1304 -221 0
1305 -1304 221 0
1305 1304 -221 0
-1306 1305 227 0
-1306 -1305 -227 0
1306 -1305 227 0
1306 1305 -227 0
-1307 1306 229 0
-1307 -1306 -229 0
1307 -1306 229 0
1307 1306 -229 0
-1308 1307 234 0
-1308 -1307 -234 0
1308 -1307 234 0
1308 1307 -234 0
-1309 1308 235 0
-1309 -1308 -235 0
1309 -1308 235 0
1309 1308 -235 0
-1310 1309 240 0
-1310 -1309 -240 0
1310 -1309 240 0
1310 1309 -240 0
-1311 1310 241 0
-1311 -1310 -241 0
1311 -1310 241 0
1311 1310 -241 0
-1312 1311 243 0
-1312 -1311 -243 0
1312 -1311 243 0
1312 1311 -243 0
-1313 1312 247 0
-1313 -1312 -247 0
1313 -1312 247 0
1313 1312 -247 0
-1314 1313 249 0
-1314 -1313 -249 0
1314 -1313 249 0
1314 1313 -249 0
-1315 1314 254 0
-1315 -1314 -254 0
1315 -1314 254 0
1315 1314 -254 0
-1316 1315 255 0
-1316 -1315 -255 0
1316 -1315 255 0
1316 1315 -255 0
-1317 1316 256 0
-1317 -1316 -256 0
1317 -1316 256 0
1317 1316 -256 0
-1318 1317 257 0
-1318 -1317 -257 0
1318 -1317 257 0
1318 1317 -257 0
-1319 1318 259 0
-1319 -1318 -259 0
1319 -1318 259 0
1319 1318 -259 0
-1320 1319 260 0
-1320 -1319 -260 0
1320 -1319 260 0
1320 1319 -260 0
-1321 1320 261 0
-1321 -1320 -261 0
1321 -1320 261 0
1321 1320 -261 0
-1322 1321 262 0
-1322 -1321 -262 0
1322 -1321 262 0
1322 1321 -262 0
-1323 1322 285 0
-1323 -1322 -285 0
1323 -1322 285 0
1323 1322 -285 0
-1323 0
-1324 64 66 0
-1324 -64 -66 0
1324 -64 66 0
1324 64 -66 0
-1325 1324 68 0
-1325 -1324 -68 0
1325 -1324 68 0
1325 1324 -68 0
-1326 1325 69 0
-1326 -1325 -69 0
1326 -1325 69 0
1326 1325 -69 0
-1327 1326 72 0
-1327 -1326 -72 0
1327 -1326 72 0
1327 1326 -72 0
-1328 1327 83 0
-1328 -1327 -83 0
1328 -1327 83 0
1328 1327 -83 0
-1329 1328 85 0
-1329 -1328 -85 0
1329 -1328 85 0
1329 1328 -85 0
-1330 1329 88 0
-1330 -1329 -88 0
1330 -1329 88 0
1330 1329 -88 0
-1331 1330 91 0
-1331 -1330 -91 0
1331 -1330 91 0
1331 1330 -91 0
-1332 1331 96 0
-1332 -1331 -96 0
1332 -1331 96 0
1332 1331 -96 0
-1333 1332 97 0
-1333 -1332 -97 0
1333 -1332 97 0
1333 1332 -97 0
-1334 1333 99 0
-1334 -1333 -99 0
1334 -1333 99 0
1334 1333 -99 0
-1335 1334 102 0
-1335 -1334 -102 0
1335 -1334 102 0
1335 1334 -102 0
-1336 1335 105 0
-1336 -1335 -105 0
1336 -1335 105 0
1336 1335 -105 0
-1337 1336 106 0
-1337 -1336 -106 0
1337 -1336 106 0
1337 1336 -106 0
-1338 1337 107 0
-1338 -1337 -107 0
1338 -1337 107 0
1338 1337 -107 0
-1339 1338 108 0
-1339 -1338 -108 0
1339 -1338 108 0
1339 1338 -108 0
-1340 1339 110 0
-1340 -1339 -110 0
1340 -1339 110 0
1340 1339 -110 0
-1341 1340 111 0
-1341 -1340 -111 0
1341 -1340 111 0
1341 1340 -111 0
-1342 1341 113 0
-1342 -1341 -113 0
1342 -1341 113 0
1342 1341 -113 0
-1343 1342 115 0
-1343 -1342 -115 0
1343 -1342 115 0
1343 1342 -115 0
-1344 1343 117 0
-1344 -1343 -117 0
1344 -1343 117 0
1344 1343 -117 0
-1345 1344 118 0
-1345 -1344 -118 0
1345 -1344 118 0
1345 1344 -118 0
-1346 1345 121 0
-1346 -1345 -121 0
1346 -1345 121 0
1346 1345 -121 0
-1347 1346 123 0
-1347 -1346 -123 0
1347 -1346 123 0
1347 1346 -123 0
-1348 1347 125 0
-1348 -1347 -125 0
1348 -1347 125 0
1348 1347 -125 0
-1349 1348 126 0
-1349 -1348 -126 0
1349 -1348 126 0
1349 1348 -126 0
-1350 1349 127 0
-1350 -1349 -127 0
1350 -1349 127 0
1350 1349 -127 0
-1351 1350 130 0
-1351 -1350 -130 0
1351 -1350 130 0
1351 1350 -130 0
-1352 1351 134 0
-1352 -1351 -134 0
1352 -1351 134 0
1352 1351 -134 0
-1353 1352 135 0
-1353 -1352 -135 0
1353 -1352 135 0
1353 1352 -135 0
-1354 1353 142 0
-1354 -1353 -142 0
1354 -1353 142 0
1354 1353 -142 0
-1355 1354 143 0
-1355 -1354 -143 0
1355 -1354 143 0
1355 1354 -143 0
-1356 1355 144 0
-1356 -1355 -144 0
1356 -1355 144 0
1356 1355 -144 0
-1357 1356 158 0
-1357 -1356 -158 0
1357 -1356 158 0
1357 1356 -158 0
-1358 1357 208 0
-1358 -1357 -208 0
1358 -1357 208 0
1358 1357 -208 0
-1359 1358 210 0
-1359 -1358 -210 0
1359 -1358 210 0
1359 1358 -210 0
-1360 1359 222 0
-1360 -1359 -222 0
1360 -1359 222 0
1360 1359 -222 0
-1361 1360 228 0
-1361 -1360 -228 0
1361 -1360 228 0
1361 1360 -228 0
-1362 1361 229 0
-1362 -1361 -229 0
1362 -1361 229 0
1362 1361 -229 0
-1363 1362 230 0
-1363 -1362 -230 0
1363 -1362 230 0
1363 1362 -230 0
-1364 1363 235 0
-1364 -1363 -235 0
1364 -1363 235 0
1364 1363 -235 0
-1365 1364 236 0
-1365 -1364 -236 0
1365 -1364 236 0
1365 1364 -236 0
-1366 1365 242 0
-1366 -1365 -242 0
1366 -1365 242 0
1366 1365 -242 0
-1367 1366 244 0
-1367 -1366 -244 0
1367 -1366 244 0
1367 1366 -244 0
-1368 1367 248 0
-1368 -1367 -248 0
1368 -1367 248 0
1368 1367 -248 0
-1369 1368 250 0
-1369 -1368 -250 0
1369 -1368 250 0
1369 1368 -250 0
-1370 1369 255 0
-1370 -1369 -255 0
1370 -1369 255 0
1370 1369 -255 0
-1371 1370 256 0
-1371 -1370 -256 0
1371 -1370 256 0
1371 1370 -256 0
-1372 1371 257 0
-1372 -1371 -257 0
1372 -1371 257 0
1372 1371 -257 0
-1373 1372 258 0
-1373 -1372 -258 0
1373 -1372 258 0
1373 1372 -258 0
-1374 1373 260 0
-1374 -1373 -260 0
1374 -1373 260 0
1374 1373 -260 0
-1375 1374 261 0
-1375 -1374 -261 0
1375 -1374 261 0
1375 1374 -261 0
-1376 1375 262 0
-1376 -1375 -262 0
1376 -1375 262 0
1376 1375 -262 0
-1377 1376 263 0
-1377 -1376 -263 0
1377 -1376 263 0
1377 1376 -263 0
-1378 1377 286 0
-1378 -1377 -286 0
1378 -1377 286 0
1378 1377 -286 0
-1378 0
-1379 63 68 0
-1379 -63 -68 0
1379 -63 68 0
1379 63 -68 0
-1380 1379 71 0
-1380 -1379 -71 0
1380 -1379 71 0
1380 1379 -71 0
-1381 1380 72 0
-1381 -1380 -72 0
1381 -1380 72 0
1381 1380 -72 0
-1382 1381 83 0
-1382 -1381 -83 0
1382 -1381 83 0
1382 1381 -83 0
-1383 1382 84 0
-1383 -1382 -84 0
1383 -1382 84 0
1383 1382 -84 0
-1384 1383 88 0
-1384 -1383 -88 0
1384 -1383 88 0
1384 1383 -88 0
-1385 1384 91 0
-1385 -1384 -91 0
1385 -1384 91 0
1385 1384 -91 0
-1386 1385 92 0
-1386 -1385 -92 0
1386 -1385 92 0
1386 1385 -92 0
-1387 1386 93 0
-1387 -1386 -93 0
1387 -1386 93 0
1387 1386 -93 0
-1388 1387 96 0
-1388 -1387 -96 0
1388 -1387 96 0
1388 1387 -96 0
-1389 1388 103 0
-1389 -1388 -103 0
1389 -1388 103 0
1389 1388 -103 0
-1390 1389 106 0
-1390 -1389 -106 0
1390 -1389 106 0
1390 1389 -106 0
-1391 1390 109 0
-1391 -1390 -109 0
1391 -1390 109 0
1391 1390 -109 0
-1392 1391 111 0
-1392 -1391 -111 0
1392 -1391 111 0
1392 1391 -111 0
-1393 1392 114 0
-1393 -1392 -114 0
1393 -1392 114 0
1393 1392 -114 0
-1394 1393 117 0
-1394 -1393 -117 0
1394 -1393 117 0
1394 1393 -117 0
-1395 1394 118 0
-1395 -1394 -118 0
1395 -1394 118 0
1395 1394 -118 0
-1396 1395 119 0
-1396 -1395 -119 0
1396 -1395 119 0
1396 1395 -119 0
-1397 1396 120 0
-1397 -1396 -120 0
1397 -1396 120 0
1397 1396 -120 0
-1398 1397 121 0
-1398 -1397 -121 0
1398 -1397 121 0
1398 1397 -121 0
-1399 1398 123 0
-1399 -1398 -123 0
1399 -1398 123 0
1399 1398 -123 0
-1400 1399 124 0
-1400 -1399 -124 0
1400 -1399 124 0
1400 1399 -124 0
-1401 1400 126 0
-1401 -1400 -126 0
1401 -1400 126 0
1401 1400 -126 0
-1402 1401 127 0
-1402 -1401 -127 0
1402 -1401 127 0
1402 1401 -127 0
-1403 1402 128 0
-1403 -1402 -128 0
1403 -1402 128 0
1403 1402 -128 0
-1404 1403 129 0
-1404 -1403 -129 0
1404 -1403 129 0
1404 1403 -129 0
-1405 1404 130 0
-1405 -1404 -130 0
1405 -1404 130 0
1405 1404 -130 0
-1406 1405 131 0
-1406 -1405 -131 0
1406 -1405 131 0
1406 1405 -131 0
-1407 1406 132 0
-1407 -1406 -132 0
1407 -1406 132 0
1407 1406 -132 0
-1408 1407 134 0
-1408 -1407 -134 0
1408 -1407 134 0
1408 1407 -134 0
-1409 1408 135 0
-1409 -1408 -135 0
1409 -1408 135 0
1409 1408 -135 0
-1410 1409 136 0
-1410 -1409 -136 0
1410 -1409 136 0
1410 1409 -136 0
-1411 1410 142 0
-1411 -1410 -142 0
1411 -1410 142 0
1411 1410 -142 0
-1412 1411 159 0
-1412 -1411 -159 0
1412 -1411 159 0
1412 1411 -159 0
-1413 1412 207 0
-1413 -1412 -207 0
1413 -1412 207 0
1413 1412 -207 0
-1414 1413 221 0
-1414 -1413 -221 0
1414 -1413 221 0
1414 1413 -221 0
-1415 1414 227 0
-1415 -1414 -227 0
1415 -1414 227 0
1415 1414 -227 0
-1416 1415 229 0
-1416 -1415 -229 0
1416 -1415 229 0
1416 1415 -229 0
-1417 1416 234 0
-1417 -1416 -234 0
1417 -1416 234 0
1417 1416 -234 0
-1418 1417 235 0
-1418 -1417 -235 0
1418 -1417 235 0
1418 1417 -235 0
-1419 1418 240 0
-1419 -1418 -240 0
1419 -1418 240 0
1419 1418 -240 0
-1420 1419 241 0
-1420 -1419 -241 0
1420 -1419 241 0
1420 1419 -241 0
-1421 1420 243 0
-1421 -1420 -243 0
1421 -1420 243 0
1421 1420 -243 0
-1422 1421 247 0
-1422 -1421 -247 0
1422 -1421 247 0
1422 1421 -247 0
-1423 1422 249 0
-1423 -1422 -249 0
1423 -1422 249 0
1423 1422 -249 0
-1424 1423 254 0
-1424 -1423 -254 0
1424 -1423 254 0
1424 1423 -254 0
-1425 1424 255 0
-1425 -1424 -255 0
1425 -1424 255 0
1425 1424 -255 0
-1426 1425 256 0
-1426 -1425 -256 0
1426 -1425 256 0
1426 1425 -256 0
-1427 1426 257 0
-1427 -1426 -257 0
1427 -1426 257 0
1427 1426 -257 0
-1428 1427 260 0
-1428 -1427 -260 0
1428 -1427 260 0
1428 1427 -260 0
-1429 1428 261 0
-1429 -1428 -261 0
1429 -1428 261 0
1429 1428 -261 0
-1430 1429 262 0
-1430 -1429 -262 0
1430 -1429 262 0
1430 1429 -262 0
-1431 1430 267 0
-1431 -1430 -267 0
1431 -1430 267 0
1431 1430 -267 0
-1432 1431 273 0
-1432 -1431 -273 0
1432 -1431 273 0
1432 1431 -273 0
-1433 1432 280 0
-1433 -1432 -280 0
1433 -1432 280 0
1433 1432 -280 0
-1434 1433 281 0
-1434 -1433 -281 0
1434 -1433 281 0
1434 1433 -281 0
-1435 1434 286 0
-1435 -1434 -286 0
1435 -1434 286 0
1435 1434 -286 0
-1435 0
-1436 64 67 0
-1436 -64 -67 0
1436 -64 67 0
1436 64 -67 0
-1437 1436 69 0
-1437 -1436 -69 0
1437 -1436 69 0
1437 1436 -69 0
-1438 1437 72 0
-1438 -1437 -72 0
1438 -1437 72 0
1438 1437 -72 0
-1439 1438 83 0
-1439 -1438 -83 0
1439 -1438 83 0
1439 1438 -83 0
-1440 1439 88 0
-1440 -1439 -88 0
1440 -1439 88 0
1440 1439 -88 0
-1441 1440 90 0
-1441 -1440 -90 0
1441 -1440 90 0
1441 1440 -90 0
-1442 1441 95 0
-1442 -1441 -95 0
1442 -1441 95 0
1442 1441 -95 0
-1443 1442 96 0
-1443 -1442 -96 0
1443 -1442 96 0
1443 1442 -96 0
-1444 1443 98 0
-1444 -1443 -98 0
1444 -1443 98 0
1444 1443 -98 0
-1445 1444 99 0
-1445 -1444 -99 0
1445 -1444 99 0
1445 1444 -99 0
-1446 1445 100 0
-1446 -1445 -100 0
1446 -1445 100 0
1446 1445 -100 0
-1447 1446 104 0
-1447 -1446 -104 0
1447 -1446 104 0
1447 1446 -104 0
-1448 1447 106 0
-1448 -1447 -106 0
1448 -1447 106 0
1448 1447 -106 0
-1449 1448 108 0
-1449 -1448 -108 0
1449 -1448 108 0
1449 1448 -108 0
-1450 1449 109 0
-1450 -1449 -109 0
1450 -1449 109 0
1450 1449 -109 0
-1451 1450 110 0
-1451 -1450 -110 0
1451 -1450 110 0
1451 1450 -110 0
-1452 1451 112 0
-1452 -1451 -112 0
1452 -1451 112 0
1452 1451 -112 0
-1453 1452 118 0
-1453 -1452 -118 0
1453 -1452 118 0
1453 1452 -118 0
-1454 1453 121 0
-1454 -1453 -121 0
1454 -1453 121 0
1454 1453 -121 0
-1455 1454 122 0
-1455 -1454 -122 0
1455 -1454 122 0
1455 1454 -122 0
-1456 1455 126 0
-1456 -1455 -126 0
1456 -1455 126 0
1456 1455 -126 0
-1457 1456 134 0
-1457 -1456 -134 0
1457 -1456 134 0
1457 1456 -134 0
-1458 1457 137 0
-1458 -1457 -137 0
1458 -1457 137 0
1458 1457 -137 0
-1459 1458 142 0
-1459 -1458 -142 0
1459 -1458 142 0
1459 1458 -142 0
-1460 1459 144 0
-1460 -1459 -144 0
1460 -1459 144 0
1460 1459 -144 0
-1461 1460 160 0
-1461 -1460 -160 0
1461 -1460 160 0
1461 1460 -160 0
-1462 1461 208 0
-1462 -1461 -208 0
1462 -1461 208 0
1462 1461 -208 0
-1463 1462 222 0
-1463 -1462 -222 0
1463 -1462 222 0
1463 1462 -222 0
-1464 1463 228 0
-1464 -1463 -228 0
1464 -1463 228 0
1464 1463 -228 0
-1465 1464 229 0
-1465 -1464 -229 0
1465 -1464 229 0
1465 1464 -229 0
-1466 1465 230 0
-1466 -1465 -230 0
1466 -1465 230 0
1466 1465 -230 0
-1467 1466 235 0
-1467 -1466 -235 0
1467 -1466 235 0
1467 1466 -235 0
-1468 1467 236 0
-1468 -1467 -236 0
1468 -1467 236 0
1468 1467 -236 0
-1469 1468 242 0
-1469 -1468 -242 0
1469 -1468 242 0
1469 1468 -242 0
-1470 1469 244 0
-1470 -1469 -244 0
1470 -1469 244 0
1470 1469 -244 0
-1471 1470 248 0
-1471 -1470 -248 0
1471 -1470 248 0
1471 1470 -248 0
-1472 1471 250 0
-1472 -1471 -250 0
1472 -1471 250 0
1472 1471 -250 0
-1473 1472 255 0
-1473 -1472 -255 0
1473 -1472 255 0
1473 1472 -255 0
-1474 1473 256 0
-1474 -1473 -256 0
1474 -1473 256 0
1474 1473 -256 0
-1475 1474 257 0
-1475 -1474 -257 0
1475 -1474 257 0
1475 1474 -257 0
-1476 1475 258 0
-1476 -1475 -258 0
1476 -1475 258 0
1476 1475 -258 0
-1477 1476 261 0
-1477 -1476 -261 0
1477 -1476 261 0
1477 1476 -261 0
-1478 1477 262 0
-1478 -1477 -262 0
1478 -1477 262 0
1478 1477 -262 0
-1479 1478 263 0
-1479 -1478 -263 0
1479 -1478 263 0
1479 1478 -263 0
-1480 1479 268 0
-1480 -1479 -268 0
1480 -1479 268 0
1480 1479 -268 0
-1481 1480 274 0
-1481 -1480 -274 0
1481 -1480 274 0
1481 1480 -274 0
-1482 1481 281 0
-1482 -1481 -281 0
1482 -1481 281 0
1482 1481 -281 0
-1483 1482 282 0
-1483 -1482 -282 0
1483 -1482 282 0
1483 1482 -282 0
-1484 1483 287 0
-1484 -1483 -287 0
1484 -1483 287 0
1484 1483 -287 0
-1484 0
-1485 65 67 0
-1485 -65 -67 0
1485 -65 67 0
1485 65 -67 0
-1486 1485 68 0
-1486 -1485 -68 0
1486 -1485 68 0
1486 1485 -68 0
-1487 1486 70 0
-1487 -1486 -70 0
1487 -1486 70 0
1487 1486 -70 0
-1488 1487 83 0
-1488 -1487 -83 0
1488 -1487 83 0
1488 1487 -83 0
-1489 1488 84 0
-1489 -1488 -84 0
1489 -1488 84 0
1489 1488 -84 0
-1490 1489 87 0
-1490 -1489 -87 0
1490 -1489 87 0
1490 1489 -87 0
-1491 1490 89 0
-1491 -1490 -89 0
1491 -1490 89 0
1491 1490 -89 0
-1492 1491 90 0
-1492 -1491 -90 0
1492 -1491 90 0
1492 1491 -90 0
-1493 1492 91 0
-1493 -1492 -91 0
1493 -1492 91 0
1493 1492 -91 0
-1494 1493 93 0
-1494 -1493 -93 0
1494 -1493 93 0
1494 1493 -93 0
-1495 1494 100 0
-1495 -1494 -100 0
1495 -1494 100 0
1495 1494 -100 0
-1496 1495 102 0
-1496 -1495 -102 0
1496 -1495 102 0
1496 1495 -102 0
-1497 1496 107 0
-1497 -1496 -107 0
1497 -1496 107 0
1497 1496 -107 0
-1498 1497 108 0
-1498 -1497 -108 0
1498 -1497 108 0
1498 1497 -108 0
-1499 1498 114 0
-1499 -1498 -114 0
1499 -1498 114 0
1499 1498 -114 0
-1500 1499 116 0
-1500 -1499 -116 0
1500 -1499 116 0
1500 1499 -116 0
-1501 1500 117 0
-1501 -1500 -117 0
1501 -1500 117 0
1501 1500 -117 0
-1502 1501 119 0
-1502 -1501 -119 0
1502 -1501 119 0
1502 1501 -119 0
-1503 1502 120 0
-1503 -1502 -120 0
1503 -1502 120 0
1503 1502 -120 0
-1504 1503 123 0
-1504 -1503 -123 0
1504 -1503 123 0
1504 1503 -123 0
-1505 1504 125 0
-1505 -1504 -125 0
1505 -1504 125 0
1505 1504 -125 0
-1506 1505 128 0
-1506 -1505 -128 0
1506 -1505 128 0
1506 1505 -128 0
-1507 1506 131 0
-1507 -1506 -131 0
1507 -1506 131 0
1507 1506 -131 0
-1508 1507 134 0
-1508 -1507 -134 0
1508 -1507 134 0
1508 1507 -134 0
-1509 1508 135 0
-1509 -1508 -135 0
1509 -1508 135 0
1509 1508 -135 0
-1510 1509 138 0
-1510 -1509 -138 0
1510 -1509 138 0
1510 1509 -138 0
-1511 1510 140 0
-1511 -1510 -140 0
1511 -1510 140 0
1511 1510 -140 0
-1512 1511 161 0
-1512 -1511 -161 0
1512 -1511 161 0
1512 1511 -161 0
-1513 1512 209 0
-1513 -1512 -209 0
1513 -1512 209 0
1513 1512 -209 0
-1514 1513 221 0
-1514 -1513 -221 0
1514 -1513 221 0
1514 1513 -221 0
-1515 1514 227 0
-1515 -1514 -227 0
1515 -1514 227 0
1515 1514 -227 0
-1516 1515 229 0
-1516 -1515 -229 0
1516 -1515 229 0
1516 1515 -229 0
-1517 1516 234 0
-1517 -1516 -234 0
1517 -1516 234 0
1517 1516 -234 0
-1518 1517 235 0
-1518 -1517 -235 0
1518 -1517 235 0
1518 1517 -235 0
-1519 1518 240 0
-1519 -1518 -240 0
1519 -1518 240 0
1519 1518 -240 0
-1520 1519 241 0
-1520 -1519 -241 0
1520 -1519 241 0
1520 1519 -241 0
-1521 1520 243 0
-1521 -1520 -243 0
1521 -1520 243 0
1521 1520 -243 0
-1522 1521 247 0
-1522 -1521 -247 0
1522 -1521 247 0
1522 1521 -247 0
-1523 1522 249 0
-1523 -1522 -249 0
1523 -1522 249 0
1523 1522 -249 0
-1524 1523 254 0
-1524 -1523 -254 0
1524 -1523 254 0
1524 1523 -254 0
-1525 1524 255 0
-1525 -1524 -255 0
1525 -1524 255 0
1525 1524 -255 0
-1526 1525 256 0
-1526 -1525 -256 0
1526 -1525 256 0
1526 1525 -256 0
-1527 1526 257 0
-1527 -1526 -257 0
1527 -1526 257 0
1527 1526 -257 0
-1528 1527 259 0
-1528 -1527 -259 0
1528 -1527 259 0
1528 1527 -259 0
-1529 1528 260 0
-1529 -1528 -260 0
1529 -1528 260 0
1529 1528 -260 0
-1530 1529 261 0
-1530 -1529 -261 0
1530 -1529 261 0
1530 1529 -261 0
-1531 1530 262 0
-1531 -1530 -262 0
1531 -1530 262 0
1531 1530 -262 0
-1532 1531 263 0
-1532 -1531 -263 0
1532 -1531 263 0
1532 1531 -263 0
-1533 1532 265 0
-1533 -1532 -265 0
1533 -1532 265 0
1533 1532 -265 0
-1534 1533 271 0
-1534 -1533 -271 0
1534 -1533 271 0
1534 1533 -271 0
-1535 1534 278 0
-1535 -1534 -278 0
1535 -1534 278 0
1535 1534 -278 0
-1536 1535 279 0
-1536 -1535 -279 0
1536 -1535 279 0
1536 1535 -279 0
-1537 1536 283 0
-1537 -1536 -283 0
1537 -1536 283 0
1537 1536 -283 0
-1538 1537 284 0
-1538 -1537 -284 0
1538 -1537 284 0
1538 1537 -284 0
-1539 1538 285 0
-1539 -1538 -285 0
1539 -1538 285 0
1539 1538 -285 0
-1539 0
-1540 66 68 0
-1540 -66 -68 0
1540 -66 68 0
1540 66 -68 0
-1541 1540 69 0
-1541 -1540 -69 0
1541 -1540 69 0
1541 1540 -69 0
-1542 1541 71 0
-1542 -1541 -71 0
1542 -1541 71 0
1542 1541 -71 0
-1543 1542 83 0
-1543 -1542 -83 0
1543 -1542 83 0
1543 1542 -83 0
-1544 1543 85 0
-1544 -1543 -85 0
1544 -1543 85 0
1544 1543 -85 0
-1545 1544 89 0
-1545 -1544 -89 0
1545 -1544 89 0
1545 1544 -89 0
-1546 1545 91 0
-1546 -1545 -91 0
1546 -1545 91 0
1546 1545 -91 0
-1547 1546 93 0
-1547 -1546 -93 0
1547 -1546 93 0
1547 1546 -93 0
-1548 1547 95 0
-1548 -1547 -95 0
1548 -1547 95 0
1548 1547 -95 0
-1549 1548 96 0
-1549 -1548 -96 0
1549 -1548 96 0
1549 1548 -96 0
-1550 1549 97 0
-1550 -1549 -97 0
1550 -1549 97 0
1550 1549 -97 0
-1551 1550 98 0
-1551 -1550 -98 0
1551 -1550 98 0
1551 1550 -98 0
-1552 1551 99 0
-1552 -1551 -99 0
1552 -1551 99 0
1552 1551 -99 0
-1553 1552 100 0
-1553 -1552 -100 0
1553 -1552 100 0
1553 1552 -100 0
-1554 1553 101 0
-1554 -1553 -101 0
1554 -1553 101 0
1554 1553 -101 0
-1555 1554 103 0
-1555 -1554 -103 0
1555 -1554 103 0
1555 1554 -103 0
-1556 1555 106 0
-1556 -1555 -106 0
1556 -1555 106 0
1556 1555 -106 0
-1557 1556 107 0
-1557 -1556 -107 0
1557 -1556 107 0
1557 1556 -107 0
-1558 1557 109 0
-1558 -1557 -109 0
1558 -1557 109 0
1558 1557 -109 0
-1559 1558 117 0
-1559 -1558 -117 0
1559 -1558 117 0
1559 1558 -117 0
-1560 1559 118 0
-1560 -1559 -118 0
1560 -1559 118 0
1560 1559 -118 0
-1561 1560 119 0
-1561 -1560 -119 0
1561 -1560 119 0
1561 1560 -119 0
-1562 1561 125 0
-1562 -1561 -125 0
1562 -1561 125 0
1562 1561 -125 0
-1563 1562 127 0
-1563 -1562 -127 0
1563 -1562 127 0
1563 1562 -127 0
-1564 1563 128 0
-1564 -1563 -128 0
1564 -1563 128 0
1564 1563 -128 0
-1565 1564 130 0
-1565 -1564 -130 0
1565 -1564 130 0
1565 1564 -130 0
-1566 1565 131 0
-1566 -1565 -131 0
1566 -1565 131 0
1566 1565 -131 0
-1567 1566 133 0
-1567 -1566 -133 0
1567 -1566 133 0
1567 1566 -133 0
-1568 1567 134 0
-1568 -1567 -134 0
1568 -1567 134 0
1568 1567 -134 0
-1569 1568 141 0
-1569 -1568 -141 0
1569 -1568 141 0
1569 1568 -141 0
-1570 1569 142 0
-1570 -1569 -142 0
1570 -1569 142 0
1570 1569 -142 0
-1571 1570 143 0
-1571 -1570 -143 0
1571 -1570 143 0
1571 1570 -143 0
-1572 1571 144 0
-1572 -1571 -144 0
1572 -1571 144 0
1572 1571 -144 0
-1573 1572 162 0
-1573 -1572 -162 0
1573 -1572 162 0
1573 1572 -162 0
-1574 1573 210 0
-1574 -1573 -210 0
1574 -1573 210 0
1574 1573 -210 0
-1575 1574 222 0
-1575 -1574 -222 0
1575 -1574 222 0
1575 1574 -222 0
-1576 1575 228 0
-1576 -1575 -228 0
1576 -1575 228 0
1576 1575 -228 0
-1577 1576 229 0
-1577 -1576 -229 0
1577 -1576 229 0
1577 1576 -229 0
-1578 1577 230 0
-1578 -1577 -230 0
1578 -1577 230 0
1578 1577 -230 0
-1579 1578 235 0
-1579 -1578 -235 0
1579 -1578 235 0
1579 1578 -235 0
-1580 1579 236 0
-1580 -1579 -236 0
1580 -1579 236 0
1580 1579 -236 0
-1581 1580 242 0
-1581 -1580 -242 0
1581 -1580 242 0
1581 1580 -242 0
-1582 1581 244 0
-1582 -1581 -244 0
1582 -1581 244 0
1582 1581 -244 0
-1583 1582 248 0
-1583 -1582 -248 0
1583 -1582 248 0
1583 1582 -248 0
-1584 1583 250 0
-1584 -1583 -250 0
1584 -1583 250 0
1584 1583 -250 0
-1585 1584 255 0
-1585 -1584 -255 0
1585 -1584 255 0
1585 1584 -255 0
-1586 1585 256 0
-1586 -1585 -256 0
1586 -1585 256 0
1586 1585 -256 0
-1587 1586 257 0
-1587 -1586 -257 0
1587 -1586 257 0
1587 1586 -257 0
-1588 1587 258 0
-1588 -1587 -258 0
1588 -1587 258 0
1588 1587 -258 0
-1589 1588 260 0
-1589 -1588 -260 0
1589 -1588 260 0
1589 1588 -260 0
-1590 1589 261 0
-1590 -1589 -261 0
1590 -1589 261 0
1590 1589 -261 0
-1591 1590 262 0
-1591 -1590 -262 0
1591 -1590 262 0
1591 1590 -262 0
-1592 1591 263 0
-1592 -1591 -263 0
1592 -1591 263 0
1592 1591 -263 0
-1593 1592 264 0
-1593 -1592 -264 0
1593 -1592 264 0
1593 1592 -264 0
-1594 1593 266 0
-1594 -1593 -266 0
1594 -1593 266 0
1594 1593 -266 0
-1595 1594 272 0
-1595 -1594 -272 0
1595 -1594 272 0
1595 1594 -272 0
-1596 1595 279 0
-1596 -1595 -279 0
1596 -1595 279 0
1596 1595 -279 0
-1597 1596 280 0
-1597 -1596 -280 0
1597 -1596 280 0
1597 1596 -280 0
-1598 1597 284 0
-1598 -1597 -284 0
1598 -1597 284 0
1598 1597 -284 0
-1599 1598 285 0
-1599 -1598 -285 0
1599 -1598 285 0
1599 1598 -285 0
-1600 1599 286 0
-1600 -1599 -286 0
1600 -1599 286 0
1600 1599 -286 0
-1600 0
-1601 61 64 0
-1601 -61 -64 0
1601 -61 64 0
1601 61 -64 0
-1602 1601 66 0
-1602 -1601 -66 0
1602 -1601 66 0
1602 1601 -66 0
-1603 1602 72 0
-1603 -1602 -72 0
1603 -1602 72 0
1603 1602 -72 0
-1604 1603 84 0
-1604 -1603 -84 0
1604 -1603 84 0
1604 1603 -84 0
-1605 1604 85 0
-1605 -1604 -85 0
1605 -1604 85 0
1605 1604 -85 0
-1606 1605 86 0
-1606 -1605 -86 0
1606 -1605 86 0
1606 1605 -86 0
-1607 1606 88 0
-1607 -1606 -88 0
1607 -1606 88 0
1607 1606 -88 0
-1608 1607 89 0
-1608 -1607 -89 0
1608 -1607 89 0
1608 1607 -89 0
-1609 1608 90 0
-1609 -1608 -90 0
1609 -1608 90 0
1609 1608 -90 0
-1610 1609 91 0
-1610 -1609 -91 0
1610 -1609 91 0
1610 1609 -91 0
-1611 1610 95 0
-1611 -1610 -95 0
1611 -1610 95 0
1611 1610 -95 0
-1612 1611 96 0
-1612 -1611 -96 0
1612 -1611 96 0
1612 1611 -96 0
-1613 1612 98 0
-1613 -1612 -98 0
1613 -1612 98 0
1613 1612 -98 0
-1614 1613 99 0
-1614 -1613 -99 0
1614 -1613 99 0
1614 1613 -99 0
-1615 1614 102 0
-1615 -1614 -102 0
1615 -1614 102 0
1615 1614 -102 0
-1616 1615 104 0
-1616 -1615 -104 0
1616 -1615 104 0
1616 1615 -104 0
-1617 1616 105 0
-1617 -1616 -105 0
1617 -1616 105 0
1617 1616 -105 0
-1618 1617 106 0
-1618 -1617 -106 0
1618 -1617 106 0
1618 1617 -106 0
-1619 1618 107 0
-1619 -1618 -107 0
1619 -1618 107 0
1619 1618 -107 0
-1620 1619 108 0
-1620 -1619 -108 0
1620 -1619 108 0
1620 1619 -108 0
-1621 1620 109 0
-1621 -1620 -109 0
1621 -1620 109 0
1621 1620 -109 0
-1622 1621 110 0
-1622 -1621 -110 0
1622 -1621 110 0
1622 1621 -110 0
-1623 1622 111 0
-1623 -1622 -111 0
1623 -1622 111 0
1623 1622 -111 0
-1624 1623 112 0
-1624 -1623 -112 0
1624 -1623 112 0
1624 1623 -112 0
-1625 1624 114 0
-1625 -1624 -114 0
1625 -1624 114 0
1625 1624 -114 0
-1626 1625 115 0
-1626 -1625 -115 0
1626 -1625 115 0
1626 1625 -115 0
-1627 1626 116 0
-1627 -1626 -116 0
1627 -1626 116 0
1627 1626 -116 0
-1628 1627 119 0
-1628 -1627 -119 0
1628 -1627 119 0
1628 1627 -119 0
-1629 1628 120 0
-1629 -1628 -120 0
1629 -1628 120 0
1629 1628 -120 0
-1630 1629 124 0
-1630 -1629 -124 0
1630 -1629 124 0
1630 1629 -124 0
-1631 1630 125 0
-1631 -1630 -125 0
1631 -1630 125 0
1631 1630 -125 0
-1632 1631 126 0
-1632 -1631 -126 0
1632 -1631 126 0
1632 1631 -126 0
-1633 1632 127 0
-1633 -1632 -127 0
1633 -1632 127 0
1633 1632 -127 0
-1634 1633 128 0
-1634 -1633 -128 0
1634 -1633 128 0
1634 1633 -128 0
-1635 1634 129 0
-1635 -1634 -129 0
1635 -1634 129 0
1635 1634 -129 0
-1636 1635 130 0
-1636 -1635 -130 0
1636 -1635 130 0
1636 1635 -130 0
-1637 1636 133 0
-1637 -1636 -133 0
1637 -1636 133 0
1637 1636 -133 0
-1638 1637 134 0
-1638 -1637 -134 0
1638 -1637 134 0
1638 1637 -134 0
-1639 1638 135 0
-1639 -1638 -135 0
1639 -1638 135 0
1639 1638 -135 0
-1640 1639 136 0
-1640 -1639 -136 0
1640 -1639 136 0
1640 1639 -136 0
-1641 1640 137 0
-1641 -1640 -137 0
1641 -1640 137 0
1641 1640 -137 0
-1642 1641 140 0
-1642 -1641 -140 0
1642 -1641 140 0
1642 1641 -140 0
-1643 1642 144 0
-1643 -1642 -144 0
1643 -1642 144 0
1643 1642 -144 0
-1644 1643 163 0
-1644 -1643 -163 0
1644 -1643 163 0
1644 1643 -163 0
-1645 1644 213 0
-1645 -1644 -213 0
1645 -1644 213 0
1645 1644 -213 0
-1646 1645 215 0
-1646 -1645 -215 0
1646 -1645 215 0
1646 1645 -215 0
-1647 1646 221 0
-1647 -1646 -221 0
1647 -1646 221 0
1647 1646 -221 0
-1648 1647 225 0
-1648 -1647 -225 0
1648 -1647 225 0
1648 1647 -225 0
-1649 1648 229 0
-1649 -1648 -229 0
1649 -1648 229 0
1649 1648 -229 0
-1650 1649 232 0
-1650 -1649 -232 0
1650 -1649 232 0
1650 1649 -232 0
-1651 1650 234 0
-1651 -1650 -234 0
1651 -1650 234 0
1651 1650 -234 0
-1652 1651 238 0
-1652 -1651 -238 0
1652 -1651 238 0
1652 1651 -238 0
-1653 1652 239 0
-1653 -1652 -239 0
1653 -1652 239 0
1653 1652 -239 0
-1654 1653 241 0
-1654 -1653 -241 0
1654 -1653 241 0
1654 1653 -241 0
-1655 1654 243 0
-1655 -1654 -243 0
1655 -1654 243 0
1655 1654 -243 0
-1656 1655 245 0
-1656 -1655 -245 0
1656 -1655 245 0
1656 1655 -245 0
-1657 1656 246 0
-1657 -1656 -246 0
1657 -1656 246 0
1657 1656 -246 0
-1658 1657 247 0
-1658 -1657 -247 0
1658 -1657 247 0
1658 1657 -247 0
-1659 1658 251 0
-1659 -1658 -251 0
1659 -1658 251 0
1659 1658 -251 0
-1660 1659 255 0
-1660 -1659 -255 0
1660 -1659 255 0
1660 1659 -255 0
-1661 1660 256 0
-1661 -1660 -256 0
1661 -1660 256 0
1661 1660 -256 0
-1662 1661 257 0
-1662 -1661 -257 0
1662 -1661 257 0
1662 1661 -257 0
-1663 1662 258 0
-1663 -1662 -258 0
1663 -1662 258 0
1663 1662 -258 0
-1664 1663 259 0
-1664 -1663 -259 0
1664 -1663 259 0
1664 1663 -259 0
-1665 1664 260 0
-1665 -1664 -260 0
1665 -1664 260 0
1665 1664 -260 0
-1666 1665 261 0
-1666 -1665 -261 0
1666 -1665 261 0
1666 1665 -261 0
-1667 1666 264 0
-1667 -1666 -264 0
1667 -1666 264 0
1667 1666 -264 0
-1668 1667 265 0
-1668 -1667 -265 0
1668 -1667 265 0
1668 1667 -265 0
-1669 1668 266 0
-1669 -1668 -266 0
1669 -1668 266 0
1669 1668 -266 0
-1670 1669 268 0
-1670 -1669 -268 0
1670 -1669 268 0
1670 1669 -268 0
-1671 1670 269 0
-1671 -1670 -269 0
1671 -1670 269 0
1671 1670 -269 0
-1672 1671 273 0
-1672 -1671 -273 0
1672 -1671 273 0
1672 1671 -273 0
-1673 1672 275 0
-1673 -1672 -275 0
1673 -1672 275 0
1673 1672 -275 0
-1674 1673 277 0
-1674 -1673 -277 0
1674 -1673 277 0
1674 1673 -277 0
-1675 1674 280 0
-1675 -1674 -280 0
1675 -1674 280 0
1675 1674 -280 0
-1676 1675 281 0
-1676 -1675 -281 0
1676 -1675 281 0
1676 1675 -281 0
-1677 1676 282 0
-1677 -1676 -282 0
1677 -1676 282 0
1677 1676 -282 0
-1678 1677 283 0
-1678 -1677 -283 0
1678 -1677 283 0
1678 1677 -283 0
-1679 1678 286 0
-1679 -1678 -286 0
1679 -1678 286 0
1679 1678 -286 0
-1680 1679 287 0
-1680 -1679 -287 0
1680 -1679 287 0
1680 1679 -287 0
-1681 1680 288 0
-1681 -1680 -288 0
1681 -1680 288 0
1681 1680 -288 0
-1681 0
-1682 61 62 0
-1682 -61 -62 0
1682 -61 62 0
1682 61 -62 0
-1683 1682 65 0
-1683 -1682 -65 0
1683 -1682 65 0
1683 1682 -65 0
-1684 1683 67 0
-1684 -1683 -67 0
1684 -1683 67 0
1684 1683 -67 0
-1685 1684 83 0
-1685 -1684 -83 0
1685 -1684 83 0
1685 1684 -83 0
-1686 1685 84 0
-1686 -1685 -84 0
1686 -1685 84 0
1686 1685 -84 0
-1687 1686 85 0
-1687 -1686 -85 0
1687 -1686 85 0
1687 1686 -85 0
-1688 1687 86 0
-1688 -1687 -86 0
1688 -1687 86 0
1688 1687 -86 0
-1689 1688 87 0
-1689 -1688 -87 0
1689 -1688 87 0
1689 1688 -87 0
-1690 1689 88 0
-1690 -1689 -88 0
1690 -1689 88 0
1690 1689 -88 0
-1691 1690 93 0
-1691 -1690 -93 0
1691 -1690 93 0
1691 1690 -93 0
-1692 1691 94 0
-1692 -1691 -94 0
1692 -1691 94 0
1692 1691 -94 0
-1693 1692 95 0
-1693 -1692 -95 0
1693 -1692 95 0
1693 1692 -95 0
-1694 1693 97 0
-1694 -1693 -97 0
1694 -1693 97 0
1694 1693 -97 0
-1695 1694 98 0
-1695 -1694 -98 0
1695 -1694 98 0
1695 1694 -98 0
-1696 1695 103 0
-1696 -1695 -103 0
1696 -1695 103 0
1696 1695 -103 0
-1697 1696 105 0
-1697 -1696 -105 0
1697 -1696 105 0
1697 1696 -105 0
-1698 1697 109 0
-1698 -1697 -109 0
1698 -1697 109 0
1698 1697 -109 0
-1699 1698 110 0
-1699 -1698 -110 0
1699 -1698 110 0
1699 1698 -110 0
-1700 1699 111 0
-1700 -1699 -111 0
1700 -1699 111 0
1700 1699 -111 0
-1701 1700 112 0
-1701 -1700 -112 0
1701 -1700 112 0
1701 1700 -112 0
-1702 1701 113 0
-1702 -1701 -113 0
1702 -1701 113 0
1702 1701 -113 0
-1703 1702 116 0
-1703 -1702 -116 0
1703 -1702 116 0
1703 1702 -116 0
-1704 1703 117 0
-1704 -1703 -117 0
1704 -1703 117 0
1704 1703 -117 0
-1705 1704 119 0
-1705 -1704 -119 0
1705 -1704 119 0
1705 1704 -119 0
-1706 1705 121 0
-1706 -1705 -121 0
1706 -1705 121 0
1706 1705 -121 0
-1707 1706 124 0
-1707 -1706 -124 0
1707 -1706 124 0
1707 1706 -124 0
-1708 1707 127 0
-1708 -1707 -127 0
1708 -1707 127 0
1708 1707 -127 0
-1709 1708 132 0
-1709 -1708 -132 0
1709 -1708 132 0
1709 1708 -132 0
-1710 1709 137 0
-1710 -1709 -137 0
1710 -1709 137 0
1710 1709 -137 0
-1711 1710 138 0
-1711 -1710 -138 0
1711 -1710 138 0
1711 1710 -138 0
-1712 1711 139 0
-1712 -1711 -139 0
1712 -1711 139 0
1712 1711 -139 0
-1713 1712 141 0
-1713 -1712 -141 0
1713 -1712 141 0
1713 1712 -141 0
-1714 1713 142 0
-1714 -1713 -142 0
1714 -1713 142 0
1714 1713 -142 0
-1715 1714 143 0
-1715 -1714 -143 0
1715 -1714 143 0
1715 1714 -143 0
-1716 1715 144 0
-1716 -1715 -144 0
1716 -1715 144 0
1716 1715 -144 0
-1717 1716 164 0
-1717 -1716 -164 0
1717 -1716 164 0
1717 1716 -164 0
-1718 1717 214 0
-1718 -1717 -214 0
1718 -1717 214 0
1718 1717 -214 0
-1719 1718 216 0
-1719 -1718 -216 0
1719 -1718 216 0
1719 1718 -216 0
-1720 1719 222 0
-1720 -1719 -222 0
1720 -1719 222 0
1720 1719 -222 0
-1721 1720 226 0
-1721 -1720 -226 0
1721 -1720 226 0
1721 1720 -226 0
-1722 1721 229 0
-1722 -1721 -229 0
1722 -1721 229 0
1722 1721 -229 0
-1723 1722 230 0
-1723 -1722 -230 0
1723 -1722 230 0
1723 1722 -230 0
-1724 1723 233 0
-1724 -1723 -233 0
1724 -1723 233 0
1724 1723 -233 0
-1725 1724 239 0
-1725 -1724 -239 0
1725 -1724 239 0
1725 1724 -239 0
-1726 1725 240 0
-1726 -1725 -240 0
1726 -1725 240 0
1726 1725 -240 0
-1727 1726 241 0
-1727 -1726 -241 0
1727 -1726 241 0
1727 1726 -241 0
-1728 1727 242 0
-1728 -1727 -242 0
1728 -1727 242 0
1728 1727 -242 0
-1729 1728 244 0
-1729 -1728 -244 0
1729 -1728 244 0
1729 1728 -244 0
-1730 1729 246 0
-1730 -1729 -246 0
1730 -1729 246 0
1730 1729 -246 0
-1731 1730 248 0
-1731 -1730 -248 0
1731 -1730 248 0
1731 1730 -248 0
-1732 1731 252 0
-1732 -1731 -252 0
1732 -1731 252 0
1732 1731 -252 0
-1733 1732 253 0
-1733 -1732 -253 0
1733 -1732 253 0
1733 1732 -253 0
-1734 1733 256 0
-1734 -1733 -256 0
1734 -1733 256 0
1734 1733 -256 0
-1735 1734 257 0
-1735 -1734 -257 0
1735 -1734 257 0
1735 1734 -257 0
-1736 1735 258 0
-1736 -1735 -258 0
1736 -1735 258 0
1736 1735 -258 0
-1737 1736 259 0
-1737 -1736 -259 0
1737 -1736 259 0
1737 1736 -259 0
-1738 1737 260 0
-1738 -1737 -260 0
1738 -1737 260 0
1738 1737 -260 0
-1739 1738 261 0
-1739 -1738 -261 0
1739 -1738 261 0
1739 1738 -261 0
-1740 1739 262 0
-1740 -1739 -262 0
1740 -1739 262 0
1740 1739 -262 0
-1741 1740 266 0
-1741 -1740 -266 0
1741 -1740 266 0
1741 1740 -266 0
-1742 1741 267 0
-1742 -1741 -267 0
1742 -1741 267 0
1742 1741 -267 0
-1743 1742 269 0
-1743 -1742 -269 0
1743 -1742 269 0
1743 1742 -269 0
-1744 1743 270 0
-1744 -1743 -270 0
1744 -1743 270 0
1744 1743 -270 0
-1745 1744 274 0
-1745 -1744 -274 0
1745 -1744 274 0
1745 1744 -274 0
-1746 1745 276 0
-1746 -1745 -276 0
1746 -1745 276 0
1746 1745 -276 0
-1747 1746 277 0
-1747 -1746 -277 0
1747 -1746 277 0
1747 1746 -277 0
-1748 1747 278 0
-1748 -1747 -278 0
1748 -1747 278 0
1748 1747 -278 0
-1749 1748 281 0
-1749 -1748 -281 0
1749 -1748 281 0
1749 1748 -281 0
-1750 1749 282 0
-1750 -1749 -282 0
1750 -1749 282 0
1750 1749 -282 0
-1751 1750 283 0
-1751 -1750 -283 0
1751 -1750 283 0
1751 1750 -283 0
-1752 1751 284 0
-1752 -1751 -284 0
1752 -1751 284 0
1752 1751 -284 0
-1753 1752 287 0
-1753 -1752 -287 0
1753 -1752 287 0
1753 1752 -287 0
-1754 1753 288 0
-1754 -1753 -288 0
1754 -1753 288 0
1754 1753 -288 0
-1754 0
-1755 61 64 0
-1755 -61 -64 0
1755 -61 64 0
1755 61 -64 0
-1756 1755 65 0
-1756 -1755 -65 0
1756 -1755 65 0
1756 1755 -65 0
-1757 1756 70 0
-1757 -1756 -70 0
1757 -1756 70 0
1757 1756 -70 0
-1758 1757 72 0
-1758 -1757 -72 0
1758 -1757 72 0
1758 1757 -72 0
-1759 1758 84 0
-1759 -1758 -84 0
1759 -1758 84 0
1759 1758 -84 0
-1760 1759 86 0
-1760 -1759 -86 0
1760 -1759 86 0
1760 1759 -86 0
-1761 1760 87 0
-1761 -1760 -87 0
1761 -1760 87 0
1761 1760 -87 0
-1762 1761 91 0
-1762 -1761 -91 0
1762 -1761 91 0
1762 1761 -91 0
-1763 1762 94 0
-1763 -1762 -94 0
1763 -1762 94 0
1763 1762 -94 0
-1764 1763 99 0
-1764 -1763 -99 0
1764 -1763 99 0
1764 1763 -99 0
-1765 1764 100 0
-1765 -1764 -100 0
1765 -1764 100 0
1765 1764 -100 0
-1766 1765 101 0
-1766 -1765 -101 0
1766 -1765 101 0
1766 1765 -101 0
-1767 1766 105 0
-1767 -1766 -105 0
1767 -1766 105 0
1767 1766 -105 0
-1768 1767 108 0
-1768 -1767 -108 0
1768 -1767 108 0
1768 1767 -108 0
-1769 1768 110 0
-1769 -1768 -110 0
1769 -1768 110 0
1769 1768 -110 0
-1770 1769 112 0
-1770 -1769 -112 0
1770 -1769 112 0
1770 1769 -112 0
-1771 1770 113 0
-1771 -1770 -113 0
1771 -1770 113 0
1771 1770 -113 0
-1772 1771 115 0
-1772 -1771 -115 0
1772 -1771 115 0
1772 1771 -115 0
-1773 1772 118 0
-1773 -1772 -118 0
1773 -1772 118 0
1773 1772 -118 0
-1774 1773 121 0
-1774 -1773 -121 0
1774 -1773 121 0
1774 1773 -121 0
-1775 1774 125 0
-1775 -1774 -125 0
1775 -1774 125 0
1775 1774 -125 0
-1776 1775 129 0
-1776 -1775 -129 0
1776 -1775 129 0
1776 1775 -129 0
-1777 1776 130 0
-1777 -1776 -130 0
1777 -1776 130 0
1777 1776 -130 0
-1778 1777 131 0
-1778 -1777 -131 0
1778 -1777 131 0
1778 1777 -131 0
-1779 1778 132 0
-1779 -1778 -132 0
1779 -1778 132 0
1779 1778 -132 0
-1780 1779 133 0
-1780 -1779 -133 0
1780 -1779 133 0
1780 1779 -133 0
-1781 1780 134 0
-1781 -1780 -134 0
1781 -1780 134 0
1781 1780 -134 0
-1782 1781 135 0
-1782 -1781 -135 0
1782 -1781 135 0
1782 1781 -135 0
-1783 1782 136 0
-1783 -1782 -136 0
1783 -1782 136 0
1783 1782 -136 0
-1784 1783 137 0
-1784 -1783 -137 0
1784 -1783 137 0
1784 1783 -137 0
-1785 1784 139 0
-1785 -1784 -139 0
1785 -1784 139 0
1785 1784 -139 0
-1786 1785 143 0
-1786 -1785 -143 0
1786 -1785 143 0
1786 1785 -143 0
-1787 1786 144 0
-1787 -1786 -144 0
1787 -1786 144 0
1787 1786 -144 0
-1788 1787 165 0
-1788 -1787 -165 0
1788 -1787 165 0
1788 1787 -165 0
-1789 1788 213 0
-1789 -1788 -213 0
1789 -1788 213 0
1789 1788 -213 0
-1790 1789 222 0
-1790 -1789 -222 0
1790 -1789 222 0
1790 1789 -222 0
-1791 1790 226 0
-1791 -1790 -226 0
1791 -1790 226 0
1791 1790 -226 0
-1792 1791 227 0
-1792 -1791 -227 0
1792 -1791 227 0
1792 1791 -227 0
-1793 1792 228 0
-1793 -1792 -228 0
1793 -1792 228 0
1793 1792 -228 0
-1794 1793 229 0
-1794 -1793 -229 0
1794 -1793 229 0
1794 1793 -229 0
-1795 1794 230 0
-1795 -1794 -230 0
1795 -1794 230 0
1795 1794 -230 0
-1796 1795 234 0
-1796 -1795 -234 0
1796 -1795 234 0
1796 1795 -234 0
-1797 1796 236 0
-1797 -1796 -236 0
1797 -1796 236 0
1797 1796 -236 0
-1798 1797 239 0
-1798 -1797 -239 0
1798 -1797 239 0
1798 1797 -239 0
-1799 1798 241 0
-1799 -1798 -241 0
1799 -1798 241 0
1799 1798 -241 0
-1800 1799 244 0
-1800 -1799 -244 0
1800 -1799 244 0
1800 1799 -244 0
-1801 1800 247 0
-1801 -1800 -247 0
1801 -1800 247 0
1801 1800 -247 0
-1802 1801 249 0
-1802 -1801 -249 0
1802 -1801 249 0
1802 1801 -249 0
-1803 1802 250 0
-1803 -1802 -250 0
1803 -1802 250 0
1803 1802 -250 0
-1804 1803 252 0
-1804 -1803 -252 0
1804 -1803 252 0
1804 1803 -252 0
-1805 1804 254 0
-1805 -1804 -254 0
1805 -1804 254 0
1805 1804 -254 0
-1806 1805 255 0
-1806 -1805 -255 0
1806 -1805 255 0
1806 1805 -255 0
-1807 1806 257 0
-1807 -1806 -257 0
1807 -1806 257 0
1807 1806 -257 0
-1808 1807 258 0
-1808 -1807 -258 0
1808 -1807 258 0
1808 1807 -258 0
-1809 1808 259 0
-1809 -1808 -259 0
1809 -1808 259 0
1809 1808 -259 0
-1810 1809 261 0
-1810 -1809 -261 0
1810 -1809 261 0
1810 1809 -261 0
-1811 1810 262 0
-1811 -1810 -262 0
1811 -1810 262 0
1811 1810 -262 0
-1812 1811 264 0
-1812 -1811 -264 0
1812 -1811 264 0
1812 1811 -264 0
-1813 1812 266 0
-1813 -1812 -266 0
1813 -1812 266 0
1813 1812 -266 0
-1814 1813 267 0
-1814 -1813 -267 0
1814 -1813 267 0
1814 1813 -267 0
-1815 1814 270 0
-1815 -1814 -270 0
1815 -1814 270 0
1815 1814 -270 0
-1816 1815 273 0
-1816 -1815 -273 0
1816 -1815 273 0
1816 1815 -273 0
-1817 1816 274 0
-1817 -1816 -274 0
1817 -1816 274 0
1817 1816 -274 0
-1818 1817 276 0
-1818 -1817 -276 0
1818 -1817 276 0
1818 1817 -276 0
-1819 1818 277 0
-1819 -1818 -277 0
1819 -1818 277 0
1819 1818 -277 0
-1820 1819 278 0
-1820 -1819 -278 0
1820 -1819 278 0
1820 1819 -278 0
-1821 1820 279 0
-1821 -1820 -279 0
1821 -1820 279 0
1821 1820 -279 0
-1822 1821 281 0
-1822 -1821 -281 0
1822 -1821 281 0
1822 1821 -281 0
-1823 1822 282 0
-1823 -1822 -282 0
1823 -1822 282 0
1823 1822 -282 0
-1824 1823 283 0
-1824 -1823 -283 0
1824 -1823 283 0
1824 1823 -283 0
-1825 1824 284 0
-1825 -1824 -284 0
1825 -1824 284 0
1825 1824 -284 0
-1826 1825 286 0
-1826 -1825 -286 0
1826 -1825 286 0
1826 1825 -286 0
-1827 1826 288 0
-1827 -1826 -288 0
1827 -1826 288 0
1827 1826 -288 0
-1827 0
-1828 62 65 0
-1828 -62 -65 0
1828 -62 65 0
1828 62 -65 0
-1829 1828 66 0
-1829 -1828 -66 0
1829 -1828 66 0
1829 1828 -66 0
-1830 1829 67 0
-1830 -1829 -67 0
1830 -1829 67 0
1830 1829 -67 0
-1831 1830 71 0
-1831 -1830 -71 0
1831 -1830 71 0
1831 1830 -71 0
-1832 1831 84 0
-1832 -1831 -84 0
1832 -1831 84 0
1832 1831 -84 0
-1833 1832 85 0
-1833 -1832 -85 0
1833 -1832 85 0
1833 1832 -85 0
-1834 1833 89 0
-1834 -1833 -89 0
1834 -1833 89 0
1834 1833 -89 0
-1835 1834 91 0
-1835 -1834 -91 0
1835 -1834 91 0
1835 1834 -91 0
-1836 1835 94 0
-1836 -1835 -94 0
1836 -1835 94 0
1836 1835 -94 0
-1837 1836 98 0
-1837 -1836 -98 0
1837 -1836 98 0
1837 1836 -98 0
-1838 1837 105 0
-1838 -1837 -105 0
1838 -1837 105 0
1838 1837 -105 0
-1839 1838 107 0
-1839 -1838 -107 0
1839 -1838 107 0
1839 1838 -107 0
-1840 1839 110 0
-1840 -1839 -110 0
1840 -1839 110 0
1840 1839 -110 0
-1841 1840 115 0
-1841 -1840 -115 0
1841 -1840 115 0
1841 1840 -115 0
-1842 1841 117 0
-1842 -1841 -117 0
1842 -1841 117 0
1842 1841 -117 0
-1843 1842 121 0
-1843 -1842 -121 0
1843 -1842 121 0
1843 1842 -121 0
-1844 1843 124 0
-1844 -1843 -124 0
1844 -1843 124 0
1844 1843 -124 0
-1845 1844 129 0
-1845 -1844 -129 0
1845 -1844 129 0
1845 1844 -129 0
-1846 1845 131 0
-1846 -1845 -131 0
1846 -1845 131 0
1846 1845 -131 0
-1847 1846 134 0
-1847 -1846 -134 0
1847 -1846 134 0
1847 1846 -134 0
-1848 1847 137 0
-1848 -1847 -137 0
1848 -1847 137 0
1848 1847 -137 0
-1849 1848 138 0
-1849 -1848 -138 0
1849 -1848 138 0
1849 1848 -138 0
-1850 1849 142 0
-1850 -1849 -142 0
1850 -1849 142 0
1850 1849 -142 0
-1851 1850 166 0
-1851 -1850 -166 0
1851 -1850 166 0
1851 1850 -166 0
-1852 1851 214 0
-1852 -1851 -214 0
1852 -1851 214 0
1852 1851 -214 0
-1853 1852 221 0
-1853 -1852 -221 0
1853 -1852 221 0
1853 1852 -221 0
-1854 1853 228 0
-1854 -1853 -228 0
1854 -1853 228 0
1854 1853 -228 0
-1855 1854 234 0
-1855 -1854 -234 0
1855 -1854 234 0
1855 1854 -234 0
-1856 1855 235 0
-1856 -1855 -235 0
1856 -1855 235 0
1856 1855 -235 0
-1857 1856 236 0
-1857 -1856 -236 0
1857 -1856 236 0
1857 1856 -236 0
-1858 1857 241 0
-1858 -1857 -241 0
1858 -1857 241 0
1858 1857 -241 0
-1859 1858 242 0
-1859 -1858 -242 0
1859 -1858 242 0
1859 1858 -242 0
-1860 1859 248 0
-1860 -1859 -248 0
1860 -1859 248 0
1860 1859 -248 0
-1861 1860 250 0
-1861 -1860 -250 0
1861 -1860 250 0
1861 1860 -250 0
-1862 1861 254 0
-1862 -1861 -254 0
1862 -1861 254 0
1862 1861 -254 0
-1863 1862 256 0
-1863 -1862 -256 0
1863 -1862 256 0
1863 1862 -256 0
-1864 1863 261 0
-1864 -1863 -261 0
1864 -1863 261 0
1864 1863 -261 0
-1865 1864 262 0
-1865 -1864 -262 0
1865 -1864 262 0
1865 1864 -262 0
-1866 1865 263 0
-1866 -1865 -263 0
1866 -1865 263 0
1866 1865 -263 0
-1867 1866 264 0
-1867 -1866 -264 0
1867 -1866 264 0
1867 1866 -264 0
-1868 1867 267 0
-1868 -1867 -267 0
1868 -1867 267 0
1868 1867 -267 0
-1869 1868 268 0
-1869 -1868 -268 0
1869 -1868 268 0
1869 1868 -268 0
-1870 1869 269 0
-1870 -1869 -269 0
1870 -1869 269 0
1870 1869 -269 0
-1871 1870 274 0
-1871 -1870 -274 0
1871 -1870 274 0
1871 1870 -274 0
-1872 1871 280 0
-1872 -1871 -280 0
1872 -1871 280 0
1872 1871 -280 0
-1873 1872 287 0
-1873 -1872 -287 0
1873 -1872 287 0
1873 1872 -287 0
-1874 1873 288 0
-1874 -1873 -288 0
1874 -1873 288 0
1874 1873 -288 0
-1874 0
-1875 61 63 0
-1875 -61 -63 0
1875 -61 63 0
1875 61 -63 0
-1876 1875 66 0
-1876 -1875 -66 0
1876 -1875 66 0
1876 1875 -66 0
-1877 1876 68 0
-1877 -1876 -68 0
1877 -1876 68 0
1877 1876 -68 0
-1878 1877 72 0
-1878 -1877 -72 0
1878 -1877 72 0
1878 1877 -72 0
-1879 1878 83 0
-1879 -1878 -83 0
1879 -1878 83 0
1879 1878 -83 0
-1880 1879 84 0
-1880 -1879 -84 0
1880 -1879 84 0
1880 1879 -84 0
-1881 1880 87 0
-1881 -1880 -87 0
1881 -1880 87 0
1881 1880 -87 0
-1882 1881 88 0
-1882 -1881 -88 0
1882 -1881 88 0
1882 1881 -88 0
-1883 1882 90 0
-1883 -1882 -90 0
1883 -1882 90 0
1883 1882 -90 0
-1884 1883 97 0
-1884 -1883 -97 0
1884 -1883 97 0
1884 1883 -97 0
-1885 1884 98 0
-1885 -1884 -98 0
1885 -1884 98 0
1885 1884 -98 0
-1886 1885 99 0
-1886 -1885 -99 0
1886 -1885 99 0
1886 1885 -99 0
-1887 1886 102 0
-1887 -1886 -102 0
1887 -1886 102 0
1887 1886 -102 0
-1888 1887 103 0
-1888 -1887 -103 0
1888 -1887 103 0
1888 1887 -103 0
-1889 1888 104 0
-1889 -1888 -104 0
1889 -1888 104 0
1889 1888 -104 0
-1890 1889 106 0
-1890 -1889 -106 0
1890 -1889 106 0
1890 1889 -106 0
-1891 1890 111 0
-1891 -1890 -111 0
1891 -1890 111 0
1891 1890 -111 0
-1892 1891 115 0
-1892 -1891 -115 0
1892 -1891 115 0
1892 1891 -115 0
-1893 1892 116 0
-1893 -1892 -116 0
1893 -1892 116 0
1893 1892 -116 0
-1894 1893 118 0
-1894 -1893 -118 0
1894 -1893 118 0
1894 1893 -118 0
-1895 1894 119 0
-1895 -1894 -119 0
1895 -1894 119 0
1895 1894 -119 0
-1896 1895 120 0
-1896 -1895 -120 0
1896 -1895 120 0
1896 1895 -120 0
-1897 1896 123 0
-1897 -1896 -123 0
1897 -1896 123 0
1897 1896 -123 0
-1898 1897 124 0
-1898 -1897 -124 0
1898 -1897 124 0
1898 1897 -124 0
-1899 1898 125 0
-1899 -1898 -125 0
1899 -1898 125 0
1899 1898 -125 0
-1900 1899 128 0
-1900 -1899 -128 0
1900 -1899 128 0
1900 1899 -128 0
-1901 1900 130 0
-1901 -1900 -130 0
1901 -1900 130 0
1901 1900 -130 0
-1902 1901 131 0
-1902 -1901 -131 0
1902 -1901 131 0
1902 1901 -131 0
-1903 1902 132 0
-1903 -1902 -132 0
1903 -1902 132 0
1903 1902 -132 0
-1904 1903 134 0
-1904 -1903 -134 0
1904 -1903 134 0
1904 1903 -134 0
-1905 1904 135 0
-1905 -1904 -135 0
1905 -1904 135 0
1905 1904 -135 0
-1906 1905 139 0
-1906 -1905 -139 0
1906 -1905 139 0
1906 1905 -139 0
-1907 1906 140 0
-1907 -1906 -140 0
1907 -1906 140 0
1907 1906 -140 0
-1908 1907 143 0
-1908 -1907 -143 0
1908 -1907 143 0
1908 1907 -143 0
-1909 1908 144 0
-1909 -1908 -144 0
1909 -1908 144 0
1909 1908 -144 0
-1910 1909 167 0
-1910 -1909 -167 0
1910 -1909 167 0
1910 1909 -167 0
-1911 1910 215 0
-1911 -1910 -215 0
1911 -1910 215 0
1911 1910 -215 0
-1912 1911 222 0
-1912 -1911 -222 0
1912 -1911 222 0
1912 1911 -222 0
-1913 1912 225 0
-1913 -1912 -225 0
1913 -1912 225 0
1913 1912 -225 0
-1914 1913 226 0
-1914 -1913 -226 0
1914 -1913 226 0
1914 1913 -226 0
-1915 1914 228 0
-1915 -1914 -228 0
1915 -1914 228 0
1915 1914 -228 0
-1916 1915 229 0
-1916 -1915 -229 0
1916 -1915 229 0
1916 1915 -229 0
-1917 1916 235 0
-1917 -1916 -235 0
1917 -1916 235 0
1917 1916 -235 0
-1918 1917 236 0
-1918 -1917 -236 0
1918 -1917 236 0
1918 1917 -236 0
-1919 1918 238 0
-1919 -1918 -238 0
1919 -1918 238 0
1919 1918 -238 0
-1920 1919 240 0
-1920 -1919 -240 0
1920 -1919 240 0
1920 1919 -240 0
-1921 1920 242 0
-1921 -1920 -242 0
1921 -1920 242 0
1921 1920 -242 0
-1922 1921 243 0
-1922 -1921 -243 0
1922 -1921 243 0
1922 1921 -243 0
-1923 1922 247 0
-1923 -1922 -247 0
1923 -1922 247 0
1923 1922 -247 0
-1924 1923 250 0
-1924 -1923 -250 0
1924 -1923 250 0
1924 1923 -250 0
-1925 1924 251 0
-1925 -1924 -251 0
1925 -1924 251 0
1925 1924 -251 0
-1926 1925 252 0
-1926 -1925 -252 0
1926 -1925 252 0
1926 1925 -252 0
-1927 1926 255 0
-1927 -1926 -255 0
1927 -1926 255 0
1927 1926 -255 0
-1928 1927 257 0
-1928 -1927 -257 0
1928 -1927 257 0
1928 1927 -257 0
-1929 1928 261 0
-1929 -1928 -261 0
1929 -1928 261 0
1929 1928 -261 0
-1930 1929 263 0
-1930 -1929 -263 0
1930 -1929 263 0
1930 1929 -263 0
-1931 1930 268 0
-1931 -1930 -268 0
1931 -1930 268 0
1931 1930 -268 0
-1932 1931 269 0
-1932 -1931 -269 0
1932 -1931 269 0
1932 1931 -269 0
-1933 1932 270 0
-1933 -1932 -270 0
1933 -1932 270 0
1933 1932 -270 0
-1934 1933 271 0
-1934 -1933 -271 0
1934 -1933 271 0
1934 1933 -271 0
-1935 1934 273 0
-1935 -1934 -273 0
1935 -1934 273 0
1935 1934 -273 0
-1936 1935 274 0
-1936 -1935 -274 0
1936 -1935 274 0
1936 1935 -274 0
-1937 1936 275 0
-1937 -1936 -275 0
1937 -1936 275 0
1937 1936 -275 0
-1938 1937 276 0
-1938 -1937 -276 0
1938 -1937 276 0
1938 1937 -276 0
-1939 1938 281 0
-1939 -1938 -281 0
1939 -1938 281 0
1939 1938 -281 0
-1940 1939 285 0
-1940 -1939 -285 0
1940 -1939 285 0
1940 1939 -285 0
-1941 1940 286 0
-1941 -1940 -286 0
1941 -1940 286 0
1941 1940 -286 0
-1941 0
-1942 61 62 0
-1942 -61 -62 0
1942 -61 62 0
1942 61 -62 0
-1943 1942 64 0
-1943 -1942 -64 0
1943 -1942 64 0
1943 1942 -64 0
-1944 1943 67 0
-1944 -1943 -67 0
1944 -1943 67 0
1944 1943 -67 0
-1945 1944 69 0
-1945 -1944 -69 0
1945 -1944 69 0
1945 1944 -69 0
-1946 1945 87 0
-1946 -1945 -87 0
1946 -1945 87 0
1946 1945 -87 0
-1947 1946 91 0
-1947 -1946 -91 0
1947 -1946 91 0
1947 1946 -91 0
-1948 1947 92 0
-1948 -1947 -92 0
1948 -1947 92 0
1948 1947 -92 0
-1949 1948 94 0
-1949 -1948 -94 0
1949 -1948 94 0
1949 1948 -94 0
-1950 1949 95 0
-1950 -1949 -95 0
1950 -1949 95 0
1950 1949 -95 0
-1951 1950 97 0
-1951 -1950 -97 0
1951 -1950 97 0
1951 1950 -97 0
-1952 1951 99 0
-1952 -1951 -99 0
1952 -1951 99 0
1952 1951 -99 0
-1953 1952 101 0
-1953 -1952 -101 0
1953 -1952 101 0
1953 1952 -101 0
-1954 1953 102 0
-1954 -1953 -102 0
1954 -1953 102 0
1954 1953 -102 0
-1955 1954 103 0
-1955 -1954 -103 0
1955 -1954 103 0
1955 1954 -103 0
-1956 1955 104 0
-1956 -1955 -104 0
1956 -1955 104 0
1956 1955 -104 0
-1957 1956 106 0
-1957 -1956 -106 0
1957 -1956 106 0
1957 1956 -106 0
-1958 1957 110 0
-1958 -1957 -110 0
1958 -1957 110 0
1958 1957 -110 0
-1959 1958 111 0
-1959 -1958 -111 0
1959 -1958 111 0
1959 1958 -111 0
-1960 1959 112 0
-1960 -1959 -112 0
1960 -1959 112 0
1960 1959 -112 0
-1961 1960 113 0
-1961 -1960 -113 0
1961 -1960 113 0
1961 1960 -113 0
-1962 1961 114 0
-1962 -1961 -114 0
1962 -1961 114 0
1962 1961 -114 0
-1963 1962 120 0
-1963 -1962 -120 0
1963 -1962 120 0
1963 1962 -120 0
-1964 1963 121 0
-1964 -1963 -121 0
1964 -1963 121 0
1964 1963 -121 0
-1965 1964 122 0
-1965 -1964 -122 0
1965 -1964 122 0
1965 1964 -122 0
-1966 1965 125 0
-1966 -1965 -125 0
1966 -1965 125 0
1966 1965 -125 0
-1967 1966 130 0
-1967 -1966 -130 0
1967 -1966 130 0
1967 1966 -130 0
-1968 1967 131 0
-1968 -1967 -131 0
1968 -1967 131 0
1968 1967 -131 0
-1969 1968 141 0
-1969 -1968 -141 0
1969 -1968 141 0
1969 1968 -141 0
-1970 1969 142 0
-1970 -1969 -142 0
1970 -1969 142 0
1970 1969 -142 0
-1971 1970 168 0
-1971 -1970 -168 0
1971 -1970 168 0
1971 1970 -168 0
-1972 1971 216 0
-1972 -1971 -216 0
1972 -1971 216 0
1972 1971 -216 0
-1973 1972 221 0
-1973 -1972 -221 0
1973 -1972 221 0
1973 1972 -221 0
-1974 1973 226 0
-1974 -1973 -226 0
1974 -1973 226 0
1974 1973 -226 0
-1975 1974 229 0
-1975 -1974 -229 0
1975 -1974 229 0
1975 1974 -229 0
-1976 1975 231 0
-1976 -1975 -231 0
1976 -1975 231 0
1976 1975 -231 0
-1977 1976 234 0
-1977 -1976 -234 0
1977 -1976 234 0
1977 1976 -234 0
-1978 1977 239 0
-1978 -1977 -239 0
1978 -1977 239 0
1978 1977 -239 0
-1979 1978 240 0
-1979 -1978 -240 0
1979 -1978 240 0
1979 1978 -240 0
-1980 1979 241 0
-1980 -1979 -241 0
1980 -1979 241 0
1980 1979 -241 0
-1981 1980 243 0
-1981 -1980 -243 0
1981 -1980 243 0
1981 1980 -243 0
-1982 1981 244 0
-1982 -1981 -244 0
1982 -1981 244 0
1982 1981 -244 0
-1983 1982 245 0
-1983 -1982 -245 0
1983 -1982 245 0
1983 1982 -245 0
-1984 1983 248 0
-1984 -1983 -248 0
1984 -1983 248 0
1984 1983 -248 0
-1985 1984 252 0
-1985 -1984 -252 0
1985 -1984 252 0
1985 1984 -252 0
-1986 1985 253 0
-1986 -1985 -253 0
1986 -1985 253 0
1986 1985 -253 0
-1987 1986 254 0
-1987 -1986 -254 0
1987 -1986 254 0
1987 1986 -254 0
-1988 1987 255 0
-1988 -1987 -255 0
1988 -1987 255 0
1988 1987 -255 0
-1989 1988 256 0
-1989 -1988 -256 0
1989 -1988 256 0
1989 1988 -256 0
-1990 1989 259 0
-1990 -1989 -259 0
1990 -1989 259 0
1990 1989 -259 0
-1991 1990 260 0
-1991 -1990 -260 0
1991 -1990 260 0
1991 1990 -260 0
-1992 1991 261 0
-1992 -1991 -261 0
1992 -1991 261 0
1992 1991 -261 0
-1993 1992 262 0
-1993 -1992 -262 0
1993 -1992 262 0
1993 1992 -262 0
-1994 1993 270 0
-1994 -1993 -270 0
1994 -1993 270 0
1994 1993 -270 0
-1995 1994 272 0
-1995 -1994 -272 0
1995 -1994 272 0
1995 1994 -272 0
-1996 1995 274 0
-1996 -1995 -274 0
1996 -1995 274 0
1996 1995 -274 0
-1997 1996 276 0
-1997 -1996 -276 0
1997 -1996 276 0
1997 1996 -276 0
-1998 1997 277 0
-1998 -1997 -277 0
1998 -1997 277 0
1998 1997 -277 0
-1999 1998 278 0
-1999 -1998 -278 0
1999 -1998 278 0
1999 1998 -278 0
-2000 1999 279 0
-2000 -1999 -279 0
2000 -1999 279 0
2000 1999 -279 0
-2001 2000 283 0
-2001 -2000 -283 0
2001 -2000 283 0
2001 2000 -283 0
-2002 2001 284 0
-2002 -2001 -284 0
2002 -2001 284 0
2002 2001 -284 0
-2003 2002 285 0
-2003 -2002 -285 0
2003 -2002 285 0
2003 2002 -285 0
-2004 2003 286 0
-2004 -2003 -286 0
2004 -2003 286 0
2004 2003 -286 0
-2005 2004 287 0
-2005 -2004 -287 0
2005 -2004 287 0
2005 2004 -287 0
-2006 2005 288 0
-2006 -2005 -288 0
2006 -2005 288 0
2006 2005 -288 0
-2006 0
-2007 61 63 0
-2007 -61 -63 0
2007 -61 63 0
2007 61 -63 0
-2008 2007 64 0
-2008 -2007 -64 0
2008 -2007 64 0
2008 2007 -64 0
-2009 2008 66 0
-2009 -2008 -66 0
2009 -2008 66 0
2009 2008 -66 0
-2010 2009 83 0
-2010 -2009 -83 0
2010 -2009 83 0
2010 2009 -83 0
-2011 2010 84 0
-2011 -2010 -84 0
2011 -2010 84 0
2011 2010 -84 0
-2012 2011 85 0
-2012 -2011 -85 0
2012 -2011 85 0
2012 2011 -85 0
-2013 2012 86 0
-2013 -2012 -86 0
2013 -2012 86 0
2013 2012 -86 0
-2014 2013 87 0
-2014 -2013 -87 0
2014 -2013 87 0
2014 2013 -87 0
-2015 2014 88 0
-2015 -2014 -88 0
2015 -2014 88 0
2015 2014 -88 0
-2016 2015 90 0
-2016 -2015 -90 0
2016 -2015 90 0
2016 2015 -90 0
-2017 2016 91 0
-2017 -2016 -91 0
2017 -2016 91 0
2017 2016 -91 0
-2018 2017 94 0
-2018 -2017 -94 0
2018 -2017 94 0
2018 2017 -94 0
-2019 2018 95 0
-2019 -2018 -95 0
2019 -2018 95 0
2019 2018 -95 0
-2020 2019 97 0
-2020 -2019 -97 0
2020 -2019 97 0
2020 2019 -97 0
-2021 2020 98 0
-2021 -2020 -98 0
2021 -2020 98 0
2021 2020 -98 0
-2022 2021 101 0
-2022 -2021 -101 0
2022 -2021 101 0
2022 2021 -101 0
-2023 2022 107 0
-2023 -2022 -107 0
2023 -2022 107 0
2023 2022 -107 0
-2024 2023 108 0
-2024 -2023 -108 0
2024 -2023 108 0
2024 2023 -108 0
-2025 2024 111 0
-2025 -2024 -111 0
2025 -2024 111 0
2025 2024 -111 0
-2026 2025 115 0
-2026 -2025 -115 0
2026 -2025 115 0
2026 2025 -115 0
-2027 2026 117 0
-2027 -2026 -117 0
2027 -2026 117 0
2027 2026 -117 0
-2028 2027 120 0
-2028 -2027 -120 0
2028 -2027 120 0
2028 2027 -120 0
-2029 2028 122 0
-2029 -2028 -122 0
2029 -2028 122 0
2029 2028 -122 0
-2030 2029 123 0
-2030 -2029 -123 0
2030 -2029 123 0
2030 2029 -123 0
-2031 2030 125 0
-2031 -2030 -125 0
2031 -2030 125 0
2031 2030 -125 0
-2032 2031 129 0
-2032 -2031 -129 0
2032 -2031 129 0
2032 2031 -129 0
-2033 2032 131 0
-2033 -2032 -131 0
2033 -2032 131 0
2033 2032 -131 0
-2034 2033 134 0
-2034 -2033 -134 0
2034 -2033 134 0
2034 2033 -134 0
-2035 2034 135 0
-2035 -2034 -135 0
2035 -2034 135 0
2035 2034 -135 0
-2036 2035 140 0
-2036 -2035 -140 0
2036 -2035 140 0
2036 2035 -140 0
-2037 2036 141 0
-2037 -2036 -141 0
2037 -2036 141 0
2037 2036 -141 0
-2038 2037 143 0
-2038 -2037 -143 0
2038 -2037 143 0
2038 2037 -143 0
-2039 2038 144 0
-2039 -2038 -144 0
2039 -2038 144 0
2039 2038 -144 0
-2040 2039 169 0
-2040 -2039 -169 0
2040 -2039 169 0
2040 2039 -169 0
-2041 2040 207 0
-2041 -2040 -207 0
2041 -2040 207 0
2041 2040 -207 0
-2042 2041 208 0
-2042 -2041 -208 0
2042 -2041 208 0
2042 2041 -208 0
-2043 2042 210 0
-2043 -2042 -210 0
2043 -2042 210 0
2043 2042 -210 0
-2044 2043 225 0
-2044 -2043 -225 0
2044 -2043 225 0
2044 2043 -225 0
-2045 2044 233 0
-2045 -2044 -233 0
2045 -2044 233 0
2045 2044 -233 0
-2046 2045 239 0
-2046 -2045 -239 0
2046 -2045 239 0
2046 2045 -239 0
-2047 2046 241 0
-2047 -2046 -241 0
2047 -2046 241 0
2047 2046 -241 0
-2048 2047 246 0
-2048 -2047 -246 0
2048 -2047 246 0
2048 2047 -246 0
-2049 2048 247 0
-2049 -2048 -247 0
2049 -2048 247 0
2049 2048 -247 0
-2050 2049 252 0
-2050 -2049 -252 0
2050 -2049 252 0
2050 2049 -252 0
-2051 2050 253 0
-2051 -2050 -253 0
2051 -2050 253 0
2051 2050 -253 0
-2052 2051 255 0
-2052 -2051 -255 0
2052 -2051 255 0
2052 2051 -255 0
-2053 2052 259 0
-2053 -2052 -259 0
2053 -2052 259 0
2053 2052 -259 0
-2054 2053 260 0
-2054 -2053 -260 0
2054 -2053 260 0
2054 2053 -260 0
-2055 2054 261 0
-2055 -2054 -261 0
2055 -2054 261 0
2055 2054 -261 0
-2056 2055 263 0
-2056 -2055 -263 0
2056 -2055 263 0
2056 2055 -263 0
-2057 2056 264 0
-2057 -2056 -264 0
2057 -2056 264 0
2057 2056 -264 0
-2058 2057 265 0
-2058 -2057 -265 0
2058 -2057 265 0
2058 2057 -265 0
-2059 2058 267 0
-2059 -2058 -267 0
2059 -2058 267 0
2059 2058 -267 0
-2060 2059 269 0
-2060 -2059 -269 0
2060 -2059 269 0
2060 2059 -269 0
-2061 2060 271 0
-2061 -2060 -271 0
2061 -2060 271 0
2061 2060 -271 0
-2062 2061 273 0
-2062 -2061 -273 0
2062 -2061 273 0
2062 2061 -273 0
-2063 2062 275 0
-2063 -2062 -275 0
2063 -2062 275 0
2063 2062 -275 0
-2064 2063 277 0
-2064 -2063 -277 0
2064 -2063 277 0
2064 2063 -277 0
-2065 2064 278 0
-2065 -2064 -278 0
2065 -2064 278 0
2065 2064 -278 0
-2066 2065 279 0
-2066 -2065 -279 0
2066 -2065 279 0
2066 2065 -279 0
-2067 2066 280 0
-2067 -2066 -280 0
2067 -2066 280 0
2067 2066 -280 0
-2068 2067 281 0
-2068 -2067 -281 0
2068 -2067 281 0
2068 2067 -281 0
-2069 2068 282 0
-2069 -2068 -282 0
2069 -2068 282 0
2069 2068 -282 0
-2070 2069 283 0
-2070 -2069 -283 0
2070 -2069 283 0
2070 2069 -283 0
-2071 2070 284 0
-2071 -2070 -284 0
2071 -2070 284 0
2071 2070 -284 0
-2072 2071 285 0
-2072 -2071 -285 0
2072 -2071 285 0
2072 2071 -285 0
-2073 2072 286 0
-2073 -2072 -286 0
2073 -2072 286 0
2073 2072 -286 0
-2074 2073 287 0
-2074 -2073 -287 0
2074 -2073 287 0
2074 2073 -287 0
-2075 2074 288 0
-2075 -2074 -288 0
2075 -2074 288 0
2075 2074 -288 0
-2075 0
-2076 62 63 0
-2076 -62 -63 0
2076 -62 63 0
2076 62 -63 0
-2077 2076 64 0
-2077 -2076 -64 0
2077 -2076 64 0
2077 2076 -64 0
-2078 2077 67 0
-2078 -2077 -67 0
2078 -2077 67 0
2078 2077 -67 0
-2079 2078 68 0
-2079 -2078 -68 0
2079 -2078 68 0
2079 2078 -68 0
-2080 2079 69 0
-2080 -2079 -69 0
2080 -2079 69 0
2080 2079 -69 0
-2081 2080 70 0
-2081 -2080 -70 0
2081 -2080 70 0
2081 2080 -70 0
-2082 2081 71 0
-2082 -2081 -71 0
2082 -2081 71 0
2082 2081 -71 0
-2083 2082 72 0
-2083 -2082 -72 0
2083 -2082 72 0
2083 2082 -72 0
-2084 2083 83 0
-2084 -2083 -83 0
2084 -2083 83 0
2084 2083 -83 0
-2085 2084 88 0
-2085 -2084 -88 0
2085 -2084 88 0
2085 2084 -88 0
-2086 2085 89 0
-2086 -2085 -89 0
2086 -2085 89 0
2086 2085 -89 0
-2087 2086 91 0
-2087 -2086 -91 0
2087 -2086 91 0
2087 2086 -91 0
-2088 2087 93 0
-2088 -2087 -93 0
2088 -2087 93 0
2088 2087 -93 0
-2089 2088 94 0
-2089 -2088 -94 0
2089 -2088 94 0
2089 2088 -94 0
-2090 2089 97 0
-2090 -2089 -97 0
2090 -2089 97 0
2090 2089 -97 0
-2091 2090 98 0
-2091 -2090 -98 0
2091 -2090 98 0
2091 2090 -98 0
-2092 2091 99 0
-2092 -2091 -99 0
2092 -2091 99 0
2092 2091 -99 0
-2093 2092 101 0
-2093 -2092 -101 0
2093 -2092 101 0
2093 2092 -101 0
-2094 2093 105 0
-2094 -2093 -105 0
2094 -2093 105 0
2094 2093 -105 0
-2095 2094 106 0
-2095 -2094 -106 0
2095 -2094 106 0
2095 2094 -106 0
-2096 2095 109 0
-2096 -2095 -109 0
2096 -2095 109 0
2096 2095 -109 0
-2097 2096 110 0
-2097 -2096 -110 0
2097 -2096 110 0
2097 2096 -110 0
-2098 2097 111 0
-2098 -2097 -111 0
2098 -2097 111 0
2098 2097 -111 0
-2099 2098 113 0
-2099 -2098 -113 0
2099 -2098 113 0
2099 2098 -113 0
-2100 2099 114 0
-2100 -2099 -114 0
2100 -2099 114 0
2100 2099 -114 0
-2101 2100 116 0
-2101 -2100 -116 0
2101 -2100 116 0
2101 2100 -116 0
-2102 2101 118 0
-2102 -2101 -118 0
2102 -2101 118 0
2102 2101 -118 0
-2103 2102 119 0
-2103 -2102 -119 0
2103 -2102 119 0
2103 2102 -119 0
-2104 2103 120 0
-2104 -2103 -120 0
2104 -2103 120 0
2104 2103 -120 0
-2105 2104 121 0
-2105 -2104 -121 0
2105 -2104 121 0
2105 2104 -121 0
-2106 2105 130 0
-2106 -2105 -130 0
2106 -2105 130 0
2106 2105 -130 0
-2107 2106 132 0
-2107 -2106 -132 0
2107 -2106 132 0
2107 2106 -132 0
-2108 2107 134 0
-2108 -2107 -134 0
2108 -2107 134 0
2108 2107 -134 0
-2109 2108 139 0
-2109 -2108 -139 0
2109 -2108 139 0
2109 2108 -139 0
-2110 2109 140 0
-2110 -2109 -140 0
2110 -2109 140 0
2110 2109 -140 0
-2111 2110 141 0
-2111 -2110 -141 0
2111 -2110 141 0
2111 2110 -141 0
-2112 2111 142 0
-2112 -2111 -142 0
2112 -2111 142 0
2112 2111 -142 0
-2113 2112 143 0
-2113 -2112 -143 0
2113 -2112 143 0
2113 2112 -143 0
-2114 2113 144 0
-2114 -2113 -144 0
2114 -2113 144 0
2114 2113 -144 0
-2115 2114 170 0
-2115 -2114 -170 0
2115 -2114 170 0
2115 2114 -170 0
-2116 2115 207 0
-2116 -2115 -207 0
2116 -2115 207 0
2116 2115 -207 0
-2117 2116 208 0
-2117 -2116 -208 0
2117 -2116 208 0
2117 2116 -208 0
-2118 2117 226 0
-2118 -2117 -226 0
2118 -2117 226 0
2118 2117 -226 0
-2119 2118 234 0
-2119 -2118 -234 0
2119 -2118 234 0
2119 2118 -234 0
-2120 2119 240 0
-2120 -2119 -240 0
2120 -2119 240 0
2120 2119 -240 0
-2121 2120 241 0
-2121 -2120 -241 0
2121 -2120 241 0
2121 2120 -241 0
-2122 2121 242 0
-2122 -2121 -242 0
2122 -2121 242 0
2122 2121 -242 0
-2123 2122 247 0
-2123 -2122 -247 0
2123 -2122 247 0
2123 2122 -247 0
-2124 2123 248 0
-2124 -2123 -248 0
2124 -2123 248 0
2124 2123 -248 0
-2125 2124 254 0
-2125 -2124 -254 0
2125 -2124 254 0
2125 2124 -254 0
-2126 2125 256 0
-2126 -2125 -256 0
2126 -2125 256 0
2126 2125 -256 0
-2127 2126 260 0
-2127 -2126 -260 0
2127 -2126 260 0
2127 2126 -260 0
-2128 2127 262 0
-2128 -2127 -262 0
2128 -2127 262 0
2128 2127 -262 0
-2129 2128 263 0
-2129 -2128 -263 0
2129 -2128 263 0
2129 2128 -263 0
-2130 2129 264 0
-2130 -2129 -264 0
2130 -2129 264 0
2130 2129 -264 0
-2131 2130 265 0
-2131 -2130 -265 0
2131 -2130 265 0
2131 2130 -265 0
-2132 2131 266 0
-2132 -2131 -266 0
2132 -2131 266 0
2132 2131 -266 0
-2133 2132 267 0
-2133 -2132 -267 0
2133 -2132 267 0
2133 2132 -267 0
-2134 2133 268 0
-2134 -2133 -268 0
2134 -2133 268 0
2134 2133 -268 0
-2135 2134 269 0
-2135 -2134 -269 0
2135 -2134 269 0
2135 2134 -269 0
-2136 2135 270 0
-2136 -2135 -270 0
2136 -2135 270 0
2136 2135 -270 0
-2137 2136 271 0
-2137 -2136 -271 0
2137 -2136 271 0
2137 2136 -271 0
-2138 2137 272 0
-2138 -2137 -272 0
2138 -2137 272 0
2138 2137 -272 0
-2139 2138 273 0
-2139 -2138 -273 0
2139 -2138 273 0
2139 2138 -273 0
-2140 2139 274 0
-2140 -2139 -274 0
2140 -2139 274 0
2140 2139 -274 0
-2141 2140 275 0
-2141 -2140 -275 0
2141 -2140 275 0
2141 2140 -275 0
-2142 2141 276 0
-2142 -2141 -276 0
2142 -2141 276 0
2142 2141 -276 0
-2142 0
-2143 63 64 0
-2143 -63 -64 0
2143 -63 64 0
2143 63 -64 0
-2144 2143 65 0
-2144 -2143 -65 0
2144 -2143 65 0
2144 2143 -65 0
-2145 2144 67 0
-2145 -2144 -67 0
2145 -2144 67 0
2145 2144 -67 0
-2146 2145 68 0
-2146 -2145 -68 0
2146 -2145 68 0
2146 2145 -68 0
-2147 2146 69 0
-2147 -2146 -69 0
2147 -2146 69 0
2147 2146 -69 0
-2148 2147 70 0
-2148 -2147 -70 0
2148 -2147 70 0
2148 2147 -70 0
-2149 2148 71 0
-2149 -2148 -71 0
2149 -2148 71 0
2149 2148 -71 0
-2150 2149 72 0
-2150 -2149 -72 0
2150 -2149 72 0
2150 2149 -72 0
-2151 2150 84 0
-2151 -2150 -84 0
2151 -2150 84 0
2151 2150 -84 0
-2152 2151 89 0
-2152 -2151 -89 0
2152 -2151 89 0
2152 2151 -89 0
-2153 2152 90 0
-2153 -2152 -90 0
2153 -2152 90 0
2153 2152 -90 0
-2154 2153 92 0
-2154 -2153 -92 0
2154 -2153 92 0
2154 2153 -92 0
-2155 2154 94 0
-2155 -2154 -94 0
2155 -2154 94 0
2155 2154 -94 0
-2156 2155 95 0
-2156 -2155 -95 0
2156 -2155 95 0
2156 2155 -95 0
-2157 2156 98 0
-2157 -2156 -98 0
2157 -2156 98 0
2157 2156 -98 0
-2158 2157 99 0
-2158 -2157 -99 0
2158 -2157 99 0
2158 2157 -99 0
-2159 2158 100 0
-2159 -2158 -100 0
2159 -2158 100 0
2159 2158 -100 0
-2160 2159 102 0
-2160 -2159 -102 0
2160 -2159 102 0
2160 2159 -102 0
-2161 2160 106 0
-2161 -2160 -106 0
2161 -2160 106 0
2161 2160 -106 0
-2162 2161 107 0
-2162 -2161 -107 0
2162 -2161 107 0
2162 2161 -107 0
-2163 2162 109 0
-2163 -2162 -109 0
2163 -2162 109 0
2163 2162 -109 0
-2164 2163 110 0
-2164 -2163 -110 0
2164 -2163 110 0
2164 2163 -110 0
-2165 2164 111 0
-2165 -2164 -111 0
2165 -2164 111 0
2165 2164 -111 0
-2166 2165 112 0
-2166 -2165 -112 0
2166 -2165 112 0
2166 2165 -112 0
-2167 2166 114 0
-2167 -2166 -114 0
2167 -2166 114 0
2167 2166 -114 0
-2168 2167 115 0
-2168 -2167 -115 0
2168 -2167 115 0
2168 2167 -115 0
-2169 2168 117 0
-2169 -2168 -117 0
2169 -2168 117 0
2169 2168 -117 0
-2170 2169 119 0
-2170 -2169 -119 0
2170 -2169 119 0
2170 2169 -119 0
-2171 2170 120 0
-2171 -2170 -120 0
2171 -2170 120 0
2171 2170 -120 0
-2172 2171 122 0
-2172 -2171 -122 0
2172 -2171 122 0
2172 2171 -122 0
-2173 2172 127 0
-2173 -2172 -127 0
2173 -2172 127 0
2173 2172 -127 0
-2174 2173 131 0
-2174 -2173 -131 0
2174 -2173 131 0
2174 2173 -131 0
-2175 2174 135 0
-2175 -2174 -135 0
2175 -2174 135 0
2175 2174 -135 0
-2176 2175 139 0
-2176 -2175 -139 0
2176 -2175 139 0
2176 2175 -139 0
-2177 2176 140 0
-2177 -2176 -140 0
2177 -2176 140 0
2177 2176 -140 0
-2178 2177 141 0
-2178 -2177 -141 0
2178 -2177 141 0
2178 2177 -141 0
-2179 2178 142 0
-2179 -2178 -142 0
2179 -2178 142 0
2179 2178 -142 0
-2180 2179 143 0
-2180 -2179 -143 0
2180 -2179 143 0
2180 2179 -143 0
-2181 2180 144 0
-2181 -2180 -144 0
2181 -2180 144 0
2181 2180 -144 0
-2182 2181 171 0
-2182 -2181 -171 0
2182 -2181 171 0
2182 2181 -171 0
-2183 2182 208 0
-2183 -2182 -208 0
2183 -2182 208 0
2183 2182 -208 0
-2184 2183 209 0
-2184 -2183 -209 0
2184 -2183 209 0
2184 2183 -209 0
-2185 2184 227 0
-2185 -2184 -227 0
2185 -2184 227 0
2185 2184 -227 0
-2186 2185 229 0
-2186 -2185 -229 0
2186 -2185 229 0
2186 2185 -229 0
-2187 2186 235 0
-2187 -2186 -235 0
2187 -2186 235 0
2187 2186 -235 0
-2188 2187 242 0
-2188 -2187 -242 0
2188 -2187 242 0
2188 2187 -242 0
-2189 2188 243 0
-2189 -2188 -243 0
2189 -2188 243 0
2189 2188 -243 0
-2190 2189 248 0
-2190 -2189 -248 0
2190 -2189 248 0
2190 2189 -248 0
-2191 2190 249 0
-2191 -2190 -249 0
2191 -2190 249 0
2191 2190 -249 0
-2192 2191 255 0
-2192 -2191 -255 0
2192 -2191 255 0
2192 2191 -255 0
-2193 2192 257 0
-2193 -2192 -257 0
2193 -2192 257 0
2193 2192 -257 0
-2194 2193 259 0
-2194 -2193 -259 0
2194 -2193 259 0
2194 2193 -259 0
-2195 2194 261 0
-2195 -2194 -261 0
2195 -2194 261 0
2195 2194 -261 0
-2196 2195 263 0
-2196 -2195 -263 0
2196 -2195 263 0
2196 2195 -263 0
-2197 2196 264 0
-2197 -2196 -264 0
2197 -2196 264 0
2197 2196 -264 0
-2198 2197 265 0
-2198 -2197 -265 0
2198 -2197 265 0
2198 2197 -265 0
-2199 2198 266 0
-2199 -2198 -266 0
2199 -2198 266 0
2199 2198 -266 0
-2200 2199 267 0
-2200 -2199 -267 0
2200 -2199 267 0
2200 2199 -267 0
-2201 2200 268 0
-2201 -2200 -268 0
2201 -2200 268 0
2201 2200 -268 0
-2202 2201 269 0
-2202 -2201 -269 0
2202 -2201 269 0
2202 2201 -269 0
-2203 2202 270 0
-2203 -2202 -270 0
2203 -2202 270 0
2203 2202 -270 0
-2204 2203 271 0
-2204 -2203 -271 0
2204 -2203 271 0
2204 2203 -271 0
-2205 2204 272 0
-2205 -2204 -272 0
2205 -2204 272 0
2205 2204 -272 0
-2206 2205 273 0
-2206 -2205 -273 0
2206 -2205 273 0
2206 2205 -273 0
-2207 2206 274 0
-2207 -2206 -274 0
2207 -2206 274 0
2207 2206 -274 0
-2208 2207 275 0
-2208 -2207 -275 0
2208 -2207 275 0
2208 2207 -275 0
-2209 2208 276 0
-2209 -2208 -276 0
2209 -2208 276 0
2209 2208 -276 0
-2209 0
-2210 64 65 0
-2210 -64 -65 0
2210 -64 65 0
2210 64 -65 0
-2211 2210 66 0
-2211 -2210 -66 0
2211 -2210 66 0
2211 2210 -66 0
-2212 2211 67 0
-2212 -2211 -67 0
2212 -2211 67 0
2212 2211 -67 0
-2213 2212 68 0
-2213 -2212 -68 0
2213 -2212 68 0
2213 2212 -68 0
-2214 2213 69 0
-2214 -2213 -69 0
2214 -2213 69 0
2214 2213 -69 0
-2215 2214 70 0
-2215 -2214 -70 0
2215 -2214 70 0
2215 2214 -70 0
-2216 2215 71 0
-2216 -2215 -71 0
2216 -2215 71 0
2216 2215 -71 0
-2217 2216 72 0
-2217 -2216 -72 0
2217 -2216 72 0
2217 2216 -72 0
-2218 2217 83 0
-2218 -2217 -83 0
2218 -2217 83 0
2218 2217 -83 0
-2219 2218 84 0
-2219 -2218 -84 0
2219 -2218 84 0
2219 2218 -84 0
-2220 2219 85 0
-2220 -2219 -85 0
2220 -2219 85 0
2220 2219 -85 0
-2221 2220 88 0
-2221 -2220 -88 0
2221 -2220 88 0
2221 2220 -88 0
-2222 2221 89 0
-2222 -2221 -89 0
2222 -2221 89 0
2222 2221 -89 0
-2223 2222 91 0
-2223 -2222 -91 0
2223 -2222 91 0
2223 2222 -91 0
-2224 2223 92 0
-2224 -2223 -92 0
2224 -2223 92 0
2224 2223 -92 0
-2225 2224 94 0
-2225 -2224 -94 0
2225 -2224 94 0
2225 2224 -94 0
-2226 2225 97 0
-2226 -2225 -97 0
2226 -2225 97 0
2226 2225 -97 0
-2227 2226 98 0
-2227 -2226 -98 0
2227 -2226 98 0
2227 2226 -98 0
-2228 2227 101 0
-2228 -2227 -101 0
2228 -2227 101 0
2228 2227 -101 0
-2229 2228 106 0
-2229 -2228 -106 0
2229 -2228 106 0
2229 2228 -106 0
-2230 2229 109 0
-2230 -2229 -109 0
2230 -2229 109 0
2230 2229 -109 0
-2231 2230 110 0
-2231 -2230 -110 0
2231 -2230 110 0
2231 2230 -110 0
-2232 2231 111 0
-2232 -2231 -111 0
2232 -2231 111 0
2232 2231 -111 0
-2233 2232 112 0
-2233 -2232 -112 0
2233 -2232 112 0
2233 2232 -112 0
-2234 2233 113 0
-2234 -2233 -113 0
2234 -2233 113 0
2234 2233 -113 0
-2235 2234 116 0
-2235 -2234 -116 0
2235 -2234 116 0
2235 2234 -116 0
-2236 2235 118 0
-2236 -2235 -118 0
2236 -2235 118 0
2236 2235 -118 0
-2237 2236 119 0
-2237 -2236 -119 0
2237 -2236 119 0
2237 2236 -119 0
-2238 2237 123 0
-2238 -2237 -123 0
2238 -2237 123 0
2238 2237 -123 0
-2239 2238 124 0
-2239 -2238 -124 0
2239 -2238 124 0
2239 2238 -124 0
-2240 2239 125 0
-2240 -2239 -125 0
2240 -2239 125 0
2240 2239 -125 0
-2241 2240 126 0
-2241 -2240 -126 0
2241 -2240 126 0
2241 2240 -126 0
-2242 2241 127 0
-2242 -2241 -127 0
2242 -2241 127 0
2242 2241 -127 0
-2243 2242 129 0
-2243 -2242 -129 0
2243 -2242 129 0
2243 2242 -129 0
-2244 2243 130 0
-2244 -2243 -130 0
2244 -2243 130 0
2244 2243 -130 0
-2245 2244 131 0
-2245 -2244 -131 0
2245 -2244 131 0
2245 2244 -131 0
-2246 2245 134 0
-2246 -2245 -134 0
2246 -2245 134 0
2246 2245 -134 0
-2247 2246 135 0
-2247 -2246 -135 0
2247 -2246 135 0
2247 2246 -135 0
-2248 2247 139 0
-2248 -2247 -139 0
2248 -2247 139 0
2248 2247 -139 0
-2249 2248 140 0
-2249 -2248 -140 0
2249 -2248 140 0
2249 2248 -140 0
-2250 2249 141 0
-2250 -2249 -141 0
2250 -2249 141 0
2250 2249 -141 0
-2251 2250 172 0
-2251 -2250 -172 0
2251 -2250 172 0
2251 2250 -172 0
-2252 2251 209 0
-2252 -2251 -209 0
2252 -2251 209 0
2252 2251 -209 0
-2253 2252 210 0
-2253 -2252 -210 0
2253 -2252 210 0
2253 2252 -210 0
-2254 2253 228 0
-2254 -2253 -228 0
2254 -2253 228 0
2254 2253 -228 0
-2255 2254 230 0
-2255 -2254 -230 0
2255 -2254 230 0
2255 2254 -230 0
-2256 2255 236 0
-2256 -2255 -236 0
2256 -2255 236 0
2256 2255 -236 0
-2257 2256 243 0
-2257 -2256 -243 0
2257 -2256 243 0
2257 2256 -243 0
-2258 2257 244 0
-2258 -2257 -244 0
2258 -2257 244 0
2258 2257 -244 0
-2259 2258 249 0
-2259 -2258 -249 0
2259 -2258 249 0
2259 2258 -249 0
-2260 2259 250 0
-2260 -2259 -250 0
2260 -2259 250 0
2260 2259 -250 0
-2261 2260 256 0
-2261 -2260 -256 0
2261 -2260 256 0
2261 2260 -256 0
-2262 2261 258 0
-2262 -2261 -258 0
2262 -2261 258 0
2262 2261 -258 0
-2263 2262 259 0
-2263 -2262 -259 0
2263 -2262 259 0
2263 2262 -259 0
-2264 2263 260 0
-2264 -2263 -260 0
2264 -2263 260 0
2264 2263 -260 0
-2265 2264 262 0
-2265 -2264 -262 0
2265 -2264 262 0
2265 2264 -262 0
-2266 2265 264 0
-2266 -2265 -264 0
2266 -2265 264 0
2266 2265 -264 0
-2267 2266 265 0
-2267 -2266 -265 0
2267 -2266 265 0
2267 2266 -265 0
-2268 2267 266 0
-2268 -2267 -266 0
2268 -2267 266 0
2268 2267 -266 0
-2269 2268 267 0
-2269 -2268 -267 0
2269 -2268 267 0
2269 2268 -267 0
-2270 2269 268 0
-2270 -2269 -268 0
2270 -2269 268 0
2270 2269 -268 0
-2271 2270 269 0
-2271 -2270 -269 0
2271 -2270 269 0
2271 2270 -269 0
-2272 2271 270 0
-2272 -2271 -270 0
2272 -2271 270 0
2272 2271 -270 0
-2273 2272 271 0
-2273 -2272 -271 0
2273 -2272 271 0
2273 2272 -271 0
-2274 2273 272 0
-2274 -2273 -272 0
2274 -2273 272 0
2274 2273 -272 0
-2275 2274 273 0
-2275 -2274 -273 0
2275 -2274 273 0
2275 2274 -273 0
-2276 2275 274 0
-2276 -2275 -274 0
2276 -2275 274 0
2276 2275 -274 0
-2277 2276 275 0
-2277 -2276 -275 0
2277 -2276 275 0
2277 2276 -275 0
-2278 2277 276 0
-2278 -2277 -276 0
2278 -2277 276 0
2278 2277 -276 0
-2278 0
-2279 63 66 0
-2279 -63 -66 0
2279 -63 66 0
2279 63 -66 0
-2280 2279 83 0
-2280 -2279 -83 0
2280 -2279 83 0
2280 2279 -83 0
-2281 2280 85 0
-2281 -2280 -85 0
2281 -2280 85 0
2281 2280 -85 0
-2282 2281 86 0
-2282 -2281 -86 0
2282 -2281 86 0
2282 2281 -86 0
-2283 2282 93 0
-2283 -2282 -93 0
2283 -2282 93 0
2283 2282 -93 0
-2284 2283 98 0
-2284 -2283 -98 0
2284 -2283 98 0
2284 2283 -98 0
-2285 2284 100 0
-2285 -2284 -100 0
2285 -2284 100 0
2285 2284 -100 0
-2286 2285 101 0
-2286 -2285 -101 0
2286 -2285 101 0
2286 2285 -101 0
-2287 2286 102 0
-2287 -2286 -102 0
2287 -2286 102 0
2287 2286 -102 0
-2288 2287 104 0
-2288 -2287 -104 0
2288 -2287 104 0
2288 2287 -104 0
-2289 2288 105 0
-2289 -2288 -105 0
2289 -2288 105 0
2289 2288 -105 0
-2290 2289 108 0
-2290 -2289 -108 0
2290 -2289 108 0
2290 2289 -108 0
-2291 2290 109 0
-2291 -2290 -109 0
2291 -2290 109 0
2291 2290 -109 0
-2292 2291 115 0
-2292 -2291 -115 0
2292 -2291 115 0
2292 2291 -115 0
-2293 2292 117 0
-2293 -2292 -117 0
2293 -2292 117 0
2293 2292 -117 0
-2294 2293 122 0
-2294 -2293 -122 0
2294 -2293 122 0
2294 2293 -122 0
-2295 2294 126 0
-2295 -2294 -126 0
2295 -2294 126 0
2295 2294 -126 0
-2296 2295 127 0
-2296 -2295 -127 0
2296 -2295 127 0
2296 2295 -127 0
-2297 2296 128 0
-2297 -2296 -128 0
2297 -2296 128 0
2297 2296 -128 0
-2298 2297 129 0
-2298 -2297 -129 0
2298 -2297 129 0
2298 2297 -129 0
-2299 2298 131 0
-2299 -2298 -131 0
2299 -2298 131 0
2299 2298 -131 0
-2300 2299 133 0
-2300 -2299 -133 0
2300 -2299 133 0
2300 2299 -133 0
-2301 2300 134 0
-2301 -2300 -134 0
2301 -2300 134 0
2301 2300 -134 0
-2302 2301 135 0
-2302 -2301 -135 0
2302 -2301 135 0
2302 2301 -135 0
-2303 2302 136 0
-2303 -2302 -136 0
2303 -2302 136 0
2303 2302 -136 0
-2304 2303 138 0
-2304 -2303 -138 0
2304 -2303 138 0
2304 2303 -138 0
-2305 2304 139 0
-2305 -2304 -139 0
2305 -2304 139 0
2305 2304 -139 0
-2306 2305 140 0
-2306 -2305 -140 0
2306 -2305 140 0
2306 2305 -140 0
-2307 2306 141 0
-2307 -2306 -141 0
2307 -2306 141 0
2307 2306 -141 0
-2308 2307 173 0
-2308 -2307 -173 0
2308 -2307 173 0
2308 2307 -173 0
-2309 2308 207 0
-2309 -2308 -207 0
2309 -2308 207 0
2309 2308 -207 0
-2310 2309 209 0
-2310 -2309 -209 0
2310 -2309 209 0
2310 2309 -209 0
-2311 2310 210 0
-2311 -2310 -210 0
2311 -2310 210 0
2311 2310 -210 0
-2312 2311 225 0
-2312 -2311 -225 0
2312 -2311 225 0
2312 2311 -225 0
-2313 2312 226 0
-2313 -2312 -226 0
2313 -2312 226 0
2313 2312 -226 0
-2314 2313 228 0
-2314 -2313 -228 0
2314 -2313 228 0
2314 2313 -228 0
-2315 2314 231 0
-2315 -2314 -231 0
2315 -2314 231 0
2315 2314 -231 0
-2316 2315 235 0
-2316 -2315 -235 0
2316 -2315 235 0
2316 2315 -235 0
-2317 2316 238 0
-2317 -2316 -238 0
2317 -2316 238 0
2317 2316 -238 0
-2318 2317 240 0
-2318 -2317 -240 0
2318 -2317 240 0
2318 2317 -240 0
-2319 2318 244 0
-2319 -2318 -244 0
2319 -2318 244 0
2319 2318 -244 0
-2320 2319 245 0
-2320 -2319 -245 0
2320 -2319 245 0
2320 2319 -245 0
-2321 2320 247 0
-2321 -2320 -247 0
2321 -2320 247 0
2321 2320 -247 0
-2322 2321 249 0
-2322 -2321 -249 0
2322 -2321 249 0
2322 2321 -249 0
-2323 2322 251 0
-2323 -2322 -251 0
2323 -2322 251 0
2323 2322 -251 0
-2324 2323 252 0
-2324 -2323 -252 0
2324 -2323 252 0
2324 2323 -252 0
-2325 2324 253 0
-2325 -2324 -253 0
2325 -2324 253 0
2325 2324 -253 0
-2326 2325 257 0
-2326 -2325 -257 0
2326 -2325 257 0
2326 2325 -257 0
-2327 2326 259 0
-2327 -2326 -259 0
2327 -2326 259 0
2327 2326 -259 0
-2328 2327 260 0
-2328 -2327 -260 0
2328 -2327 260 0
2328 2327 -260 0
-2329 2328 261 0
-2329 -2328 -261 0
2329 -2328 261 0
2329 2328 -261 0
-2330 2329 262 0
-2330 -2329 -262 0
2330 -2329 262 0
2330 2329 -262 0
-2331 2330 264 0
-2331 -2330 -264 0
2331 -2330 264 0
2331 2330 -264 0
-2332 2331 266 0
-2332 -2331 -266 0
2332 -2331 266 0
2332 2331 -266 0
-2333 2332 268 0
-2333 -2332 -268 0
2333 -2332 268 0
2333 2332 -268 0
-2334 2333 270 0
-2334 -2333 -270 0
2334 -2333 270 0
2334 2333 -270 0
-2335 2334 271 0
-2335 -2334 -271 0
2335 -2334 271 0
2335 2334 -271 0
-2336 2335 272 0
-2336 -2335 -272 0
2336 -2335 272 0
2336 2335 -272 0
-2337 2336 273 0
-2337 -2336 -273 0
2337 -2336 273 0
2337 2336 -273 0
-2338 2337 277 0
-2338 -2337 -277 0
2338 -2337 277 0
2338 2337 -277 0
-2339 2338 278 0
-2339 -2338 -278 0
2339 -2338 278 0
2339 2338 -278 0
-2340 2339 279 0
-2340 -2339 -279 0
2340 -2339 279 0
2340 2339 -279 0
-2341 2340 280 0
-2341 -2340 -280 0
2341 -2340 280 0
2341 2340 -280 0
-2342 2341 281 0
-2342 -2341 -281 0
2342 -2341 281 0
2342 2341 -281 0
-2343 2342 282 0
-2343 -2342 -282 0
2343 -2342 282 0
2343 2342 -282 0
-2344 2343 284 0
-2344 -2343 -284 0
2344 -2343 284 0
2344 2343 -284 0
-2345 2344 287 0
-2345 -2344 -287 0
2345 -2344 287 0
2345 2344 -287 0
-2345 0
-2346 63 64 0
-2346 -63 -64 0
2346 -63 64 0
2346 63 -64 0
-2347 2346 65 0
-2347 -2346 -65 0
2347 -2346 65 0
2347 2346 -65 0
-2348 2347 67 0
-2348 -2347 -67 0
2348 -2347 67 0
2348 2347 -67 0
-2349 2348 68 0
-2349 -2348 -68 0
2349 -2348 68 0
2349 2348 -68 0
-2350 2349 69 0
-2350 -2349 -69 0
2350 -2349 69 0
2350 2349 -69 0
-2351 2350 70 0
-2351 -2350 -70 0
2351 -2350 70 0
2351 2350 -70 0
-2352 2351 71 0
-2352 -2351 -71 0
2352 -2351 71 0
2352 2351 -71 0
-2353 2352 72 0
-2353 -2352 -72 0
2353 -2352 72 0
2353 2352 -72 0
-2354 2353 84 0
-2354 -2353 -84 0
2354 -2353 84 0
2354 2353 -84 0
-2355 2354 85 0
-2355 -2354 -85 0
2355 -2354 85 0
2355 2354 -85 0
-2356 2355 86 0
-2356 -2355 -86 0
2356 -2355 86 0
2356 2355 -86 0
-2357 2356 87 0
-2357 -2356 -87 0
2357 -2356 87 0
2357 2356 -87 0
-2358 2357 88 0
-2358 -2357 -88 0
2358 -2357 88 0
2358 2357 -88 0
-2359 2358 91 0
-2359 -2358 -91 0
2359 -2358 91 0
2359 2358 -91 0
-2360 2359 93 0
-2360 -2359 -93 0
2360 -2359 93 0
2360 2359 -93 0
-2361 2360 96 0
-2361 -2360 -96 0
2361 -2360 96 0
2361 2360 -96 0
-2362 2361 97 0
-2362 -2361 -97 0
2362 -2361 97 0
2362 2361 -97 0
-2363 2362 98 0
-2363 -2362 -98 0
2363 -2362 98 0
2363 2362 -98 0
-2364 2363 99 0
-2364 -2363 -99 0
2364 -2363 99 0
2364 2363 -99 0
-2365 2364 102 0
-2365 -2364 -102 0
2365 -2364 102 0
2365 2364 -102 0
-2366 2365 103 0
-2366 -2365 -103 0
2366 -2365 103 0
2366 2365 -103 0
-2367 2366 104 0
-2367 -2366 -104 0
2367 -2366 104 0
2367 2366 -104 0
-2368 2367 109 0
-2368 -2367 -109 0
2368 -2367 109 0
2368 2367 -109 0
-2369 2368 111 0
-2369 -2368 -111 0
2369 -2368 111 0
2369 2368 -111 0
-2370 2369 112 0
-2370 -2369 -112 0
2370 -2369 112 0
2370 2369 -112 0
-2371 2370 113 0
-2371 -2370 -113 0
2371 -2370 113 0
2371 2370 -113 0
-2372 2371 114 0
-2372 -2371 -114 0
2372 -2371 114 0
2372 2371 -114 0
-2373 2372 116 0
-2373 -2372 -116 0
2373 -2372 116 0
2373 2372 -116 0
-2374 2373 118 0
-2374 -2373 -118 0
2374 -2373 118 0
2374 2373 -118 0
-2375 2374 122 0
-2375 -2374 -122 0
2375 -2374 122 0
2375 2374 -122 0
-2376 2375 123 0
-2376 -2375 -123 0
2376 -2375 123 0
2376 2375 -123 0
-2377 2376 126 0
-2377 -2376 -126 0
2377 -2376 126 0
2377 2376 -126 0
-2378 2377 129 0
-2378 -2377 -129 0
2378 -2377 129 0
2378 2377 -129 0
-2379 2378 130 0
-2379 -2378 -130 0
2379 -2378 130 0
2379 2378 -130 0
-2380 2379 131 0
-2380 -2379 -131 0
2380 -2379 131 0
2380 2379 -131 0
-2381 2380 132 0
-2381 -2380 -132 0
2381 -2380 132 0
2381 2380 -132 0
-2382 2381 134 0
-2382 -2381 -134 0
2382 -2381 134 0
2382 2381 -134 0
-2383 2382 137 0
-2383 -2382 -137 0
2383 -2382 137 0
2383 2382 -137 0
-2384 2383 138 0
-2384 -2383 -138 0
2384 -2383 138 0
2384 2383 -138 0
-2385 2384 139 0
-2385 -2384 -139 0
2385 -2384 139 0
2385 2384 -139 0
-2386 2385 140 0
-2386 -2385 -140 0
2386 -2385 140 0
2386 2385 -140 0
-2387 2386 141 0
-2387 -2386 -141 0
2387 -2386 141 0
2387 2386 -141 0
-2388 2387 142 0
-2388 -2387 -142 0
2388 -2387 142 0
2388 2387 -142 0
-2389 2388 143 0
-2389 -2388 -143 0
2389 -2388 143 0
2389 2388 -143 0
-2390 2389 144 0
-2390 -2389 -144 0
2390 -2389 144 0
2390 2389 -144 0
-2391 2390 174 0
-2391 -2390 -174 0
2391 -2390 174 0
2391 2390 -174 0
-2392 2391 207 0
-2392 -2391 -207 0
2392 -2391 207 0
2392 2391 -207 0
-2393 2392 208 0
-2393 -2392 -208 0
2393 -2392 208 0
2393 2392 -208 0
-2394 2393 209 0
-2394 -2393 -209 0
2394 -2393 209 0
2394 2393 -209 0
-2395 2394 210 0
-2395 -2394 -210 0
2395 -2394 210 0
2395 2394 -210 0
-2396 2395 225 0
-2396 -2395 -225 0
2396 -2395 225 0
2396 2395 -225 0
-2397 2396 227 0
-2397 -2396 -227 0
2397 -2396 227 0
2397 2396 -227 0
-2398 2397 228 0
-2398 -2397 -228 0
2398 -2397 228 0
2398 2397 -228 0
-2399 2398 232 0
-2399 -2398 -232 0
2399 -2398 232 0
2399 2398 -232 0
-2400 2399 236 0
-2400 -2399 -236 0
2400 -2399 236 0
2400 2399 -236 0
-2401 2400 237 0
-2401 -2400 -237 0
2401 -2400 237 0
2401 2400 -237 0
-2402 2401 238 0
-2402 -2401 -238 0
2402 -2401 238 0
2402 2401 -238 0
-2403 2402 239 0
-2403 -2402 -239 0
2403 -2402 239 0
2403 2402 -239 0
-2404 2403 240 0
-2404 -2403 -240 0
2404 -2403 240 0
2404 2403 -240 0
-2405 2404 245 0
-2405 -2404 -245 0
2405 -2404 245 0
2405 2404 -245 0
-2406 2405 246 0
-2406 -2405 -246 0
2406 -2405 246 0
2406 2405 -246 0
-2407 2406 248 0
-2407 -2406 -248 0
2407 -2406 248 0
2407 2406 -248 0
-2408 2407 249 0
-2408 -2407 -249 0
2408 -2407 249 0
2408 2407 -249 0
-2409 2408 254 0
-2409 -2408 -254 0
2409 -2408 254 0
2409 2408 -254 0
-2410 2409 258 0
-2410 -2409 -258 0
2410 -2409 258 0
2410 2409 -258 0
-2411 2410 259 0
-2411 -2410 -259 0
2411 -2410 259 0
2411 2410 -259 0
-2412 2411 260 0
-2412 -2411 -260 0
2412 -2411 260 0
2412 2411 -260 0
-2413 2412 261 0
-2413 -2412 -261 0
2413 -2412 261 0
2413 2412 -261 0
-2414 2413 264 0
-2414 -2413 -264 0
2414 -2413 264 0
2414 2413 -264 0
-2415 2414 272 0
-2415 -2414 -272 0
2415 -2414 272 0
2415 2414 -272 0
-2416 2415 273 0
-2416 -2415 -273 0
2416 -2415 273 0
2416 2415 -273 0
-2417 2416 275 0
-2417 -2416 -275 0
2417 -2416 275 0
2417 2416 -275 0
-2418 2417 276 0
-2418 -2417 -276 0
2418 -2417 276 0
2418 2417 -276 0
-2419 2418 284 0
-2419 -2418 -284 0
2419 -2418 284 0
2419 2418 -284 0
-2420 2419 285 0
-2420 -2419 -285 0
2420 -2419 285 0
2420 2419 -285 0
-2421 2420 287 0
-2421 -2420 -287 0
2421 -2420 287 0
2421 2420 -287 0
-2422 2421 288 0
-2422 -2421 -288 0
2422 -2421 288 0
2422 2421 -288 0
-2422 0
-2423 67 69 0
-2423 -67 -69 0
2423 -67 69 0
2423 67 -69 0
-2424 2423 70 0
-2424 -2423 -70 0
2424 -2423 70 0
2424 2423 -70 0
-2425 2424 72 0
-2425 -2424 -72 0
2425 -2424 72 0
2425 2424 -72 0
-2426 2425 84 0
-2426 -2425 -84 0
2426 -2425 84 0
2426 2425 -84 0
-2427 2426 85 0
-2427 -2426 -85 0
2427 -2426 85 0
2427 2426 -85 0
-2428 2427 86 0
-2428 -2427 -86 0
2428 -2427 86 0
2428 2427 -86 0
-2429 2428 88 0
-2429 -2428 -88 0
2429 -2428 88 0
2429 2428 -88 0
-2430 2429 89 0
-2430 -2429 -89 0
2430 -2429 89 0
2430 2429 -89 0
-2431 2430 90 0
-2431 -2430 -90 0
2431 -2430 90 0
2431 2430 -90 0
-2432 2431 91 0
-2432 -2431 -91 0
2432 -2431 91 0
2432 2431 -91 0
-2433 2432 92 0
-2433 -2432 -92 0
2433 -2432 92 0
2433 2432 -92 0
-2434 2433 94 0
-2434 -2433 -94 0
2434 -2433 94 0
2434 2433 -94 0
-2435 2434 97 0
-2435 -2434 -97 0
2435 -2434 97 0
2435 2434 -97 0
-2436 2435 98 0
-2436 -2435 -98 0
2436 -2435 98 0
2436 2435 -98 0
-2437 2436 100 0
-2437 -2436 -100 0
2437 -2436 100 0
2437 2436 -100 0
-2438 2437 102 0
-2438 -2437 -102 0
2438 -2437 102 0
2438 2437 -102 0
-2439 2438 103 0
-2439 -2438 -103 0
2439 -2438 103 0
2439 2438 -103 0
-2440 2439 104 0
-2440 -2439 -104 0
2440 -2439 104 0
2440 2439 -104 0
-2441 2440 109 0
-2441 -2440 -109 0
2441 -2440 109 0
2441 2440 -109 0
-2442 2441 110 0
-2442 -2441 -110 0
2442 -2441 110 0
2442 2441 -110 0
-2443 2442 112 0
-2443 -2442 -112 0
2443 -2442 112 0
2443 2442 -112 0
-2444 2443 114 0
-2444 -2443 -114 0
2444 -2443 114 0
2444 2443 -114 0
-2445 2444 115 0
-2445 -2444 -115 0
2445 -2444 115 0
2445 2444 -115 0
-2446 2445 118 0
-2446 -2445 -118 0
2446 -2445 118 0
2446 2445 -118 0
-2447 2446 121 0
-2447 -2446 -121 0
2447 -2446 121 0
2447 2446 -121 0
-2448 2447 122 0
-2448 -2447 -122 0
2448 -2447 122 0
2448 2447 -122 0
-2449 2448 127 0
-2449 -2448 -127 0
2449 -2448 127 0
2449 2448 -127 0
-2450 2449 128 0
-2450 -2449 -128 0
2450 -2449 128 0
2450 2449 -128 0
-2451 2450 129 0
-2451 -2450 -129 0
2451 -2450 129 0
2451 2450 -129 0
-2452 2451 130 0
-2452 -2451 -130 0
2452 -2451 130 0
2452 2451 -130 0
-2453 2452 131 0
-2453 -2452 -131 0
2453 -2452 131 0
2453 2452 -131 0
-2454 2453 133 0
-2454 -2453 -133 0
2454 -2453 133 0
2454 2453 -133 0
-2455 2454 134 0
-2455 -2454 -134 0
2455 -2454 134 0
2455 2454 -134 0
-2456 2455 136 0
-2456 -2455 -136 0
2456 -2455 136 0
2456 2455 -136 0
-2457 2456 139 0
-2457 -2456 -139 0
2457 -2456 139 0
2457 2456 -139 0
-2458 2457 140 0
-2458 -2457 -140 0
2458 -2457 140 0
2458 2457 -140 0
-2459 2458 142 0
-2459 -2458 -142 0
2459 -2458 142 0
2459 2458 -142 0
-2460 2459 143 0
-2460 -2459 -143 0
2460 -2459 143 0
2460 2459 -143 0
-2461 2460 144 0
-2461 -2460 -144 0
2461 -2460 144 0
2461 2460 -144 0
-2462 2461 175 0
-2462 -2461 -175 0
2462 -2461 175 0
2462 2461 -175 0
-2463 2462 213 0
-2463 -2462 -213 0
2463 -2462 213 0
2463 2462 -213 0
-2464 2463 214 0
-2464 -2463 -214 0
2464 -2463 214 0
2464 2463 -214 0
-2465 2464 216 0
-2465 -2464 -216 0
2465 -2464 216 0
2465 2464 -216 0
-2466 2465 221 0
-2466 -2465 -221 0
2466 -2465 221 0
2466 2465 -221 0
-2467 2466 222 0
-2467 -2466 -222 0
2467 -2466 222 0
2467 2466 -222 0
-2468 2467 225 0
-2468 -2467 -225 0
2468 -2467 225 0
2468 2467 -225 0
-2469 2468 227 0
-2469 -2468 -227 0
2469 -2468 227 0
2469 2468 -227 0
-2470 2469 230 0
-2470 -2469 -230 0
2470 -2469 230 0
2470 2469 -230 0
-2471 2470 231 0
-2471 -2470 -231 0
2471 -2470 231 0
2471 2470 -231 0
-2472 2471 234 0
-2472 -2471 -234 0
2472 -2471 234 0
2472 2471 -234 0
-2473 2472 235 0
-2473 -2472 -235 0
2473 -2472 235 0
2473 2472 -235 0
-2474 2473 238 0
-2474 -2473 -238 0
2474 -2473 238 0
2474 2473 -238 0
-2475 2474 240 0
-2475 -2474 -240 0
2475 -2474 240 0
2475 2474 -240 0
-2476 2475 241 0
-2476 -2475 -241 0
2476 -2475 241 0
2476 2475 -241 0
-2477 2476 242 0
-2477 -2476 -242 0
2477 -2476 242 0
2477 2476 -242 0
-2478 2477 243 0
-2478 -2477 -243 0
2478 -2477 243 0
2478 2477 -243 0
-2479 2478 244 0
-2479 -2478 -244 0
2479 -2478 244 0
2479 2478 -244 0
-2480 2479 245 0
-2480 -2479 -245 0
2480 -2479 245 0
2480 2479 -245 0
-2481 2480 247 0
-2481 -2480 -247 0
2481 -2480 247 0
2481 2480 -247 0
-2482 2481 249 0
-2482 -2481 -249 0
2482 -2481 249 0
2482 2481 -249 0
-2483 2482 251 0
-2483 -2482 -251 0
2483 -2482 251 0
2483 2482 -251 0
-2484 2483 252 0
-2484 -2483 -252 0
2484 -2483 252 0
2484 2483 -252 0
-2485 2484 253 0
-2485 -2484 -253 0
2485 -2484 253 0
2485 2484 -253 0
-2486 2485 254 0
-2486 -2485 -254 0
2486 -2485 254 0
2486 2485 -254 0
-2487 2486 261 0
-2487 -2486 -261 0
2487 -2486 261 0
2487 2486 -261 0
-2488 2487 262 0
-2488 -2487 -262 0
2488 -2487 262 0
2488 2487 -262 0
-2489 2488 263 0
-2489 -2488 -263 0
2489 -2488 263 0
2489 2488 -263 0
-2490 2489 264 0
-2490 -2489 -264 0
2490 -2489 264 0
2490 2489 -264 0
-2491 2490 268 0
-2491 -2490 -268 0
2491 -2490 268 0
2491 2490 -268 0
-2492 2491 269 0
-2492 -2491 -269 0
2492 -2491 269 0
2492 2491 -269 0
-2493 2492 270 0
-2493 -2492 -270 0
2493 -2492 270 0
2493 2492 -270 0
-2494 2493 271 0
-2494 -2493 -271 0
2494 -2493 271 0
2494 2493 -271 0
-2495 2494 277 0
-2495 -2494 -277 0
2495 -2494 277 0
2495 2494 -277 0
-2496 2495 278 0
-2496 -2495 -278 0
2496 -2495 278 0
2496 2495 -278 0
-2497 2496 279 0
-2497 -2496 -279 0
2497 -2496 279 0
2497 2496 -279 0
-2498 2497 281 0
-2498 -2497 -281 0
2498 -2497 281 0
2498 2497 -281 0
-2499 2498 282 0
-2499 -2498 -282 0
2499 -2498 282 0
2499 2498 -282 0
-2500 2499 284 0
-2500 -2499 -284 0
2500 -2499 284 0
2500 2499 -284 0
-2501 2500 285 0
-2501 -2500 -285 0
2501 -2500 285 0
2501 2500 -285 0
-2501 0
-2502 61 62 0
-2502 -61 -62 0
2502 -61 62 0
2502 61 -62 0
-2503 2502 63 0
-2503 -2502 -63 0
2503 -2502 63 0
2503 2502 -63 0
-2504 2503 64 0
-2504 -2503 -64 0
2504 -2503 64 0
2504 2503 -64 0
-2505 2504 65 0
-2505 -2504 -65 0
2505 -2504 65 0
2505 2504 -65 0
-2506 2505 66 0
-2506 -2505 -66 0
2506 -2505 66 0
2506 2505 -66 0
-2507 2506 67 0
-2507 -2506 -67 0
2507 -2506 67 0
2507 2506 -67 0
-2508 2507 71 0
-2508 -2507 -71 0
2508 -2507 71 0
2508 2507 -71 0
-2509 2508 72 0
-2509 -2508 -72 0
2509 -2508 72 0
2509 2508 -72 0
-2510 2509 85 0
-2510 -2509 -85 0
2510 -2509 85 0
2510 2509 -85 0
-2511 2510 86 0
-2511 -2510 -86 0
2511 -2510 86 0
2511 2510 -86 0
-2512 2511 87 0
-2512 -2511 -87 0
2512 -2511 87 0
2512 2511 -87 0
-2513 2512 88 0
-2513 -2512 -88 0
2513 -2512 88 0
2513 2512 -88 0
-2514 2513 90 0
-2514 -2513 -90 0
2514 -2513 90 0
2514 2513 -90 0
-2515 2514 91 0
-2515 -2514 -91 0
2515 -2514 91 0
2515 2514 -91 0
-2516 2515 92 0
-2516 -2515 -92 0
2516 -2515 92 0
2516 2515 -92 0
-2517 2516 93 0
-2517 -2516 -93 0
2517 -2516 93 0
2517 2516 -93 0
-2518 2517 96 0
-2518 -2517 -96 0
2518 -2517 96 0
2518 2517 -96 0
-2519 2518 97 0
-2519 -2518 -97 0
2519 -2518 97 0
2519 2518 -97 0
-2520 2519 99 0
-2520 -2519 -99 0
2520 -2519 99 0
2520 2519 -99 0
-2521 2520 100 0
-2521 -2520 -100 0
2521 -2520 100 0
2521 2520 -100 0
-2522 2521 106 0
-2522 -2521 -106 0
2522 -2521 106 0
2522 2521 -106 0
-2523 2522 108 0
-2523 -2522 -108 0
2523 -2522 108 0
2523 2522 -108 0
-2524 2523 109 0
-2524 -2523 -109 0
2524 -2523 109 0
2524 2523 -109 0
-2525 2524 110 0
-2525 -2524 -110 0
2525 -2524 110 0
2525 2524 -110 0
-2526 2525 113 0
-2526 -2525 -113 0
2526 -2525 113 0
2526 2525 -113 0
-2527 2526 114 0
-2527 -2526 -114 0
2527 -2526 114 0
2527 2526 -114 0
-2528 2527 115 0
-2528 -2527 -115 0
2528 -2527 115 0
2528 2527 -115 0
-2529 2528 116 0
-2529 -2528 -116 0
2529 -2528 116 0
2529 2528 -116 0
-2530 2529 117 0
-2530 -2529 -117 0
2530 -2529 117 0
2530 2529 -117 0
-2531 2530 119 0
-2531 -2530 -119 0
2531 -2530 119 0
2531 2530 -119 0
-2532 2531 120 0
-2532 -2531 -120 0
2532 -2531 120 0
2532 2531 -120 0
-2533 2532 121 0
-2533 -2532 -121 0
2533 -2532 121 0
2533 2532 -121 0
-2534 2533 123 0
-2534 -2533 -123 0
2534 -2533 123 0
2534 2533 -123 0
-2535 2534 127 0
-2535 -2534 -127 0
2535 -2534 127 0
2535 2534 -127 0
-2536 2535 136 0
-2536 -2535 -136 0
2536 -2535 136 0
2536 2535 -136 0
-2537 2536 138 0
-2537 -2536 -138 0
2537 -2536 138 0
2537 2536 -138 0
-2538 2537 139 0
-2538 -2537 -139 0
2538 -2537 139 0
2538 2537 -139 0
-2539 2538 141 0
-2539 -2538 -141 0
2539 -2538 141 0
2539 2538 -141 0
-2540 2539 142 0
-2540 -2539 -142 0
2540 -2539 142 0
2540 2539 -142 0
-2541 2540 143 0
-2541 -2540 -143 0
2541 -2540 143 0
2541 2540 -143 0
-2542 2541 144 0
-2542 -2541 -144 0
2542 -2541 144 0
2542 2541 -144 0
-2543 2542 176 0
-2543 -2542 -176 0
2543 -2542 176 0
2543 2542 -176 0
-2544 2543 213 0
-2544 -2543 -213 0
2544 -2543 213 0
2544 2543 -213 0
-2545 2544 214 0
-2545 -2544 -214 0
2545 -2544 214 0
2545 2544 -214 0
-2546 2545 232 0
-2546 -2545 -232 0
2546 -2545 232 0
2546 2545 -232 0
-2547 2546 240 0
-2547 -2546 -240 0
2547 -2546 240 0
2547 2546 -240 0
-2548 2547 246 0
-2548 -2547 -246 0
2548 -2547 246 0
2548 2547 -246 0
-2549 2548 247 0
-2549 -2548 -247 0
2549 -2548 247 0
2549 2548 -247 0
-2550 2549 248 0
-2550 -2549 -248 0
2550 -2549 248 0
2550 2549 -248 0
-2551 2550 253 0
-2551 -2550 -253 0
2551 -2550 253 0
2551 2550 -253 0
-2552 2551 254 0
-2552 -2551 -254 0
2552 -2551 254 0
2552 2551 -254 0
-2553 2552 260 0
-2553 -2552 -260 0
2553 -2552 260 0
2553 2552 -260 0
-2554 2553 262 0
-2554 -2553 -262 0
2554 -2553 262 0
2554 2553 -262 0
-2555 2554 266 0
-2555 -2554 -266 0
2555 -2554 266 0
2555 2554 -266 0
-2556 2555 268 0
-2556 -2555 -268 0
2556 -2555 268 0
2556 2555 -268 0
-2557 2556 269 0
-2557 -2556 -269 0
2557 -2556 269 0
2557 2556 -269 0
-2558 2557 270 0
-2558 -2557 -270 0
2558 -2557 270 0
2558 2557 -270 0
-2559 2558 271 0
-2559 -2558 -271 0
2559 -2558 271 0
2559 2558 -271 0
-2560 2559 272 0
-2560 -2559 -272 0
2560 -2559 272 0
2560 2559 -272 0
-2561 2560 273 0
-2561 -2560 -273 0
2561 -2560 273 0
2561 2560 -273 0
-2562 2561 274 0
-2562 -2561 -274 0
2562 -2561 274 0
2562 2561 -274 0
-2563 2562 275 0
-2563 -2562 -275 0
2563 -2562 275 0
2563 2562 -275 0
-2564 2563 276 0
-2564 -2563 -276 0
2564 -2563 276 0
2564 2563 -276 0
-2565 2564 277 0
-2565 -2564 -277 0
2565 -2564 277 0
2565 2564 -277 0
-2566 2565 278 0
-2566 -2565 -278 0
2566 -2565 278 0
2566 2565 -278 0
-2567 2566 279 0
-2567 -2566 -279 0
2567 -2566 279 0
2567 2566 -279 0
-2568 2567 280 0
-2568 -2567 -280 0
2568 -2567 280 0
2568 2567 -280 0
-2569 2568 281 0
-2569 -2568 -281 0
2569 -2568 281 0
2569 2568 -281 0
-2570 2569 282 0
-2570 -2569 -282 0
2570 -2569 282 0
2570 2569 -282 0
-2570 0
-2571 61 62 0
-2571 -61 -62 0
2571 -61 62 0
2571 61 -62 0
-2572 2571 63 0
-2572 -2571 -63 0
2572 -2571 63 0
2572 2571 -63 0
-2573 2572 64 0
-2573 -2572 -64 0
2573 -2572 64 0
2573 2572 -64 0
-2574 2573 65 0
-2574 -2573 -65 0
2574 -2573 65 0
2574 2573 -65 0
-2575 2574 66 0
-2575 -2574 -66 0
2575 -2574 66 0
2575 2574 -66 0
-2576 2575 67 0
-2576 -2575 -67 0
2576 -2575 67 0
2576 2575 -67 0
-2577 2576 68 0
-2577 -2576 -68 0
2577 -2576 68 0
2577 2576 -68 0
-2578 2577 72 0
-2578 -2577 -72 0
2578 -2577 72 0
2578 2577 -72 0
-2579 2578 85 0
-2579 -2578 -85 0
2579 -2578 85 0
2579 2578 -85 0
-2580 2579 86 0
-2580 -2579 -86 0
2580 -2579 86 0
2580 2579 -86 0
-2581 2580 87 0
-2581 -2580 -87 0
2581 -2580 87 0
2581 2580 -87 0
-2582 2581 88 0
-2582 -2581 -88 0
2582 -2581 88 0
2582 2581 -88 0
-2583 2582 89 0
-2583 -2582 -89 0
2583 -2582 89 0
2583 2582 -89 0
-2584 2583 91 0
-2584 -2583 -91 0
2584 -2583 91 0
2584 2583 -91 0
-2585 2584 92 0
-2585 -2584 -92 0
2585 -2584 92 0
2585 2584 -92 0
-2586 2585 93 0
-2586 -2585 -93 0
2586 -2585 93 0
2586 2585 -93 0
-2587 2586 94 0
-2587 -2586 -94 0
2587 -2586 94 0
2587 2586 -94 0
-2588 2587 98 0
-2588 -2587 -98 0
2588 -2587 98 0
2588 2587 -98 0
-2589 2588 100 0
-2589 -2588 -100 0
2589 -2588 100 0
2589 2588 -100 0
-2590 2589 101 0
-2590 -2589 -101 0
2590 -2589 101 0
2590 2589 -101 0
-2591 2590 103 0
-2591 -2590 -103 0
2591 -2590 103 0
2591 2590 -103 0
-2592 2591 107 0
-2592 -2591 -107 0
2592 -2591 107 0
2592 2591 -107 0
-2593 2592 109 0
-2593 -2592 -109 0
2593 -2592 109 0
2593 2592 -109 0
-2594 2593 110 0
-2594 -2593 -110 0
2594 -2593 110 0
2594 2593 -110 0
-2595 2594 111 0
-2595 -2594 -111 0
2595 -2594 111 0
2595 2594 -111 0
-2596 2595 114 0
-2596 -2595 -114 0
2596 -2595 114 0
2596 2595 -114 0
-2597 2596 115 0
-2597 -2596 -115 0
2597 -2596 115 0
2597 2596 -115 0
-2598 2597 116 0
-2598 -2597 -116 0
2598 -2597 116 0
2598 2597 -116 0
-2599 2598 117 0
-2599 -2598 -117 0
2599 -2598 117 0
2599 2598 -117 0
-2600 2599 118 0
-2600 -2599 -118 0
2600 -2599 118 0
2600 2599 -118 0
-2601 2600 120 0
-2601 -2600 -120 0
2601 -2600 120 0
2601 2600 -120 0
-2602 2601 122 0
-2602 -2601 -122 0
2602 -2601 122 0
2602 2601 -122 0
-2603 2602 124 0
-2603 -2602 -124 0
2603 -2602 124 0
2603 2602 -124 0
-2604 2603 128 0
-2604 -2603 -128 0
2604 -2603 128 0
2604 2603 -128 0
-2605 2604 133 0
-2605 -2604 -133 0
2605 -2604 133 0
2605 2604 -133 0
-2606 2605 137 0
-2606 -2605 -137 0
2606 -2605 137 0
2606 2605 -137 0
-2607 2606 139 0
-2607 -2606 -139 0
2607 -2606 139 0
2607 2606 -139 0
-2608 2607 140 0
-2608 -2607 -140 0
2608 -2607 140 0
2608 2607 -140 0
-2609 2608 142 0
-2609 -2608 -142 0
2609 -2608 142 0
2609 2608 -142 0
-2610 2609 143 0
-2610 -2609 -143 0
2610 -2609 143 0
2610 2609 -143 0
-2611 2610 144 0
-2611 -2610 -144 0
2611 -2610 144 0
2611 2610 -144 0
-2612 2611 177 0
-2612 -2611 -177 0
2612 -2611 177 0
2612 2611 -177 0
-2613 2612 214 0
-2613 -2612 -214 0
2613 -2612 214 0
2613 2612 -214 0
-2614 2613 215 0
-2614 -2613 -215 0
2614 -2613 215 0
2614 2613 -215 0
-2615 2614 233 0
-2615 -2614 -233 0
2615 -2614 233 0
2615 2614 -233 0
-2616 2615 235 0
-2616 -2615 -235 0
2616 -2615 235 0
2616 2615 -235 0
-2617 2616 241 0
-2617 -2616 -241 0
2617 -2616 241 0
2617 2616 -241 0
-2618 2617 248 0
-2618 -2617 -248 0
2618 -2617 248 0
2618 2617 -248 0
-2619 2618 249 0
-2619 -2618 -249 0
2619 -2618 249 0
2619 2618 -249 0
-2620 2619 254 0
-2620 -2619 -254 0
2620 -2619 254 0
2620 2619 -254 0
-2621 2620 255 0
-2621 -2620 -255 0
2621 -2620 255 0
2621 2620 -255 0
-2622 2621 261 0
-2622 -2621 -261 0
2622 -2621 261 0
2622 2621 -261 0
-2623 2622 263 0
-2623 -2622 -263 0
2623 -2622 263 0
2623 2622 -263 0
-2624 2623 265 0
-2624 -2623 -265 0
2624 -2623 265 0
2624 2623 -265 0
-2625 2624 267 0
-2625 -2624 -267 0
2625 -2624 267 0
2625 2624 -267 0
-2626 2625 269 0
-2626 -2625 -269 0
2626 -2625 269 0
2626 2625 -269 0
-2627 2626 270 0
-2627 -2626 -270 0
2627 -2626 270 0
2627 2626 -270 0
-2628 2627 271 0
-2628 -2627 -271 0
2628 -2627 271 0
2628 2627 -271 0
-2629 2628 272 0
-2629 -2628 -272 0
2629 -2628 272 0
2629 2628 -272 0
-2630 2629 273 0
-2630 -2629 -273 0
2630 -2629 273 0
2630 2629 -273 0
-2631 2630 274 0
-2631 -2630 -274 0
2631 -2630 274 0
2631 2630 -274 0
-2632 2631 275 0
-2632 -2631 -275 0
2632 -2631 275 0
2632 2631 -275 0
-2633 2632 276 0
-2633 -2632 -276 0
2633 -2632 276 0
2633 2632 -276 0
-2634 2633 277 0
-2634 -2633 -277 0
2634 -2633 277 0
2634 2633 -277 0
-2635 2634 278 0
-2635 -2634 -278 0
2635 -2634 278 0
2635 2634 -278 0
-2636 2635 279 0
-2636 -2635 -279 0
2636 -2635 279 0
2636 2635 -279 0
-2637 2636 280 0
-2637 -2636 -280 0
2637 -2636 280 0
2637 2636 -280 0
-2638 2637 281 0
-2638 -2637 -281 0
2638 -2637 281 0
2638 2637 -281 0
-2639 2638 282 0
-2639 -2638 -282 0
2639 -2638 282 0
2639 2638 -282 0
-2639 0
-2640 61 62 0
-2640 -61 -62 0
2640 -61 62 0
2640 61 -62 0
-2641 2640 63 0
-2641 -2640 -63 0
2641 -2640 63 0
2641 2640 -63 0
-2642 2641 64 0
-2642 -2641 -64 0
2642 -2641 64 0
2642 2641 -64 0
-2643 2642 65 0
-2643 -2642 -65 0
2643 -2642 65 0
2643 2642 -65 0
-2644 2643 66 0
-2644 -2643 -66 0
2644 -2643 66 0
2644 2643 -66 0
-2645 2644 67 0
-2645 -2644 -67 0
2645 -2644 67 0
2645 2644 -67 0
-2646 2645 68 0
-2646 -2645 -68 0
2646 -2645 68 0
2646 2645 -68 0
-2647 2646 69 0
-2647 -2646 -69 0
2647 -2646 69 0
2647 2646 -69 0
-2648 2647 86 0
-2648 -2647 -86 0
2648 -2647 86 0
2648 2647 -86 0
-2649 2648 87 0
-2649 -2648 -87 0
2649 -2648 87 0
2649 2648 -87 0
-2650 2649 88 0
-2650 -2649 -88 0
2650 -2649 88 0
2650 2649 -88 0
-2651 2650 89 0
-2651 -2650 -89 0
2651 -2650 89 0
2651 2650 -89 0
-2652 2651 90 0
-2652 -2651 -90 0
2652 -2651 90 0
2652 2651 -90 0
-2653 2652 92 0
-2653 -2652 -92 0
2653 -2652 92 0
2653 2652 -92 0
-2654 2653 93 0
-2654 -2653 -93 0
2654 -2653 93 0
2654 2653 -93 0
-2655 2654 94 0
-2655 -2654 -94 0
2655 -2654 94 0
2655 2654 -94 0
-2656 2655 95 0
-2656 -2655 -95 0
2656 -2655 95 0
2656 2655 -95 0
-2657 2656 99 0
-2657 -2656 -99 0
2657 -2656 99 0
2657 2656 -99 0
-2658 2657 101 0
-2658 -2657 -101 0
2658 -2657 101 0
2658 2657 -101 0
-2659 2658 102 0
-2659 -2658 -102 0
2659 -2658 102 0
2659 2658 -102 0
-2660 2659 104 0
-2660 -2659 -104 0
2660 -2659 104 0
2660 2659 -104 0
-2661 2660 108 0
-2661 -2660 -108 0
2661 -2660 108 0
2661 2660 -108 0
-2662 2661 109 0
-2662 -2661 -109 0
2662 -2661 109 0
2662 2661 -109 0
-2663 2662 110 0
-2663 -2662 -110 0
2663 -2662 110 0
2663 2662 -110 0
-2664 2663 111 0
-2664 -2663 -111 0
2664 -2663 111 0
2664 2663 -111 0
-2665 2664 112 0
-2665 -2664 -112 0
2665 -2664 112 0
2665 2664 -112 0
-2666 2665 115 0
-2666 -2665 -115 0
2666 -2665 115 0
2666 2665 -115 0
-2667 2666 116 0
-2667 -2666 -116 0
2667 -2666 116 0
2667 2666 -116 0
-2668 2667 117 0
-2668 -2667 -117 0
2668 -2667 117 0
2668 2667 -117 0
-2669 2668 118 0
-2669 -2668 -118 0
2669 -2668 118 0
2669 2668 -118 0
-2670 2669 119 0
-2670 -2669 -119 0
2670 -2669 119 0
2670 2669 -119 0
-2671 2670 123 0
-2671 -2670 -123 0
2671 -2670 123 0
2671 2670 -123 0
-2672 2671 125 0
-2672 -2671 -125 0
2672 -2671 125 0
2672 2671 -125 0
-2673 2672 129 0
-2673 -2672 -129 0
2673 -2672 129 0
2673 2672 -129 0
-2674 2673 134 0
-2674 -2673 -134 0
2674 -2673 134 0
2674 2673 -134 0
-2675 2674 138 0
-2675 -2674 -138 0
2675 -2674 138 0
2675 2674 -138 0
-2676 2675 139 0
-2676 -2675 -139 0
2676 -2675 139 0
2676 2675 -139 0
-2677 2676 140 0
-2677 -2676 -140 0
2677 -2676 140 0
2677 2676 -140 0
-2678 2677 141 0
-2678 -2677 -141 0
2678 -2677 141 0
2678 2677 -141 0
-2679 2678 143 0
-2679 -2678 -143 0
2679 -2678 143 0
2679 2678 -143 0
-2680 2679 144 0
-2680 -2679 -144 0
2680 -2679 144 0
2680 2679 -144 0
-2681 2680 178 0
-2681 -2680 -178 0
2681 -2680 178 0
2681 2680 -178 0
-2682 2681 215 0
-2682 -2681 -215 0
2682 -2681 215 0
2682 2681 -215 0
-2683 2682 216 0
-2683 -2682 -216 0
2683 -2682 216 0
2683 2682 -216 0
-2684 2683 234 0
-2684 -2683 -234 0
2684 -2683 234 0
2684 2683 -234 0
-2685 2684 236 0
-2685 -2684 -236 0
2685 -2684 236 0
2685 2684 -236 0
-2686 2685 242 0
-2686 -2685 -242 0
2686 -2685 242 0
2686 2685 -242 0
-2687 2686 249 0
-2687 -2686 -249 0
2687 -2686 249 0
2687 2686 -249 0
-2688 2687 250 0
-2688 -2687 -250 0
2688 -2687 250 0
2688 2687 -250 0
-2689 2688 255 0
-2689 -2688 -255 0
2689 -2688 255 0
2689 2688 -255 0
-2690 2689 256 0
-2690 -2689 -256 0
2690 -2689 256 0
2690 2689 -256 0
-2691 2690 262 0
-2691 -2690 -262 0
2691 -2690 262 0
2691 2690 -262 0
-2692 2691 264 0
-2692 -2691 -264 0
2692 -2691 264 0
2692 2691 -264 0
-2693 2692 265 0
-2693 -2692 -265 0
2693 -2692 265 0
2693 2692 -265 0
-2694 2693 266 0
-2694 -2693 -266 0
2694 -2693 266 0
2694 2693 -266 0
-2695 2694 268 0
-2695 -2694 -268 0
2695 -2694 268 0
2695 2694 -268 0
-2696 2695 270 0
-2696 -2695 -270 0
2696 -2695 270 0
2696 2695 -270 0
-2697 2696 271 0
-2697 -2696 -271 0
2697 -2696 271 0
2697 2696 -271 0
-2698 2697 272 0
-2698 -2697 -272 0
2698 -2697 272 0
2698 2697 -272 0
-2699 2698 273 0
-2699 -2698 -273 0
2699 -2698 273 0
2699 2698 -273 0
-2700 2699 274 0
-2700 -2699 -274 0
2700 -2699 274 0
2700 2699 -274 0
-2701 2700 275 0
-2701 -2700 -275 0
2701 -2700 275 0
2701 2700 -275 0
-2702 2701 276 0
-2702 -2701 -276 0
2702 -2701 276 0
2702 2701 -276 0
-2703 2702 277 0
-2703 -2702 -277 0
2703 -2702 277 0
2703 2702 -277 0
-2704 2703 278 0
-2704 -2703 -278 0
2704 -2703 278 0
2704 2703 -278 0
-2705 2704 279 0
-2705 -2704 -279 0
2705 -2704 279 0
2705 2704 -279 0
-2706 2705 280 0
-2706 -2705 -280 0
2706 -2705 280 0
2706 2705 -280 0
-2707 2706 281 0
-2707 -2706 -281 0
2707 -2706 281 0
2707 2706 -281 0
-2708 2707 282 0
-2708 -2707 -282 0
2708 -2707 282 0
2708 2707 -282 0
-2708 0
-2709 69 72 0
-2709 -69 -72 0
2709 -69 72 0
2709 69 -72 0
-2710 2709 84 0
-2710 -2709 -84 0
2710 -2709 84 0
2710 2709 -84 0
-2711 2710 86 0
-2711 -2710 -86 0
2711 -2710 86 0
2711 2710 -86 0
-2712 2711 87 0
-2712 -2711 -87 0
2712 -2711 87 0
2712 2711 -87 0
-2713 2712 88 0
-2713 -2712 -88 0
2713 -2712 88 0
2713 2712 -88 0
-2714 2713 91 0
-2714 -2713 -91 0
2714 -2713 91 0
2714 2713 -91 0
-2715 2714 92 0
-2715 -2714 -92 0
2715 -2714 92 0
2715 2714 -92 0
-2716 2715 94 0
-2716 -2715 -94 0
2716 -2715 94 0
2716 2715 -94 0
-2717 2716 95 0
-2717 -2716 -95 0
2717 -2716 95 0
2717 2716 -95 0
-2718 2717 96 0
-2718 -2717 -96 0
2718 -2717 96 0
2718 2717 -96 0
-2719 2718 99 0
-2719 -2718 -99 0
2719 -2718 99 0
2719 2718 -99 0
-2720 2719 102 0
-2720 -2719 -102 0
2720 -2719 102 0
2720 2719 -102 0
-2721 2720 103 0
-2721 -2720 -103 0
2721 -2720 103 0
2721 2720 -103 0
-2722 2721 105 0
-2722 -2721 -105 0
2722 -2721 105 0
2722 2721 -105 0
-2723 2722 106 0
-2723 -2722 -106 0
2723 -2722 106 0
2723 2722 -106 0
-2724 2723 108 0
-2724 -2723 -108 0
2724 -2723 108 0
2724 2723 -108 0
-2725 2724 111 0
-2725 -2724 -111 0
2725 -2724 111 0
2725 2724 -111 0
-2726 2725 112 0
-2726 -2725 -112 0
2726 -2725 112 0
2726 2725 -112 0
-2727 2726 117 0
-2727 -2726 -117 0
2727 -2726 117 0
2727 2726 -117 0
-2728 2727 118 0
-2728 -2727 -118 0
2728 -2727 118 0
2728 2727 -118 0
-2729 2728 122 0
-2729 -2728 -122 0
2729 -2728 122 0
2729 2728 -122 0
-2730 2729 123 0
-2730 -2729 -123 0
2730 -2729 123 0
2730 2729 -123 0
-2731 2730 125 0
-2731 -2730 -125 0
2731 -2730 125 0
2731 2730 -125 0
-2732 2731 126 0
-2732 -2731 -126 0
2732 -2731 126 0
2732 2731 -126 0
-2733 2732 127 0
-2733 -2732 -127 0
2733 -2732 127 0
2733 2732 -127 0
-2734 2733 128 0
-2734 -2733 -128 0
2734 -2733 128 0
2734 2733 -128 0
-2735 2734 129 0
-2735 -2734 -129 0
2735 -2734 129 0
2735 2734 -129 0
-2736 2735 131 0
-2736 -2735 -131 0
2736 -2735 131 0
2736 2735 -131 0
-2737 2736 132 0
-2737 -2736 -132 0
2737 -2736 132 0
2737 2736 -132 0
-2738 2737 134 0
-2738 -2737 -134 0
2738 -2737 134 0
2738 2737 -134 0
-2739 2738 136 0
-2739 -2738 -136 0
2739 -2738 136 0
2739 2738 -136 0
-2740 2739 137 0
-2740 -2739 -137 0
2740 -2739 137 0
2740 2739 -137 0
-2741 2740 139 0
-2741 -2740 -139 0
2741 -2740 139 0
2741 2740 -139 0
-2742 2741 141 0
-2742 -2741 -141 0
2742 -2741 141 0
2742 2741 -141 0
-2743 2742 143 0
-2743 -2742 -143 0
2743 -2742 143 0
2743 2742 -143 0
-2744 2743 179 0
-2744 -2743 -179 0
2744 -2743 179 0
2744 2743 -179 0
-2745 2744 213 0
-2745 -2744 -213 0
2745 -2744 213 0
2745 2744 -213 0
-2746 2745 215 0
-2746 -2745 -215 0
2746 -2745 215 0
2746 2745 -215 0
-2747 2746 216 0
-2747 -2746 -216 0
2747 -2746 216 0
2747 2746 -216 0
-2748 2747 221 0
-2748 -2747 -221 0
2748 -2747 221 0
2748 2747 -221 0
-2749 2748 222 0
-2749 -2748 -222 0
2749 -2748 222 0
2749 2748 -222 0
-2750 2749 225 0
-2750 -2749 -225 0
2750 -2749 225 0
2750 2749 -225 0
-2751 2750 227 0
-2751 -2750 -227 0
2751 -2750 227 0
2751 2750 -227 0
-2752 2751 229 0
-2752 -2751 -229 0
2752 -2751 229 0
2752 2751 -229 0
-2753 2752 230 0
-2753 -2752 -230 0
2753 -2752 230 0
2753 2752 -230 0
-2754 2753 234 0
-2754 -2753 -234 0
2754 -2753 234 0
2754 2753 -234 0
-2755 2754 235 0
-2755 -2754 -235 0
2755 -2754 235 0
2755 2754 -235 0
-2756 2755 237 0
-2756 -2755 -237 0
2756 -2755 237 0
2756 2755 -237 0
-2757 2756 238 0
-2757 -2756 -238 0
2757 -2756 238 0
2757 2756 -238 0
-2758 2757 239 0
-2758 -2757 -239 0
2758 -2757 239 0
2758 2757 -239 0
-2759 2758 240 0
-2759 -2758 -240 0
2759 -2758 240 0
2759 2758 -240 0
-2760 2759 241 0
-2760 -2759 -241 0
2760 -2759 241 0
2760 2759 -241 0
-2761 2760 242 0
-2761 -2760 -242 0
2761 -2760 242 0
2761 2760 -242 0
-2762 2761 244 0
-2762 -2761 -244 0
2762 -2761 244 0
2762 2761 -244 0
-2763 2762 249 0
-2763 -2762 -249 0
2763 -2762 249 0
2763 2762 -249 0
-2764 2763 250 0
-2764 -2763 -250 0
2764 -2763 250 0
2764 2763 -250 0
-2765 2764 254 0
-2765 -2764 -254 0
2765 -2764 254 0
2765 2764 -254 0
-2766 2765 256 0
-2766 -2765 -256 0
2766 -2765 256 0
2766 2765 -256 0
-2767 2766 257 0
-2767 -2766 -257 0
2767 -2766 257 0
2767 2766 -257 0
-2768 2767 258 0
-2768 -2767 -258 0
2768 -2767 258 0
2768 2767 -258 0
-2769 2768 262 0
-2769 -2768 -262 0
2769 -2768 262 0
2769 2768 -262 0
-2770 2769 264 0
-2770 -2769 -264 0
2770 -2769 264 0
2770 2769 -264 0
-2771 2770 265 0
-2771 -2770 -265 0
2771 -2770 265 0
2771 2770 -265 0
-2772 2771 267 0
-2772 -2771 -267 0
2772 -2771 267 0
2772 2771 -267 0
-2773 2772 268 0
-2773 -2772 -268 0
2773 -2772 268 0
2773 2772 -268 0
-2774 2773 272 0
-2774 -2773 -272 0
2774 -2773 272 0
2774 2773 -272 0
-2775 2774 273 0
-2775 -2774 -273 0
2775 -2774 273 0
2775 2774 -273 0
-2776 2775 274 0
-2776 -2775 -274 0
2776 -2775 274 0
2776 2775 -274 0
-2777 2776 275 0
-2777 -2776 -275 0
2777 -2776 275 0
2777 2776 -275 0
-2778 2777 276 0
-2778 -2777 -276 0
2778 -2777 276 0
2778 2777 -276 0
-2779 2778 280 0
-2779 -2778 -280 0
2779 -2778 280 0
2779 2778 -280 0
-2780 2779 284 0
-2780 -2779 -284 0
2780 -2779 284 0
2780 2779 -284 0
-2781 2780 285 0
-2781 -2780 -285 0
2781 -2780 285 0
2781 2780 -285 0
-2781 0
-2782 61 62 0
-2782 -61 -62 0
2782 -61 62 0
2782 61 -62 0
-2783 2782 63 0
-2783 -2782 -63 0
2783 -2782 63 0
2783 2782 -63 0
-2784 2783 64 0
-2784 -2783 -64 0
2784 -2783 64 0
2784 2783 -64 0
-2785 2784 65 0
-2785 -2784 -65 0
2785 -2784 65 0
2785 2784 -65 0
-2786 2785 66 0
-2786 -2785 -66 0
2786 -2785 66 0
2786 2785 -66 0
-2787 2786 67 0
-2787 -2786 -67 0
2787 -2786 67 0
2787 2786 -67 0
-2788 2787 68 0
-2788 -2787 -68 0
2788 -2787 68 0
2788 2787 -68 0
-2789 2788 72 0
-2789 -2788 -72 0
2789 -2788 72 0
2789 2788 -72 0
-2790 2789 87 0
-2790 -2789 -87 0
2790 -2789 87 0
2790 2789 -87 0
-2791 2790 92 0
-2791 -2790 -92 0
2791 -2790 92 0
2791 2790 -92 0
-2792 2791 93 0
-2792 -2791 -93 0
2792 -2791 93 0
2792 2791 -93 0
-2793 2792 97 0
-2793 -2792 -97 0
2793 -2792 97 0
2793 2792 -97 0
-2794 2793 98 0
-2794 -2793 -98 0
2794 -2793 98 0
2794 2793 -98 0
-2795 2794 101 0
-2795 -2794 -101 0
2795 -2794 101 0
2795 2794 -101 0
-2796 2795 103 0
-2796 -2795 -103 0
2796 -2795 103 0
2796 2795 -103 0
-2797 2796 105 0
-2797 -2796 -105 0
2797 -2796 105 0
2797 2796 -105 0
-2798 2797 107 0
-2798 -2797 -107 0
2798 -2797 107 0
2798 2797 -107 0
-2799 2798 108 0
-2799 -2798 -108 0
2799 -2798 108 0
2799 2798 -108 0
-2800 2799 111 0
-2800 -2799 -111 0
2800 -2799 111 0
2800 2799 -111 0
-2801 2800 112 0
-2801 -2800 -112 0
2801 -2800 112 0
2801 2800 -112 0
-2802 2801 113 0
-2802 -2801 -113 0
2802 -2801 113 0
2802 2801 -113 0
-2803 2802 114 0
-2803 -2802 -114 0
2803 -2802 114 0
2803 2802 -114 0
-2804 2803 115 0
-2804 -2803 -115 0
2804 -2803 115 0
2804 2803 -115 0
-2805 2804 117 0
-2805 -2804 -117 0
2805 -2804 117 0
2805 2804 -117 0
-2806 2805 118 0
-2806 -2805 -118 0
2806 -2805 118 0
2806 2805 -118 0
-2807 2806 119 0
-2807 -2806 -119 0
2807 -2806 119 0
2807 2806 -119 0
-2808 2807 120 0
-2808 -2807 -120 0
2808 -2807 120 0
2808 2807 -120 0
-2809 2808 122 0
-2809 -2808 -122 0
2809 -2808 122 0
2809 2808 -122 0
-2810 2809 123 0
-2810 -2809 -123 0
2810 -2809 123 0
2810 2809 -123 0
-2811 2810 124 0
-2811 -2810 -124 0
2811 -2810 124 0
2811 2810 -124 0
-2812 2811 126 0
-2812 -2811 -126 0
2812 -2811 126 0
2812 2811 -126 0
-2813 2812 131 0
-2813 -2812 -131 0
2813 -2812 131 0
2813 2812 -131 0
-2814 2813 134 0
-2814 -2813 -134 0
2814 -2813 134 0
2814 2813 -134 0
-2815 2814 136 0
-2815 -2814 -136 0
2815 -2814 136 0
2815 2814 -136 0
-2816 2815 144 0
-2816 -2815 -144 0
2816 -2815 144 0
2816 2815 -144 0
-2817 2816 180 0
-2817 -2816 -180 0
2817 -2816 180 0
2817 2816 -180 0
-2818 2817 213 0
-2818 -2817 -213 0
2818 -2817 213 0
2818 2817 -213 0
-2819 2818 214 0
-2819 -2818 -214 0
2819 -2818 214 0
2819 2818 -214 0
-2820 2819 215 0
-2820 -2819 -215 0
2820 -2819 215 0
2820 2819 -215 0
-2821 2820 216 0
-2821 -2820 -216 0
2821 -2820 216 0
2821 2820 -216 0
-2822 2821 230 0
-2822 -2821 -230 0
2822 -2821 230 0
2822 2821 -230 0
-2823 2822 238 0
-2823 -2822 -238 0
2823 -2822 238 0
2823 2822 -238 0
-2824 2823 244 0
-2824 -2823 -244 0
2824 -2823 244 0
2824 2823 -244 0
-2825 2824 251 0
-2825 -2824 -251 0
2825 -2824 251 0
2825 2824 -251 0
-2826 2825 252 0
-2826 -2825 -252 0
2826 -2825 252 0
2826 2825 -252 0
-2827 2826 257 0
-2827 -2826 -257 0
2827 -2826 257 0
2827 2826 -257 0
-2828 2827 258 0
-2828 -2827 -258 0
2828 -2827 258 0
2828 2827 -258 0
-2829 2828 260 0
-2829 -2828 -260 0
2829 -2828 260 0
2829 2828 -260 0
-2830 2829 264 0
-2830 -2829 -264 0
2830 -2829 264 0
2830 2829 -264 0
-2831 2830 265 0
-2831 -2830 -265 0
2831 -2830 265 0
2831 2830 -265 0
-2832 2831 269 0
-2832 -2831 -269 0
2832 -2831 269 0
2832 2831 -269 0
-2832 0
-2833 65 67 0
-2833 -65 -67 0
2833 -65 67 0
2833 65 -67 0
-2834 2833 68 0
-2834 -2833 -68 0
2834 -2833 68 0
2834 2833 -68 0
-2835 2834 70 0
-2835 -2834 -70 0
2835 -2834 70 0
2835 2834 -70 0
-2836 2835 83 0
-2836 -2835 -83 0
2836 -2835 83 0
2836 2835 -83 0
-2837 2836 86 0
-2837 -2836 -86 0
2837 -2836 86 0
2837 2836 -86 0
-2838 2837 88 0
-2838 -2837 -88 0
2838 -2837 88 0
2838 2837 -88 0
-2839 2838 91 0
-2839 -2838 -91 0
2839 -2838 91 0
2839 2838 -91 0
-2840 2839 93 0
-2840 -2839 -93 0
2840 -2839 93 0
2840 2839 -93 0
-2841 2840 94 0
-2841 -2840 -94 0
2841 -2840 94 0
2841 2840 -94 0
-2842 2841 96 0
-2842 -2841 -96 0
2842 -2841 96 0
2842 2841 -96 0
-2843 2842 98 0
-2843 -2842 -98 0
2843 -2842 98 0
2843 2842 -98 0
-2844 2843 100 0
-2844 -2843 -100 0
2844 -2843 100 0
2844 2843 -100 0
-2845 2844 102 0
-2845 -2844 -102 0
2845 -2844 102 0
2845 2844 -102 0
-2846 2845 104 0
-2846 -2845 -104 0
2846 -2845 104 0
2846 2845 -104 0
-2847 2846 105 0
-2847 -2846 -105 0
2847 -2846 105 0
2847 2846 -105 0
-2848 2847 107 0
-2848 -2847 -107 0
2848 -2847 107 0
2848 2847 -107 0
-2849 2848 110 0
-2849 -2848 -110 0
2849 -2848 110 0
2849 2848 -110 0
-2850 2849 111 0
-2850 -2849 -111 0
2850 -2849 111 0
2850 2849 -111 0
-2851 2850 113 0
-2851 -2850 -113 0
2851 -2850 113 0
2851 2850 -113 0
-2852 2851 116 0
-2852 -2851 -116 0
2852 -2851 116 0
2852 2851 -116 0
-2853 2852 117 0
-2853 -2852 -117 0
2853 -2852 117 0
2853 2852 -117 0
-2854 2853 119 0
-2854 -2853 -119 0
2854 -2853 119 0
2854 2853 -119 0
-2855 2854 123 0
-2855 -2854 -123 0
2855 -2854 123 0
2855 2854 -123 0
-2856 2855 124 0
-2856 -2855 -124 0
2856 -2855 124 0
2856 2855 -124 0
-2857 2856 125 0
-2857 -2856 -125 0
2857 -2856 125 0
2857 2856 -125 0
-2858 2857 127 0
-2858 -2857 -127 0
2858 -2857 127 0
2858 2857 -127 0
-2859 2858 132 0
-2859 -2858 -132 0
2859 -2858 132 0
2859 2858 -132 0
-2860 2859 134 0
-2860 -2859 -134 0
2860 -2859 134 0
2860 2859 -134 0
-2861 2860 137 0
-2861 -2860 -137 0
2861 -2860 137 0
2861 2860 -137 0
-2862 2861 139 0
-2862 -2861 -139 0
2862 -2861 139 0
2862 2861 -139 0
-2863 2862 142 0
-2863 -2862 -142 0
2863 -2862 142 0
2863 2862 -142 0
-2864 2863 181 0
-2864 -2863 -181 0
2864 -2863 181 0
2864 2863 -181 0
-2865 2864 207 0
-2865 -2864 -207 0
2865 -2864 207 0
2865 2864 -207 0
-2866 2865 209 0
-2866 -2865 -209 0
2866 -2865 209 0
2866 2865 -209 0
-2867 2866 237 0
-2867 -2866 -237 0
2867 -2866 237 0
2867 2866 -237 0
-2868 2867 245 0
-2868 -2867 -245 0
2868 -2867 245 0
2868 2867 -245 0
-2869 2868 251 0
-2869 -2868 -251 0
2869 -2868 251 0
2869 2868 -251 0
-2870 2869 253 0
-2870 -2869 -253 0
2870 -2869 253 0
2870 2869 -253 0
-2871 2870 258 0
-2871 -2870 -258 0
2871 -2870 258 0
2871 2870 -258 0
-2872 2871 263 0
-2872 -2871 -263 0
2872 -2871 263 0
2872 2871 -263 0
-2873 2872 264 0
-2873 -2872 -264 0
2873 -2872 264 0
2873 2872 -264 0
-2873 0
-2874 66 68 0
-2874 -66 -68 0
2874 -66 68 0
2874 66 -68 0
-2875 2874 69 0
-2875 -2874 -69 0
2875 -2874 69 0
2875 2874 -69 0
-2876 2875 71 0
-2876 -2875 -71 0
2876 -2875 71 0
2876 2875 -71 0
-2877 2876 84 0
-2877 -2876 -84 0
2877 -2876 84 0
2877 2876 -84 0
-2878 2877 87 0
-2878 -2877 -87 0
2878 -2877 87 0
2878 2877 -87 0
-2879 2878 89 0
-2879 -2878 -89 0
2879 -2878 89 0
2879 2878 -89 0
-2880 2879 91 0
-2880 -2879 -91 0
2880 -2879 91 0
2880 2879 -91 0
-2881 2880 92 0
-2881 -2880 -92 0
2881 -2880 92 0
2881 2880 -92 0
-2882 2881 94 0
-2882 -2881 -94 0
2882 -2881 94 0
2882 2881 -94 0
-2883 2882 95 0
-2883 -2882 -95 0
2883 -2882 95 0
2883 2882 -95 0
-2884 2883 97 0
-2884 -2883 -97 0
2884 -2883 97 0
2884 2883 -97 0
-2885 2884 99 0
-2885 -2884 -99 0
2885 -2884 99 0
2885 2884 -99 0
-2886 2885 101 0
-2886 -2885 -101 0
2886 -2885 101 0
2886 2885 -101 0
-2887 2886 105 0
-2887 -2886 -105 0
2887 -2886 105 0
2887 2886 -105 0
-2888 2887 106 0
-2888 -2887 -106 0
2888 -2887 106 0
2888 2887 -106 0
-2889 2888 108 0
-2889 -2888 -108 0
2889 -2888 108 0
2889 2888 -108 0
-2890 2889 111 0
-2890 -2889 -111 0
2890 -2889 111 0
2890 2889 -111 0
-2891 2890 112 0
-2891 -2890 -112 0
2891 -2890 112 0
2891 2890 -112 0
-2892 2891 114 0
-2892 -2891 -114 0
2892 -2891 114 0
2892 2891 -114 0
-2893 2892 117 0
-2893 -2892 -117 0
2893 -2892 117 0
2893 2892 -117 0
-2894 2893 118 0
-2894 -2893 -118 0
2894 -2893 118 0
2894 2893 -118 0
-2895 2894 120 0
-2895 -2894 -120 0
2895 -2894 120 0
2895 2894 -120 0
-2896 2895 124 0
-2896 -2895 -124 0
2896 -2895 124 0
2896 2895 -124 0
-2897 2896 125 0
-2897 -2896 -125 0
2897 -2896 125 0
2897 2896 -125 0
-2898 2897 126 0
-2898 -2897 -126 0
2898 -2897 126 0
2898 2897 -126 0
-2899 2898 127 0
-2899 -2898 -127 0
2899 -2898 127 0
2899 2898 -127 0
-2900 2899 128 0
-2900 -2899 -128 0
2900 -2899 128 0
2900 2899 -128 0
-2901 2900 135 0
-2901 -2900 -135 0
2901 -2900 135 0
2901 2900 -135 0
-2902 2901 138 0
-2902 -2901 -138 0
2902 -2901 138 0
2902 2901 -138 0
-2903 2902 140 0
-2903 -2902 -140 0
2903 -2902 140 0
2903 2902 -140 0
-2904 2903 143 0
-2904 -2903 -143 0
2904 -2903 143 0
2904 2903 -143 0
-2905 2904 182 0
-2905 -2904 -182 0
2905 -2904 182 0
2905 2904 -182 0
-2906 2905 208 0
-2906 -2905 -208 0
2906 -2905 208 0
2906 2905 -208 0
-2907 2906 210 0
-2907 -2906 -210 0
2907 -2906 210 0
2907 2906 -210 0
-2908 2907 238 0
-2908 -2907 -238 0
2908 -2907 238 0
2908 2907 -238 0
-2909 2908 246 0
-2909 -2908 -246 0
2909 -2908 246 0
2909 2908 -246 0
-2910 2909 252 0
-2910 -2909 -252 0
2910 -2909 252 0
2910 2909 -252 0
-2911 2910 253 0
-2911 -2910 -253 0
2911 -2910 253 0
2911 2910 -253 0
-2912 2911 254 0
-2912 -2911 -254 0
2912 -2911 254 0
2912 2911 -254 0
-2913 2912 259 0
-2913 -2912 -259 0
2913 -2912 259 0
2913 2912 -259 0
-2914 2913 264 0
-2914 -2913 -264 0
2914 -2913 264 0
2914 2913 -264 0
-2914 0
-2915 63 65 0
-2915 -63 -65 0
2915 -63 65 0
2915 63 -65 0
-2916 2915 67 0
-2916 -2915 -67 0
2916 -2915 67 0
2916 2915 -67 0
-2917 2916 68 0
-2917 -2916 -68 0
2917 -2916 68 0
2917 2916 -68 0
-2918 2917 71 0
-2918 -2917 -71 0
2918 -2917 71 0
2918 2917 -71 0
-2919 2918 83 0
-2919 -2918 -83 0
2919 -2918 83 0
2919 2918 -83 0
-2920 2919 84 0
-2920 -2919 -84 0
2920 -2919 84 0
2920 2919 -84 0
-2921 2920 85 0
-2921 -2920 -85 0
2921 -2920 85 0
2921 2920 -85 0
-2922 2921 86 0
-2922 -2921 -86 0
2922 -2921 86 0
2922 2921 -86 0
-2923 2922 87 0
-2923 -2922 -87 0
2923 -2922 87 0
2923 2922 -87 0
-2924 2923 88 0
-2924 -2923 -88 0
2924 -2923 88 0
2924 2923 -88 0
-2925 2924 90 0
-2925 -2924 -90 0
2925 -2924 90 0
2925 2924 -90 0
-2926 2925 91 0
-2926 -2925 -91 0
2926 -2925 91 0
2926 2925 -91 0
-2927 2926 94 0
-2927 -2926 -94 0
2927 -2926 94 0
2927 2926 -94 0
-2928 2927 97 0
-2928 -2927 -97 0
2928 -2927 97 0
2928 2927 -97 0
-2929 2928 98 0
-2929 -2928 -98 0
2929 -2928 98 0
2929 2928 -98 0
-2930 2929 100 0
-2930 -2929 -100 0
2930 -2929 100 0
2930 2929 -100 0
-2931 2930 101 0
-2931 -2930 -101 0
2931 -2930 101 0
2931 2930 -101 0
-2932 2931 105 0
-2932 -2931 -105 0
2932 -2931 105 0
2932 2931 -105 0
-2933 2932 107 0
-2933 -2932 -107 0
2933 -2932 107 0
2933 2932 -107 0
-2934 2933 108 0
-2934 -2933 -108 0
2934 -2933 108 0
2934 2933 -108 0
-2935 2934 110 0
-2935 -2934 -110 0
2935 -2934 110 0
2935 2934 -110 0
-2936 2935 111 0
-2936 -2935 -111 0
2936 -2935 111 0
2936 2935 -111 0
-2937 2936 114 0
-2937 -2936 -114 0
2937 -2936 114 0
2937 2936 -114 0
-2938 2937 118 0
-2938 -2937 -118 0
2938 -2937 118 0
2938 2937 -118 0
-2939 2938 120 0
-2939 -2938 -120 0
2939 -2938 120 0
2939 2938 -120 0
-2940 2939 123 0
-2940 -2939 -123 0
2940 -2939 123 0
2940 2939 -123 0
-2941 2940 124 0
-2941 -2940 -124 0
2941 -2940 124 0
2941 2940 -124 0
-2942 2941 125 0
-2942 -2941 -125 0
2942 -2941 125 0
2942 2941 -125 0
-2943 2942 128 0
-2943 -2942 -128 0
2943 -2942 128 0
2943 2942 -128 0
-2944 2943 129 0
-2944 -2943 -129 0
2944 -2943 129 0
2944 2943 -129 0
-2945 2944 133 0
-2945 -2944 -133 0
2945 -2944 133 0
2945 2944 -133 0
-2946 2945 134 0
-2946 -2945 -134 0
2946 -2945 134 0
2946 2945 -134 0
-2947 2946 135 0
-2947 -2946 -135 0
2947 -2946 135 0
2947 2946 -135 0
-2948 2947 140 0
-2948 -2947 -140 0
2948 -2947 140 0
2948 2947 -140 0
-2949 2948 141 0
-2949 -2948 -141 0
2949 -2948 141 0
2949 2948 -141 0
-2950 2949 143 0
-2950 -2949 -143 0
2950 -2949 143 0
2950 2949 -143 0
-2951 2950 144 0
-2951 -2950 -144 0
2951 -2950 144 0
2951 2950 -144 0
-2952 2951 183 0
-2952 -2951 -183 0
2952 -2951 183 0
2952 2951 -183 0
-2953 2952 207 0
-2953 -2952 -207 0
2953 -2952 207 0
2953 2952 -207 0
-2954 2953 239 0
-2954 -2953 -239 0
2954 -2953 239 0
2954 2953 -239 0
-2955 2954 241 0
-2955 -2954 -241 0
2955 -2954 241 0
2955 2954 -241 0
-2956 2955 247 0
-2956 -2955 -247 0
2956 -2955 247 0
2956 2955 -247 0
-2957 2956 254 0
-2957 -2956 -254 0
2957 -2956 254 0
2957 2956 -254 0
-2958 2957 255 0
-2958 -2957 -255 0
2958 -2957 255 0
2958 2957 -255 0
-2959 2958 260 0
-2959 -2958 -260 0
2959 -2958 260 0
2959 2958 -260 0
-2960 2959 261 0
-2960 -2959 -261 0
2960 -2959 261 0
2960 2959 -261 0
-2961 2960 263 0
-2961 -2960 -263 0
2961 -2960 263 0
2961 2960 -263 0
-2962 2961 265 0
-2962 -2961 -265 0
2962 -2961 265 0
2962 2961 -265 0
-2963 2962 267 0
-2963 -2962 -267 0
2963 -2962 267 0
2963 2962 -267 0
-2964 2963 269 0
-2964 -2963 -269 0
2964 -2963 269 0
2964 2963 -269 0
-2965 2964 271 0
-2965 -2964 -271 0
2965 -2964 271 0
2965 2964 -271 0
-2966 2965 273 0
-2966 -2965 -273 0
2966 -2965 273 0
2966 2965 -273 0
-2967 2966 275 0
-2967 -2966 -275 0
2967 -2966 275 0
2967 2966 -275 0
-2968 2967 277 0
-2968 -2967 -277 0
2968 -2967 277 0
2968 2967 -277 0
-2969 2968 278 0
-2969 -2968 -278 0
2969 -2968 278 0
2969 2968 -278 0
-2970 2969 279 0
-2970 -2969 -279 0
2970 -2969 279 0
2970 2969 -279 0
-2971 2970 280 0
-2971 -2970 -280 0
2971 -2970 280 0
2971 2970 -280 0
-2972 2971 281 0
-2972 -2971 -281 0
2972 -2971 281 0
2972 2971 -281 0
-2973 2972 282 0
-2973 -2972 -282 0
2973 -2972 282 0
2973 2972 -282 0
-2974 2973 283 0
-2974 -2973 -283 0
2974 -2973 283 0
2974 2973 -283 0
-2975 2974 284 0
-2975 -2974 -284 0
2975 -2974 284 0
2975 2974 -284 0
-2976 2975 285 0
-2976 -2975 -285 0
2976 -2975 285 0
2976 2975 -285 0
-2977 2976 286 0
-2977 -2976 -286 0
2977 -2976 286 0
2977 2976 -286 0
-2978 2977 287 0
-2978 -2977 -287 0
2978 -2977 287 0
2978 2977 -287 0
-2979 2978 288 0
-2979 -2978 -288 0
2979 -2978 288 0
2979 2978 -288 0
-2979 0
-2980 64 66 0
-2980 -64 -66 0
2980 -64 66 0
2980 64 -66 0
-2981 2980 68 0
-2981 -2980 -68 0
2981 -2980 68 0
2981 2980 -68 0
-2982 2981 69 0
-2982 -2981 -69 0
2982 -2981 69 0
2982 2981 -69 0
-2983 2982 72 0
-2983 -2982 -72 0
2983 -2982 72 0
2983 2982 -72 0
-2984 2983 83 0
-2984 -2983 -83 0
2984 -2983 83 0
2984 2983 -83 0
-2985 2984 85 0
-2985 -2984 -85 0
2985 -2984 85 0
2985 2984 -85 0
-2986 2985 86 0
-2986 -2985 -86 0
2986 -2985 86 0
2986 2985 -86 0
-2987 2986 87 0
-2987 -2986 -87 0
2987 -2986 87 0
2987 2986 -87 0
-2988 2987 90 0
-2988 -2987 -90 0
2988 -2987 90 0
2988 2987 -90 0
-2989 2988 91 0
-2989 -2988 -91 0
2989 -2988 91 0
2989 2988 -91 0
-2990 2989 93 0
-2990 -2989 -93 0
2990 -2989 93 0
2990 2989 -93 0
-2991 2990 94 0
-2991 -2990 -94 0
2991 -2990 94 0
2991 2990 -94 0
-2992 2991 96 0
-2992 -2991 -96 0
2992 -2991 96 0
2992 2991 -96 0
-2993 2992 100 0
-2993 -2992 -100 0
2993 -2992 100 0
2993 2992 -100 0
-2994 2993 101 0
-2994 -2993 -101 0
2994 -2993 101 0
2994 2993 -101 0
-2995 2994 102 0
-2995 -2994 -102 0
2995 -2994 102 0
2995 2994 -102 0
-2996 2995 103 0
-2996 -2995 -103 0
2996 -2995 103 0
2996 2995 -103 0
-2997 2996 107 0
-2997 -2996 -107 0
2997 -2996 107 0
2997 2996 -107 0
-2998 2997 109 0
-2998 -2997 -109 0
2998 -2997 109 0
2998 2997 -109 0
-2999 2998 111 0
-2999 -2998 -111 0
2999 -2998 111 0
2999 2998 -111 0
-3000 2999 112 0
-3000 -2999 -112 0
3000 -2999 112 0
3000 2999 -112 0
-3001 3000 120 0
-3001 -3000 -120 0
3001 -3000 120 0
3001 3000 -120 0
-3002 3001 127 0
-3002 -3001 -127 0
3002 -3001 127 0
3002 3001 -127 0
-3003 3002 128 0
-3003 -3002 -128 0
3003 -3002 128 0
3003 3002 -128 0
-3004 3003 131 0
-3004 -3003 -131 0
3004 -3003 131 0
3004 3003 -131 0
-3005 3004 132 0
-3005 -3004 -132 0
3005 -3004 132 0
3005 3004 -132 0
-3006 3005 139 0
-3006 -3005 -139 0
3006 -3005 139 0
3006 3005 -139 0
-3007 3006 141 0
-3007 -3006 -141 0
3007 -3006 141 0
3007 3006 -141 0
-3008 3007 143 0
-3008 -3007 -143 0
3008 -3007 143 0
3008 3007 -143 0
-3009 3008 184 0
-3009 -3008 -184 0
3009 -3008 184 0
3009 3008 -184 0
-3010 3009 208 0
-3010 -3009 -208 0
3010 -3009 208 0
3010 3009 -208 0
-3011 3010 240 0
-3011 -3010 -240 0
3011 -3010 240 0
3011 3010 -240 0
-3012 3011 242 0
-3012 -3011 -242 0
3012 -3011 242 0
3012 3011 -242 0
-3013 3012 248 0
-3013 -3012 -248 0
3013 -3012 248 0
3013 3012 -248 0
-3014 3013 255 0
-3014 -3013 -255 0
3014 -3013 255 0
3014 3013 -255 0
-3015 3014 256 0
-3015 -3014 -256 0
3015 -3014 256 0
3015 3014 -256 0
-3016 3015 261 0
-3016 -3015 -261 0
3016 -3015 261 0
3016 3015 -261 0
-3017 3016 262 0
-3017 -3016 -262 0
3017 -3016 262 0
3017 3016 -262 0
-3018 3017 264 0
-3018 -3017 -264 0
3018 -3017 264 0
3018 3017 -264 0
-3019 3018 266 0
-3019 -3018 -266 0
3019 -3018 266 0
3019 3018 -266 0
-3020 3019 268 0
-3020 -3019 -268 0
3020 -3019 268 0
3020 3019 -268 0
-3021 3020 270 0
-3021 -3020 -270 0
3021 -3020 270 0
3021 3020 -270 0
-3022 3021 272 0
-3022 -3021 -272 0
3022 -3021 272 0
3022 3021 -272 0
-3023 3022 274 0
-3023 -3022 -274 0
3023 -3022 274 0
3023 3022 -274 0
-3024 3023 276 0
-3024 -3023 -276 0
3024 -3023 276 0
3024 3023 -276 0
-3025 3024 277 0
-3025 -3024 -277 0
3025 -3024 277 0
3025 3024 -277 0
-3026 3025 278 0
-3026 -3025 -278 0
3026 -3025 278 0
3026 3025 -278 0
-3027 3026 279 0
-3027 -3026 -279 0
3027 -3026 279 0
3027 3026 -279 0
-3028 3027 280 0
-3028 -3027 -280 0
3028 -3027 280 0
3028 3027 -280 0
-3029 3028 281 0
-3029 -3028 -281 0
3029 -3028 281 0
3029 3028 -281 0
-3030 3029 282 0
-3030 -3029 -282 0
3030 -3029 282 0
3030 3029 -282 0
-3031 3030 283 0
-3031 -3030 -283 0
3031 -3030 283 0
3031 3030 -283 0
-3032 3031 284 0
-3032 -3031 -284 0
3032 -3031 284 0
3032 3031 -284 0
-3033 3032 285 0
-3033 -3032 -285 0
3033 -3032 285 0
3033 3032 -285 0
-3034 3033 286 0
-3034 -3033 -286 0
3034 -3033 286 0
3034 3033 -286 0
-3035 3034 287 0
-3035 -3034 -287 0
3035 -3034 287 0
3035 3034 -287 0
-3036 3035 288 0
-3036 -3035 -288 0
3036 -3035 288 0
3036 3035 -288 0
-3036 0
-3037 61 65 0
-3037 -61 -65 0
3037 -61 65 0
3037 61 -65 0
-3038 3037 67 0
-3038 -3037 -67 0
3038 -3037 67 0
3038 3037 -67 0
-3039 3038 69 0
-3039 -3038 -69 0
3039 -3038 69 0
3039 3038 -69 0
-3040 3039 70 0
-3040 -3039 -70 0
3040 -3039 70 0
3040 3039 -70 0
-3041 3040 84 0
-3041 -3040 -84 0
3041 -3040 84 0
3041 3040 -84 0
-3042 3041 85 0
-3042 -3041 -85 0
3042 -3041 85 0
3042 3041 -85 0
-3043 3042 86 0
-3043 -3042 -86 0
3043 -3042 86 0
3043 3042 -86 0
-3044 3043 87 0
-3044 -3043 -87 0
3044 -3043 87 0
3044 3043 -87 0
-3045 3044 88 0
-3045 -3044 -88 0
3045 -3044 88 0
3045 3044 -88 0
-3046 3045 91 0
-3046 -3045 -91 0
3046 -3045 91 0
3046 3045 -91 0
-3047 3046 92 0
-3047 -3046 -92 0
3047 -3046 92 0
3047 3046 -92 0
-3048 3047 94 0
-3048 -3047 -94 0
3048 -3047 94 0
3048 3047 -94 0
-3049 3048 95 0
-3049 -3048 -95 0
3049 -3048 95 0
3049 3048 -95 0
-3050 3049 97 0
-3050 -3049 -97 0
3050 -3049 97 0
3050 3049 -97 0
-3051 3050 101 0
-3051 -3050 -101 0
3051 -3050 101 0
3051 3050 -101 0
-3052 3051 102 0
-3052 -3051 -102 0
3052 -3051 102 0
3052 3051 -102 0
-3053 3052 104 0
-3053 -3052 -104 0
3053 -3052 104 0
3053 3052 -104 0
-3054 3053 108 0
-3054 -3053 -108 0
3054 -3053 108 0
3054 3053 -108 0
-3055 3054 110 0
-3055 -3054 -110 0
3055 -3054 110 0
3055 3054 -110 0
-3056 3055 112 0
-3056 -3055 -112 0
3056 -3055 112 0
3056 3055 -112 0
-3057 3056 113 0
-3057 -3056 -113 0
3057 -3056 113 0
3057 3056 -113 0
-3058 3057 115 0
-3058 -3057 -115 0
3058 -3057 115 0
3058 3057 -115 0
-3059 3058 127 0
-3059 -3058 -127 0
3059 -3058 127 0
3059 3058 -127 0
-3060 3059 128 0
-3060 -3059 -128 0
3060 -3059 128 0
3060 3059 -128 0
-3061 3060 129 0
-3061 -3060 -129 0
3061 -3060 129 0
3061 3060 -129 0
-3062 3061 132 0
-3062 -3061 -132 0
3062 -3061 132 0
3062 3061 -132 0
-3063 3062 140 0
-3063 -3062 -140 0
3063 -3062 140 0
3063 3062 -140 0
-3064 3063 142 0
-3064 -3063 -142 0
3064 -3063 142 0
3064 3063 -142 0
-3065 3064 144 0
-3065 -3064 -144 0
3065 -3064 144 0
3065 3064 -144 0
-3066 3065 185 0
-3066 -3065 -185 0
3066 -3065 185 0
3066 3065 -185 0
-3067 3066 209 0
-3067 -3066 -209 0
3067 -3066 209 0
3067 3066 -209 0
-3068 3067 235 0
-3068 -3067 -235 0
3068 -3067 235 0
3068 3067 -235 0
-3069 3068 243 0
-3069 -3068 -243 0
3069 -3068 243 0
3069 3068 -243 0
-3070 3069 249 0
-3070 -3069 -249 0
3070 -3069 249 0
3070 3069 -249 0
-3071 3070 256 0
-3071 -3070 -256 0
3071 -3070 256 0
3071 3070 -256 0
-3072 3071 257 0
-3072 -3071 -257 0
3072 -3071 257 0
3072 3071 -257 0
-3073 3072 259 0
-3073 -3072 -259 0
3073 -3072 259 0
3073 3072 -259 0
-3074 3073 262 0
-3074 -3073 -262 0
3074 -3073 262 0
3074 3073 -262 0
-3075 3074 263 0
-3075 -3074 -263 0
3075 -3074 263 0
3075 3074 -263 0
-3076 3075 265 0
-3076 -3075 -265 0
3076 -3075 265 0
3076 3075 -265 0
-3077 3076 267 0
-3077 -3076 -267 0
3077 -3076 267 0
3077 3076 -267 0
-3078 3077 269 0
-3078 -3077 -269 0
3078 -3077 269 0
3078 3077 -269 0
-3079 3078 271 0
-3079 -3078 -271 0
3079 -3078 271 0
3079 3078 -271 0
-3080 3079 273 0
-3080 -3079 -273 0
3080 -3079 273 0
3080 3079 -273 0
-3081 3080 275 0
-3081 -3080 -275 0
3081 -3080 275 0
3081 3080 -275 0
-3082 3081 277 0
-3082 -3081 -277 0
3082 -3081 277 0
3082 3081 -277 0
-3083 3082 278 0
-3083 -3082 -278 0
3083 -3082 278 0
3083 3082 -278 0
-3084 3083 279 0
-3084 -3083 -279 0
3084 -3083 279 0
3084 3083 -279 0
-3085 3084 280 0
-3085 -3084 -280 0
3085 -3084 280 0
3085 3084 -280 0
-3086 3085 281 0
-3086 -3085 -281 0
3086 -3085 281 0
3086 3085 -281 0
-3087 3086 282 0
-3087 -3086 -282 0
3087 -3086 282 0
3087 3086 -282 0
-3088 3087 283 0
-3088 -3087 -283 0
3088 -3087 283 0
3088 3087 -283 0
-3089 3088 284 0
-3089 -3088 -284 0
3089 -3088 284 0
3089 3088 -284 0
-3090 3089 285 0
-3090 -3089 -285 0
3090 -3089 285 0
3090 3089 -285 0
-3091 3090 286 0
-3091 -3090 -286 0
3091 -3090 286 0
3091 3090 -286 0
-3092 3091 287 0
-3092 -3091 -287 0
3092 -3091 287 0
3092 3091 -287 0
-3093 3092 288 0
-3093 -3092 -288 0
3093 -3092 288 0
3093 3092 -288 0
-3093 0
-3094 62 66 0
-3094 -62 -66 0
3094 -62 66 0
3094 62 -66 0
-3095 3094 68 0
-3095 -3094 -68 0
3095 -3094 68 0
3095 3094 -68 0
-3096 3095 70 0
-3096 -3095 -70 0
3096 -3095 70 0
3096 3095 -70 0
-3097 3096 71 0
-3097 -3096 -71 0
3097 -3096 71 0
3097 3096 -71 0
-3098 3097 83 0
-3098 -3097 -83 0
3098 -3097 83 0
3098 3097 -83 0
-3099 3098 84 0
-3099 -3098 -84 0
3099 -3098 84 0
3099 3098 -84 0
-3100 3099 86 0
-3100 -3099 -86 0
3100 -3099 86 0
3100 3099 -86 0
-3101 3100 87 0
-3101 -3100 -87 0
3101 -3100 87 0
3101 3100 -87 0
-3102 3101 90 0
-3102 -3101 -90 0
3102 -3101 90 0
3102 3101 -90 0
-3103 3102 91 0
-3103 -3102 -91 0
3103 -3102 91 0
3103 3102 -91 0
-3104 3103 94 0
-3104 -3103 -94 0
3104 -3103 94 0
3104 3103 -94 0
-3105 3104 97 0
-3105 -3104 -97 0
3105 -3104 97 0
3105 3104 -97 0
-3106 3105 99 0
-3106 -3105 -99 0
3106 -3105 99 0
3106 3105 -99 0
-3107 3106 100 0
-3107 -3106 -100 0
3107 -3106 100 0
3107 3106 -100 0
-3108 3107 102 0
-3108 -3107 -102 0
3108 -3107 102 0
3108 3107 -102 0
-3109 3108 103 0
-3109 -3108 -103 0
3109 -3108 103 0
3109 3108 -103 0
-3110 3109 105 0
-3110 -3109 -105 0
3110 -3109 105 0
3110 3109 -105 0
-3111 3110 106 0
-3111 -3110 -106 0
3111 -3110 106 0
3111 3110 -106 0
-3112 3111 107 0
-3112 -3111 -107 0
3112 -3111 107 0
3112 3111 -107 0
-3113 3112 108 0
-3113 -3112 -108 0
3113 -3112 108 0
3113 3112 -108 0
-3114 3113 111 0
-3114 -3113 -111 0
3114 -3113 111 0
3114 3113 -111 0
-3115 3114 113 0
-3115 -3114 -113 0
3115 -3114 113 0
3115 3114 -113 0
-3116 3115 114 0
-3116 -3115 -114 0
3116 -3115 114 0
3116 3115 -114 0
-3117 3116 115 0
-3117 -3116 -115 0
3117 -3116 115 0
3117 3116 -115 0
-3118 3117 116 0
-3118 -3117 -116 0
3118 -3117 116 0
3118 3117 -116 0
-3119 3118 119 0
-3119 -3118 -119 0
3119 -3118 119 0
3119 3118 -119 0
-3120 3119 120 0
-3120 -3119 -120 0
3120 -3119 120 0
3120 3119 -120 0
-3121 3120 124 0
-3121 -3120 -124 0
3121 -3120 124 0
3121 3120 -124 0
-3122 3121 125 0
-3122 -3121 -125 0
3122 -3121 125 0
3122 3121 -125 0
-3123 3122 126 0
-3123 -3122 -126 0
3123 -3122 126 0
3123 3122 -126 0
-3124 3123 131 0
-3124 -3123 -131 0
3124 -3123 131 0
3124 3123 -131 0
-3125 3124 132 0
-3125 -3124 -132 0
3125 -3124 132 0
3125 3124 -132 0
-3126 3125 134 0
-3126 -3125 -134 0
3126 -3125 134 0
3126 3125 -134 0
-3127 3126 135 0
-3127 -3126 -135 0
3127 -3126 135 0
3127 3126 -135 0
-3128 3127 136 0
-3128 -3127 -136 0
3128 -3127 136 0
3128 3127 -136 0
-3129 3128 139 0
-3129 -3128 -139 0
3129 -3128 139 0
3129 3128 -139 0
-3130 3129 141 0
-3130 -3129 -141 0
3130 -3129 141 0
3130 3129 -141 0
-3131 3130 142 0
-3131 -3130 -142 0
3131 -3130 142 0
3131 3130 -142 0
-3132 3131 144 0
-3132 -3131 -144 0
3132 -3131 144 0
3132 3131 -144 0
-3133 3132 186 0
-3133 -3132 -186 0
3133 -3132 186 0
3133 3132 -186 0
-3134 3133 210 0
-3134 -3133 -210 0
3134 -3133 210 0
3134 3133 -210 0
-3135 3134 236 0
-3135 -3134 -236 0
3135 -3134 236 0
3135 3134 -236 0
-3136 3135 244 0
-3136 -3135 -244 0
3136 -3135 244 0
3136 3135 -244 0
-3137 3136 250 0
-3137 -3136 -250 0
3137 -3136 250 0
3137 3136 -250 0
-3138 3137 257 0
-3138 -3137 -257 0
3138 -3137 257 0
3138 3137 -257 0
-3139 3138 258 0
-3139 -3138 -258 0
3139 -3138 258 0
3139 3138 -258 0
-3140 3139 260 0
-3140 -3139 -260 0
3140 -3139 260 0
3140 3139 -260 0
-3141 3140 263 0
-3141 -3140 -263 0
3141 -3140 263 0
3141 3140 -263 0
-3142 3141 264 0
-3142 -3141 -264 0
3142 -3141 264 0
3142 3141 -264 0
-3143 3142 266 0
-3143 -3142 -266 0
3143 -3142 266 0
3143 3142 -266 0
-3144 3143 268 0
-3144 -3143 -268 0
3144 -3143 268 0
3144 3143 -268 0
-3145 3144 270 0
-3145 -3144 -270 0
3145 -3144 270 0
3145 3144 -270 0
-3146 3145 272 0
-3146 -3145 -272 0
3146 -3145 272 0
3146 3145 -272 0
-3147 3146 274 0
-3147 -3146 -274 0
3147 -3146 274 0
3147 3146 -274 0
-3148 3147 276 0
-3148 -3147 -276 0
3148 -3147 276 0
3148 3147 -276 0
-3149 3148 277 0
-3149 -3148 -277 0
3149 -3148 277 0
3149 3148 -277 0
-3150 3149 278 0
-3150 -3149 -278 0
3150 -3149 278 0
3150 3149 -278 0
-3151 3150 279 0
-3151 -3150 -279 0
3151 -3150 279 0
3151 3150 -279 0
-3152 3151 280 0
-3152 -3151 -280 0
3152 -3151 280 0
3152 3151 -280 0
-3153 3152 281 0
-3153 -3152 -281 0
3153 -3152 281 0
3153 3152 -281 0
-3154 3153 282 0
-3154 -3153 -282 0
3154 -3153 282 0
3154 3153 -282 0
-3155 3154 283 0
-3155 -3154 -283 0
3155 -3154 283 0
3155 3154 -283 0
-3156 3155 284 0
-3156 -3155 -284 0
3156 -3155 284 0
3156 3155 -284 0
-3157 3156 285 0
-3157 -3156 -285 0
3157 -3156 285 0
3157 3156 -285 0
-3158 3157 286 0
-3158 -3157 -286 0
3158 -3157 286 0
3158 3157 -286 0
-3159 3158 287 0
-3159 -3158 -287 0
3159 -3158 287 0
3159 3158 -287 0
-3160 3159 288 0
-3160 -3159 -288 0
3160 -3159 288 0
3160 3159 -288 0
-3160 0
-3161 61 63 0
-3161 -61 -63 0
3161 -61 63 0
3161 61 -63 0
-3162 3161 66 0
-3162 -3161 -66 0
3162 -3161 66 0
3162 3161 -66 0
-3163 3162 68 0
-3163 -3162 -68 0
3163 -3162 68 0
3163 3162 -68 0
-3164 3163 72 0
-3164 -3163 -72 0
3164 -3163 72 0
3164 3163 -72 0
-3165 3164 86 0
-3165 -3164 -86 0
3165 -3164 86 0
3165 3164 -86 0
-3166 3165 91 0
-3166 -3165 -91 0
3166 -3165 91 0
3166 3165 -91 0
-3167 3166 92 0
-3167 -3166 -92 0
3167 -3166 92 0
3167 3166 -92 0
-3168 3167 97 0
-3168 -3167 -97 0
3168 -3167 97 0
3168 3167 -97 0
-3169 3168 99 0
-3169 -3168 -99 0
3169 -3168 99 0
3169 3168 -99 0
-3170 3169 100 0
-3170 -3169 -100 0
3170 -3169 100 0
3170 3169 -100 0
-3171 3170 102 0
-3171 -3170 -102 0
3171 -3170 102 0
3171 3170 -102 0
-3172 3171 106 0
-3172 -3171 -106 0
3172 -3171 106 0
3172 3171 -106 0
-3173 3172 107 0
-3173 -3172 -107 0
3173 -3172 107 0
3173 3172 -107 0
-3174 3173 108 0
-3174 -3173 -108 0
3174 -3173 108 0
3174 3173 -108 0
-3175 3174 109 0
-3175 -3174 -109 0
3175 -3174 109 0
3175 3174 -109 0
-3176 3175 110 0
-3176 -3175 -110 0
3176 -3175 110 0
3176 3175 -110 0
-3177 3176 111 0
-3177 -3176 -111 0
3177 -3176 111 0
3177 3176 -111 0
-3178 3177 112 0
-3178 -3177 -112 0
3178 -3177 112 0
3178 3177 -112 0
-3179 3178 113 0
-3179 -3178 -113 0
3179 -3178 113 0
3179 3178 -113 0
-3180 3179 115 0
-3180 -3179 -115 0
3180 -3179 115 0
3180 3179 -115 0
-3181 3180 116 0
-3181 -3180 -116 0
3181 -3180 116 0
3181 3180 -116 0
-3182 3181 118 0
-3182 -3181 -118 0
3182 -3181 118 0
3182 3181 -118 0
-3183 3182 123 0
-3183 -3182 -123 0
3183 -3182 123 0
3183 3182 -123 0
-3184 3183 127 0
-3184 -3183 -127 0
3184 -3183 127 0
3184 3183 -127 0
-3185 3184 130 0
-3185 -3184 -130 0
3185 -3184 130 0
3185 3184 -130 0
-3186 3185 131 0
-3186 -3185 -131 0
3186 -3185 131 0
3186 3185 -131 0
-3187 3186 132 0
-3187 -3186 -132 0
3187 -3186 132 0
3187 3186 -132 0
-3188 3187 133 0
-3188 -3187 -133 0
3188 -3187 133 0
3188 3187 -133 0
-3189 3188 138 0
-3189 -3188 -138 0
3189 -3188 138 0
3189 3188 -138 0
-3190 3189 187 0
-3190 -3189 -187 0
3190 -3189 187 0
3190 3189 -187 0
-3191 3190 213 0
-3191 -3190 -213 0
3191 -3190 213 0
3191 3190 -213 0
-3192 3191 215 0
-3192 -3191 -215 0
3192 -3191 215 0
3192 3191 -215 0
-3193 3192 243 0
-3193 -3192 -243 0
3193 -3192 243 0
3193 3192 -243 0
-3194 3193 251 0
-3194 -3193 -251 0
3194 -3193 251 0
3194 3193 -251 0
-3195 3194 257 0
-3195 -3194 -257 0
3195 -3194 257 0
3195 3194 -257 0
-3196 3195 259 0
-3196 -3195 -259 0
3196 -3195 259 0
3196 3195 -259 0
-3197 3196 264 0
-3197 -3196 -264 0
3197 -3196 264 0
3197 3196 -264 0
-3198 3197 269 0
-3198 -3197 -269 0
3198 -3197 269 0
3198 3197 -269 0
-3199 3198 270 0
-3199 -3198 -270 0
3199 -3198 270 0
3199 3198 -270 0
-3199 0
-3200 61 62 0
-3200 -61 -62 0
3200 -61 62 0
3200 61 -62 0
-3201 3200 64 0
-3201 -3200 -64 0
3201 -3200 64 0
3201 3200 -64 0
-3202 3201 67 0
-3202 -3201 -67 0
3202 -3201 67 0
3202 3201 -67 0
-3203 3202 69 0
-3203 -3202 -69 0
3203 -3202 69 0
3203 3202 -69 0
-3204 3203 87 0
-3204 -3203 -87 0
3204 -3203 87 0
3204 3203 -87 0
-3205 3204 92 0
-3205 -3204 -92 0
3205 -3204 92 0
3205 3204 -92 0
-3206 3205 93 0
-3206 -3205 -93 0
3206 -3205 93 0
3206 3205 -93 0
-3207 3206 97 0
-3207 -3206 -97 0
3207 -3206 97 0
3207 3206 -97 0
-3208 3207 98 0
-3208 -3207 -98 0
3208 -3207 98 0
3208 3207 -98 0
-3209 3208 100 0
-3209 -3208 -100 0
3209 -3208 100 0
3209 3208 -100 0
-3210 3209 101 0
-3210 -3209 -101 0
3210 -3209 101 0
3210 3209 -101 0
-3211 3210 103 0
-3211 -3210 -103 0
3211 -3210 103 0
3211 3210 -103 0
-3212 3211 107 0
-3212 -3211 -107 0
3212 -3211 107 0
3212 3211 -107 0
-3213 3212 108 0
-3213 -3212 -108 0
3213 -3212 108 0
3213 3212 -108 0
-3214 3213 110 0
-3214 -3213 -110 0
3214 -3213 110 0
3214 3213 -110 0
-3215 3214 111 0
-3215 -3214 -111 0
3215 -3214 111 0
3215 3214 -111 0
-3216 3215 112 0
-3216 -3215 -112 0
3216 -3215 112 0
3216 3215 -112 0
-3217 3216 113 0
-3217 -3216 -113 0
3217 -3216 113 0
3217 3216 -113 0
-3218 3217 114 0
-3218 -3217 -114 0
3218 -3217 114 0
3218 3217 -114 0
-3219 3218 116 0
-3219 -3218 -116 0
3219 -3218 116 0
3219 3218 -116 0
-3220 3219 117 0
-3220 -3219 -117 0
3220 -3219 117 0
3220 3219 -117 0
-3221 3220 119 0
-3221 -3220 -119 0
3221 -3220 119 0
3221 3220 -119 0
-3222 3221 124 0
-3222 -3221 -124 0
3222 -3221 124 0
3222 3221 -124 0
-3223 3222 127 0
-3223 -3222 -127 0
3223 -3222 127 0
3223 3222 -127 0
-3224 3223 128 0
-3224 -3223 -128 0
3224 -3223 128 0
3224 3223 -128 0
-3225 3224 131 0
-3225 -3224 -131 0
3225 -3224 131 0
3225 3224 -131 0
-3226 3225 132 0
-3226 -3225 -132 0
3226 -3225 132 0
3226 3225 -132 0
-3227 3226 133 0
-3227 -3226 -133 0
3227 -3226 133 0
3227 3226 -133 0
-3228 3227 134 0
-3228 -3227 -134 0
3228 -3227 134 0
3228 3227 -134 0
-3229 3228 188 0
-3229 -3228 -188 0
3229 -3228 188 0
3229 3228 -188 0
-3230 3229 214 0
-3230 -3229 -214 0
3230 -3229 214 0
3230 3229 -214 0
-3231 3230 216 0
-3231 -3230 -216 0
3231 -3230 216 0
3231 3230 -216 0
-3232 3231 244 0
-3232 -3231 -244 0
3232 -3231 244 0
3232 3231 -244 0
-3233 3232 252 0
-3233 -3232 -252 0
3233 -3232 252 0
3233 3232 -252 0
-3234 3233 258 0
-3234 -3233 -258 0
3234 -3233 258 0
3234 3233 -258 0
-3235 3234 259 0
-3235 -3234 -259 0
3235 -3234 259 0
3235 3234 -259 0
-3236 3235 260 0
-3236 -3235 -260 0
3236 -3235 260 0
3236 3235 -260 0
-3237 3236 265 0
-3237 -3236 -265 0
3237 -3236 265 0
3237 3236 -265 0
-3238 3237 270 0
-3238 -3237 -270 0
3238 -3237 270 0
3238 3237 -270 0
-3238 0
-3239 61 64 0
-3239 -61 -64 0
3239 -61 64 0
3239 61 -64 0
-3240 3239 66 0
-3240 -3239 -66 0
3240 -3239 66 0
3240 3239 -66 0
-3241 3240 72 0
-3241 -3240 -72 0
3241 -3240 72 0
3241 3240 -72 0
-3242 3241 84 0
-3242 -3241 -84 0
3242 -3241 84 0
3242 3241 -84 0
-3243 3242 85 0
-3243 -3242 -85 0
3243 -3242 85 0
3243 3242 -85 0
-3244 3243 86 0
-3244 -3243 -86 0
3244 -3243 86 0
3244 3243 -86 0
-3245 3244 88 0
-3245 -3244 -88 0
3245 -3244 88 0
3245 3244 -88 0
-3246 3245 89 0
-3246 -3245 -89 0
3246 -3245 89 0
3246 3245 -89 0
-3247 3246 90 0
-3247 -3246 -90 0
3247 -3246 90 0
3247 3246 -90 0
-3248 3247 91 0
-3248 -3247 -91 0
3248 -3247 91 0
3248 3247 -91 0
-3249 3248 92 0
-3249 -3248 -92 0
3249 -3248 92 0
3249 3248 -92 0
-3250 3249 94 0
-3250 -3249 -94 0
3250 -3249 94 0
3250 3249 -94 0
-3251 3250 97 0
-3251 -3250 -97 0
3251 -3250 97 0
3251 3250 -97 0
-3252 3251 98 0
-3252 -3251 -98 0
3252 -3251 98 0
3252 3251 -98 0
-3253 3252 100 0
-3253 -3252 -100 0
3253 -3252 100 0
3253 3252 -100 0
-3254 3253 101 0
-3254 -3253 -101 0
3254 -3253 101 0
3254 3253 -101 0
-3255 3254 102 0
-3255 -3254 -102 0
3255 -3254 102 0
3255 3254 -102 0
-3256 3255 103 0
-3256 -3255 -103 0
3256 -3255 103 0
3256 3255 -103 0
-3257 3256 104 0
-3257 -3256 -104 0
3257 -3256 104 0
3257 3256 -104 0
-3258 3257 106 0
-3258 -3257 -106 0
3258 -3257 106 0
3258 3257 -106 0
-3259 3258 109 0
-3259 -3258 -109 0
3259 -3258 109 0
3259 3258 -109 0
-3260 3259 110 0
-3260 -3259 -110 0
3260 -3259 110 0
3260 3259 -110 0
-3261 3260 111 0
-3261 -3260 -111 0
3261 -3260 111 0
3261 3260 -111 0
-3262 3261 112 0
-3262 -3261 -112 0
3262 -3261 112 0
3262 3261 -112 0
-3263 3262 114 0
-3263 -3262 -114 0
3263 -3262 114 0
3263 3262 -114 0
-3264 3263 116 0
-3264 -3263 -116 0
3264 -3263 116 0
3264 3263 -116 0
-3265 3264 117 0
-3265 -3264 -117 0
3265 -3264 117 0
3265 3264 -117 0
-3266 3265 118 0
-3266 -3265 -118 0
3266 -3265 118 0
3266 3265 -118 0
-3267 3266 119 0
-3267 -3266 -119 0
3267 -3266 119 0
3267 3266 -119 0
-3268 3267 122 0
-3268 -3267 -122 0
3268 -3267 122 0
3268 3267 -122 0
-3269 3268 123 0
-3269 -3268 -123 0
3269 -3268 123 0
3269 3268 -123 0
-3270 3269 124 0
-3270 -3269 -124 0
3270 -3269 124 0
3270 3269 -124 0
-3271 3270 130 0
-3271 -3270 -130 0
3271 -3270 130 0
3271 3270 -130 0
-3272 3271 131 0
-3272 -3271 -131 0
3272 -3271 131 0
3272 3271 -131 0
-3273 3272 133 0
-3273 -3272 -133 0
3273 -3272 133 0
3273 3272 -133 0
-3274 3273 136 0
-3274 -3273 -136 0
3274 -3273 136 0
3274 3273 -136 0
-3275 3274 137 0
-3275 -3274 -137 0
3275 -3274 137 0
3275 3274 -137 0
-3276 3275 140 0
-3276 -3275 -140 0
3276 -3275 140 0
3276 3275 -140 0
-3277 3276 142 0
-3277 -3276 -142 0
3277 -3276 142 0
3277 3276 -142 0
-3278 3277 143 0
-3278 -3277 -143 0
3278 -3277 143 0
3278 3277 -143 0
-3279 3278 144 0
-3279 -3278 -144 0
3279 -3278 144 0
3279 3278 -144 0
-3280 3279 189 0
-3280 -3279 -189 0
3280 -3279 189 0
3280 3279 -189 0
-3281 3280 213 0
-3281 -3280 -213 0
3281 -3280 213 0
3281 3280 -213 0
-3282 3281 221 0
-3282 -3281 -221 0
3282 -3281 221 0
3282 3281 -221 0
-3283 3282 222 0
-3283 -3282 -222 0
3283 -3282 222 0
3283 3282 -222 0
-3284 3283 225 0
-3284 -3283 -225 0
3284 -3283 225 0
3284 3283 -225 0
-3285 3284 227 0
-3285 -3284 -227 0
3285 -3284 227 0
3285 3284 -227 0
-3286 3285 230 0
-3286 -3285 -230 0
3286 -3285 230 0
3286 3285 -230 0
-3287 3286 234 0
-3287 -3286 -234 0
3287 -3286 234 0
3287 3286 -234 0
-3288 3287 235 0
-3288 -3287 -235 0
3288 -3287 235 0
3288 3287 -235 0
-3289 3288 238 0
-3289 -3288 -238 0
3289 -3288 238 0
3289 3288 -238 0
-3290 3289 239 0
-3290 -3289 -239 0
3290 -3289 239 0
3290 3289 -239 0
-3291 3290 240 0
-3291 -3290 -240 0
3291 -3290 240 0
3291 3290 -240 0
-3292 3291 241 0
-3292 -3291 -241 0
3292 -3291 241 0
3292 3291 -241 0
-3293 3292 242 0
-3293 -3292 -242 0
3293 -3292 242 0
3293 3292 -242 0
-3294 3293 243 0
-3294 -3293 -243 0
3294 -3293 243 0
3294 3293 -243 0
-3295 3294 244 0
-3295 -3294 -244 0
3295 -3294 244 0
3295 3294 -244 0
-3296 3295 245 0
-3296 -3295 -245 0
3296 -3295 245 0
3296 3295 -245 0
-3297 3296 247 0
-3297 -3296 -247 0
3297 -3296 247 0
3297 3296 -247 0
-3298 3297 249 0
-3298 -3297 -249 0
3298 -3297 249 0
3298 3297 -249 0
-3299 3298 251 0
-3299 -3298 -251 0
3299 -3298 251 0
3299 3298 -251 0
-3300 3299 253 0
-3300 -3299 -253 0
3300 -3299 253 0
3300 3299 -253 0
-3301 3300 254 0
-3301 -3300 -254 0
3301 -3300 254 0
3301 3300 -254 0
-3302 3301 258 0
-3302 -3301 -258 0
3302 -3301 258 0
3302 3301 -258 0
-3303 3302 259 0
-3303 -3302 -259 0
3303 -3302 259 0
3303 3302 -259 0
-3304 3303 260 0
-3304 -3303 -260 0
3304 -3303 260 0
3304 3303 -260 0
-3305 3304 261 0
-3305 -3304 -261 0
3305 -3304 261 0
3305 3304 -261 0
-3306 3305 262 0
-3306 -3305 -262 0
3306 -3305 262 0
3306 3305 -262 0
-3307 3306 263 0
-3307 -3306 -263 0
3307 -3306 263 0
3307 3306 -263 0
-3308 3307 264 0
-3308 -3307 -264 0
3308 -3307 264 0
3308 3307 -264 0
-3309 3308 265 0
-3309 -3308 -265 0
3309 -3308 265 0
3309 3308 -265 0
-3310 3309 268 0
-3310 -3309 -268 0
3310 -3309 268 0
3310 3309 -268 0
-3311 3310 269 0
-3311 -3310 -269 0
3311 -3310 269 0
3311 3310 -269 0
-3312 3311 271 0
-3312 -3311 -271 0
3312 -3311 271 0
3312 3311 -271 0
-3313 3312 277 0
-3313 -3312 -277 0
3313 -3312 277 0
3313 3312 -277 0
-3314 3313 278 0
-3314 -3313 -278 0
3314 -3313 278 0
3314 3313 -278 0
-3315 3314 279 0
-3315 -3314 -279 0
3315 -3314 279 0
3315 3314 -279 0
-3316 3315 281 0
-3316 -3315 -281 0
3316 -3315 281 0
3316 3315 -281 0
-3317 3316 282 0
-3317 -3316 -282 0
3317 -3316 282 0
3317 3316 -282 0
-3318 3317 284 0
-3318 -3317 -284 0
3318 -3317 284 0
3318 3317 -284 0
-3319 3318 285 0
-3319 -3318 -285 0
3319 -3318 285 0
3319 3318 -285 0
-3319 0
-3320 61 62 0
-3320 -61 -62 0
3320 -61 62 0
3320 61 -62 0
-3321 3320 65 0
-3321 -3320 -65 0
3321 -3320 65 0
3321 3320 -65 0
-3322 3321 67 0
-3322 -3321 -67 0
3322 -3321 67 0
3322 3321 -67 0
-3323 3322 84 0
-3323 -3322 -84 0
3323 -3322 84 0
3323 3322 -84 0
-3324 3323 87 0
-3324 -3323 -87 0
3324 -3323 87 0
3324 3323 -87 0
-3325 3324 88 0
-3325 -3324 -88 0
3325 -3324 88 0
3325 3324 -88 0
-3326 3325 89 0
-3326 -3325 -89 0
3326 -3325 89 0
3326 3325 -89 0
-3327 3326 96 0
-3327 -3326 -96 0
3327 -3326 96 0
3327 3326 -96 0
-3328 3327 102 0
-3328 -3327 -102 0
3328 -3327 102 0
3328 3327 -102 0
-3329 3328 107 0
-3329 -3328 -107 0
3329 -3328 107 0
3329 3328 -107 0
-3330 3329 109 0
-3330 -3329 -109 0
3330 -3329 109 0
3330 3329 -109 0
-3331 3330 112 0
-3331 -3330 -112 0
3331 -3330 112 0
3331 3330 -112 0
-3332 3331 114 0
-3332 -3331 -114 0
3332 -3331 114 0
3332 3331 -114 0
-3333 3332 115 0
-3333 -3332 -115 0
3333 -3332 115 0
3333 3332 -115 0
-3334 3333 116 0
-3334 -3333 -116 0
3334 -3333 116 0
3334 3333 -116 0
-3335 3334 118 0
-3335 -3334 -118 0
3335 -3334 118 0
3335 3334 -118 0
-3336 3335 120 0
-3336 -3335 -120 0
3336 -3335 120 0
3336 3335 -120 0
-3337 3336 121 0
-3337 -3336 -121 0
3337 -3336 121 0
3337 3336 -121 0
-3338 3337 131 0
-3338 -3337 -131 0
3338 -3337 131 0
3338 3337 -131 0
-3339 3338 132 0
-3339 -3338 -132 0
3339 -3338 132 0
3339 3338 -132 0
-3340 3339 133 0
-3340 -3339 -133 0
3340 -3339 133 0
3340 3339 -133 0
-3341 3340 134 0
-3341 -3340 -134 0
3341 -3340 134 0
3341 3340 -134 0
-3342 3341 137 0
-3342 -3341 -137 0
3342 -3341 137 0
3342 3341 -137 0
-3343 3342 139 0
-3343 -3342 -139 0
3343 -3342 139 0
3343 3342 -139 0
-3344 3343 141 0
-3344 -3343 -141 0
3344 -3343 141 0
3344 3343 -141 0
-3345 3344 190 0
-3345 -3344 -190 0
3345 -3344 190 0
3345 3344 -190 0
-3346 3345 214 0
-3346 -3345 -214 0
3346 -3345 214 0
3346 3345 -214 0
-3347 3346 221 0
-3347 -3346 -221 0
3347 -3346 221 0
3347 3346 -221 0
-3348 3347 222 0
-3348 -3347 -222 0
3348 -3347 222 0
3348 3347 -222 0
-3349 3348 225 0
-3349 -3348 -225 0
3349 -3348 225 0
3349 3348 -225 0
-3350 3349 227 0
-3350 -3349 -227 0
3350 -3349 227 0
3350 3349 -227 0
-3351 3350 230 0
-3351 -3350 -230 0
3351 -3350 230 0
3351 3350 -230 0
-3352 3351 234 0
-3352 -3351 -234 0
3352 -3351 234 0
3352 3351 -234 0
-3353 3352 235 0
-3353 -3352 -235 0
3353 -3352 235 0
3353 3352 -235 0
-3354 3353 238 0
-3354 -3353 -238 0
3354 -3353 238 0
3354 3353 -238 0
-3355 3354 239 0
-3355 -3354 -239 0
3355 -3354 239 0
3355 3354 -239 0
-3356 3355 240 0
-3356 -3355 -240 0
3356 -3355 240 0
3356 3355 -240 0
-3357 3356 241 0
-3357 -3356 -241 0
3357 -3356 241 0
3357 3356 -241 0
-3358 3357 242 0
-3358 -3357 -242 0
3358 -3357 242 0
3358 3357 -242 0
-3359 3358 243 0
-3359 -3358 -243 0
3359 -3358 243 0
3359 3358 -243 0
-3360 3359 244 0
-3360 -3359 -244 0
3360 -3359 244 0
3360 3359 -244 0
-3361 3360 246 0
-3361 -3360 -246 0
3361 -3360 246 0
3361 3360 -246 0
-3362 3361 248 0
-3362 -3361 -248 0
3362 -3361 248 0
3362 3361 -248 0
-3363 3362 249 0
-3363 -3362 -249 0
3363 -3362 249 0
3363 3362 -249 0
-3364 3363 251 0
-3364 -3363 -251 0
3364 -3363 251 0
3364 3363 -251 0
-3365 3364 258 0
-3365 -3364 -258 0
3365 -3364 258 0
3365 3364 -258 0
-3366 3365 259 0
-3366 -3365 -259 0
3366 -3365 259 0
3366 3365 -259 0
-3367 3366 261 0
-3367 -3366 -261 0
3367 -3366 261 0
3367 3366 -261 0
-3368 3367 263 0
-3368 -3367 -263 0
3368 -3367 263 0
3368 3367 -263 0
-3369 3368 264 0
-3369 -3368 -264 0
3369 -3368 264 0
3369 3368 -264 0
-3370 3369 265 0
-3370 -3369 -265 0
3370 -3369 265 0
3370 3369 -265 0
-3371 3370 266 0
-3371 -3370 -266 0
3371 -3370 266 0
3371 3370 -266 0
-3372 3371 270 0
-3372 -3371 -270 0
3372 -3371 270 0
3372 3371 -270 0
-3373 3372 272 0
-3373 -3372 -272 0
3373 -3372 272 0
3373 3372 -272 0
-3374 3373 273 0
-3374 -3373 -273 0
3374 -3373 273 0
3374 3373 -273 0
-3375 3374 274 0
-3375 -3374 -274 0
3375 -3374 274 0
3375 3374 -274 0
-3376 3375 275 0
-3376 -3375 -275 0
3376 -3375 275 0
3376 3375 -275 0
-3377 3376 276 0
-3377 -3376 -276 0
3377 -3376 276 0
3377 3376 -276 0
-3378 3377 280 0
-3378 -3377 -280 0
3378 -3377 280 0
3378 3377 -280 0
-3379 3378 284 0
-3379 -3378 -284 0
3379 -3378 284 0
3379 3378 -284 0
-3380 3379 285 0
-3380 -3379 -285 0
3380 -3379 285 0
3380 3379 -285 0
-3380 0
-3381 62 63 0
-3381 -62 -63 0
3381 -62 63 0
3381 62 -63 0
-3382 3381 66 0
-3382 -3381 -66 0
3382 -3381 66 0
3382 3381 -66 0
-3383 3382 68 0
-3383 -3382 -68 0
3383 -3382 68 0
3383 3382 -68 0
-3384 3383 84 0
-3384 -3383 -84 0
3384 -3383 84 0
3384 3383 -84 0
-3385 3384 85 0
-3385 -3384 -85 0
3385 -3384 85 0
3385 3384 -85 0
-3386 3385 86 0
-3386 -3385 -86 0
3386 -3385 86 0
3386 3385 -86 0
-3387 3386 89 0
-3387 -3386 -89 0
3387 -3386 89 0
3387 3386 -89 0
-3388 3387 91 0
-3388 -3387 -91 0
3388 -3387 91 0
3388 3387 -91 0
-3389 3388 92 0
-3389 -3388 -92 0
3389 -3388 92 0
3389 3388 -92 0
-3390 3389 93 0
-3390 -3389 -93 0
3390 -3389 93 0
3390 3389 -93 0
-3391 3390 95 0
-3391 -3390 -95 0
3391 -3390 95 0
3391 3390 -95 0
-3392 3391 96 0
-3392 -3391 -96 0
3392 -3391 96 0
3392 3391 -96 0
-3393 3392 98 0
-3393 -3392 -98 0
3393 -3392 98 0
3393 3392 -98 0
-3394 3393 99 0
-3394 -3393 -99 0
3394 -3393 99 0
3394 3393 -99 0
-3395 3394 101 0
-3395 -3394 -101 0
3395 -3394 101 0
3395 3394 -101 0
-3396 3395 104 0
-3396 -3395 -104 0
3396 -3395 104 0
3396 3395 -104 0
-3397 3396 105 0
-3397 -3396 -105 0
3397 -3396 105 0
3397 3396 -105 0
-3398 3397 108 0
-3398 -3397 -108 0
3398 -3397 108 0
3398 3397 -108 0
-3399 3398 109 0
-3399 -3398 -109 0
3399 -3398 109 0
3399 3398 -109 0
-3400 3399 111 0
-3400 -3399 -111 0
3400 -3399 111 0
3400 3399 -111 0
-3401 3400 114 0
-3401 -3400 -114 0
3401 -3400 114 0
3401 3400 -114 0
-3402 3401 121 0
-3402 -3401 -121 0
3402 -3401 121 0
3402 3401 -121 0
-3403 3402 122 0
-3403 -3402 -122 0
3403 -3402 122 0
3403 3402 -122 0
-3404 3403 123 0
-3404 -3403 -123 0
3404 -3403 123 0
3404 3403 -123 0
-3405 3404 124 0
-3405 -3404 -124 0
3405 -3404 124 0
3405 3404 -124 0
-3406 3405 125 0
-3406 -3405 -125 0
3406 -3405 125 0
3406 3405 -125 0
-3407 3406 127 0
-3407 -3406 -127 0
3407 -3406 127 0
3407 3406 -127 0
-3408 3407 132 0
-3408 -3407 -132 0
3408 -3407 132 0
3408 3407 -132 0
-3409 3408 133 0
-3409 -3408 -133 0
3409 -3408 133 0
3409 3408 -133 0
-3410 3409 134 0
-3410 -3409 -134 0
3410 -3409 134 0
3410 3409 -134 0
-3411 3410 135 0
-3411 -3410 -135 0
3411 -3410 135 0
3411 3410 -135 0
-3412 3411 140 0
-3412 -3411 -140 0
3412 -3411 140 0
3412 3411 -140 0
-3413 3412 142 0
-3413 -3412 -142 0
3413 -3412 142 0
3413 3412 -142 0
-3414 3413 143 0
-3414 -3413 -143 0
3414 -3413 143 0
3414 3413 -143 0
-3415 3414 144 0
-3415 -3414 -144 0
3415 -3414 144 0
3415 3414 -144 0
-3416 3415 191 0
-3416 -3415 -191 0
3416 -3415 191 0
3416 3415 -191 0
-3417 3416 215 0
-3417 -3416 -215 0
3417 -3416 215 0
3417 3416 -215 0
-3418 3417 221 0
-3418 -3417 -221 0
3418 -3417 221 0
3418 3417 -221 0
-3419 3418 222 0
-3419 -3418 -222 0
3419 -3418 222 0
3419 3418 -222 0
-3420 3419 225 0
-3420 -3419 -225 0
3420 -3419 225 0
3420 3419 -225 0
-3421 3420 227 0
-3421 -3420 -227 0
3421 -3420 227 0
3421 3420 -227 0
-3422 3421 230 0
-3422 -3421 -230 0
3422 -3421 230 0
3422 3421 -230 0
-3423 3422 234 0
-3423 -3422 -234 0
3423 -3422 234 0
3423 3422 -234 0
-3424 3423 235 0
-3424 -3423 -235 0
3424 -3423 235 0
3424 3423 -235 0
-3425 3424 238 0
-3425 -3424 -238 0
3425 -3424 238 0
3425 3424 -238 0
-3426 3425 239 0
-3426 -3425 -239 0
3426 -3425 239 0
3426 3425 -239 0
-3427 3426 240 0
-3427 -3426 -240 0
3427 -3426 240 0
3427 3426 -240 0
-3428 3427 242 0
-3428 -3427 -242 0
3428 -3427 242 0
3428 3427 -242 0
-3429 3428 243 0
-3429 -3428 -243 0
3429 -3428 243 0
3429 3428 -243 0
-3430 3429 244 0
-3430 -3429 -244 0
3430 -3429 244 0
3430 3429 -244 0
-3431 3430 251 0
-3431 -3430 -251 0
3431 -3430 251 0
3431 3430 -251 0
-3432 3431 254 0
-3432 -3431 -254 0
3432 -3431 254 0
3432 3431 -254 0
-3433 3432 255 0
-3433 -3432 -255 0
3433 -3432 255 0
3433 3432 -255 0
-3434 3433 258 0
-3434 -3433 -258 0
3434 -3433 258 0
3434 3433 -258 0
-3435 3434 259 0
-3435 -3434 -259 0
3435 -3434 259 0
3435 3434 -259 0
-3436 3435 264 0
-3436 -3435 -264 0
3436 -3435 264 0
3436 3435 -264 0
-3437 3436 266 0
-3437 -3436 -266 0
3437 -3436 266 0
3437 3436 -266 0
-3438 3437 267 0
-3438 -3437 -267 0
3438 -3437 267 0
3438 3437 -267 0
-3439 3438 269 0
-3439 -3438 -269 0
3439 -3438 269 0
3439 3438 -269 0
-3440 3439 271 0
-3440 -3439 -271 0
3440 -3439 271 0
3440 3439 -271 0
-3441 3440 277 0
-3441 -3440 -277 0
3441 -3440 277 0
3441 3440 -277 0
-3442 3441 278 0
-3442 -3441 -278 0
3442 -3441 278 0
3442 3441 -278 0
-3443 3442 279 0
-3443 -3442 -279 0
3443 -3442 279 0
3443 3442 -279 0
-3444 3443 281 0
-3444 -3443 -281 0
3444 -3443 281 0
3444 3443 -281 0
-3445 3444 282 0
-3445 -3444 -282 0
3445 -3444 282 0
3445 3444 -282 0
-3446 3445 284 0
-3446 -3445 -284 0
3446 -3445 284 0
3446 3445 -284 0
-3447 3446 285 0
-3447 -3446 -285 0
3447 -3446 285 0
3447 3446 -285 0
-3447 0
-3448 61 63 0
-3448 -61 -63 0
3448 -61 63 0
3448 61 -63 0
-3449 3448 64 0
-3449 -3448 -64 0
3449 -3448 64 0
3449 3448 -64 0
-3450 3449 69 0
-3450 -3449 -69 0
3450 -3449 69 0
3450 3449 -69 0
-3451 3450 84 0
-3451 -3450 -84 0
3451 -3450 84 0
3451 3450 -84 0
-3452 3451 85 0
-3452 -3451 -85 0
3452 -3451 85 0
3452 3451 -85 0
-3453 3452 87 0
-3453 -3452 -87 0
3453 -3452 87 0
3453 3452 -87 0
-3454 3453 88 0
-3454 -3453 -88 0
3454 -3453 88 0
3454 3453 -88 0
-3455 3454 91 0
-3455 -3454 -91 0
3455 -3454 91 0
3455 3454 -91 0
-3456 3455 94 0
-3456 -3455 -94 0
3456 -3455 94 0
3456 3455 -94 0
-3457 3456 95 0
-3457 -3456 -95 0
3457 -3456 95 0
3457 3456 -95 0
-3458 3457 97 0
-3458 -3457 -97 0
3458 -3457 97 0
3458 3457 -97 0
-3459 3458 98 0
-3459 -3458 -98 0
3459 -3458 98 0
3459 3458 -98 0
-3460 3459 100 0
-3460 -3459 -100 0
3460 -3459 100 0
3460 3459 -100 0
-3461 3460 101 0
-3461 -3460 -101 0
3461 -3460 101 0
3461 3460 -101 0
-3462 3461 102 0
-3462 -3461 -102 0
3462 -3461 102 0
3462 3461 -102 0
-3463 3462 103 0
-3463 -3462 -103 0
3463 -3462 103 0
3463 3462 -103 0
-3464 3463 104 0
-3464 -3463 -104 0
3464 -3463 104 0
3464 3463 -104 0
-3465 3464 106 0
-3465 -3464 -106 0
3465 -3464 106 0
3465 3464 -106 0
-3466 3465 109 0
-3466 -3465 -109 0
3466 -3465 109 0
3466 3465 -109 0
-3467 3466 111 0
-3467 -3466 -111 0
3467 -3466 111 0
3467 3466 -111 0
-3468 3467 112 0
-3468 -3467 -112 0
3468 -3467 112 0
3468 3467 -112 0
-3469 3468 113 0
-3469 -3468 -113 0
3469 -3468 113 0
3469 3468 -113 0
-3470 3469 114 0
-3470 -3469 -114 0
3470 -3469 114 0
3470 3469 -114 0
-3471 3470 115 0
-3471 -3470 -115 0
3471 -3470 115 0
3471 3470 -115 0
-3472 3471 116 0
-3472 -3471 -116 0
3472 -3471 116 0
3472 3471 -116 0
-3473 3472 117 0
-3473 -3472 -117 0
3473 -3472 117 0
3473 3472 -117 0
-3474 3473 119 0
-3474 -3473 -119 0
3474 -3473 119 0
3474 3473 -119 0
-3475 3474 121 0
-3475 -3474 -121 0
3475 -3474 121 0
3475 3474 -121 0
-3476 3475 122 0
-3476 -3475 -122 0
3476 -3475 122 0
3476 3475 -122 0
-3477 3476 126 0
-3477 -3476 -126 0
3477 -3476 126 0
3477 3476 -126 0
-3478 3477 127 0
-3478 -3477 -127 0
3478 -3477 127 0
3478 3477 -127 0
-3479 3478 128 0
-3479 -3478 -128 0
3479 -3478 128 0
3479 3478 -128 0
-3480 3479 133 0
-3480 -3479 -133 0
3480 -3479 133 0
3480 3479 -133 0
-3481 3480 134 0
-3481 -3480 -134 0
3481 -3480 134 0
3481 3480 -134 0
-3482 3481 135 0
-3482 -3481 -135 0
3482 -3481 135 0
3482 3481 -135 0
-3483 3482 136 0
-3483 -3482 -136 0
3483 -3482 136 0
3483 3482 -136 0
-3484 3483 138 0
-3484 -3483 -138 0
3484 -3483 138 0
3484 3483 -138 0
-3485 3484 139 0
-3485 -3484 -139 0
3485 -3484 139 0
3485 3484 -139 0
-3486 3485 141 0
-3486 -3485 -141 0
3486 -3485 141 0
3486 3485 -141 0
-3487 3486 192 0
-3487 -3486 -192 0
3487 -3486 192 0
3487 3486 -192 0
-3488 3487 216 0
-3488 -3487 -216 0
3488 -3487 216 0
3488 3487 -216 0
-3489 3488 221 0
-3489 -3488 -221 0
3489 -3488 221 0
3489 3488 -221 0
-3490 3489 222 0
-3490 -3489 -222 0
3490 -3489 222 0
3490 3489 -222 0
-3491 3490 225 0
-3491 -3490 -225 0
3491 -3490 225 0
3491 3490 -225 0
-3492 3491 227 0
-3492 -3491 -227 0
3492 -3491 227 0
3492 3491 -227 0
-3493 3492 230 0
-3493 -3492 -230 0
3493 -3492 230 0
3493 3492 -230 0
-3494 3493 234 0
-3494 -3493 -234 0
3494 -3493 234 0
3494 3493 -234 0
-3495 3494 235 0
-3495 -3494 -235 0
3495 -3494 235 0
3495 3494 -235 0
-3496 3495 238 0
-3496 -3495 -238 0
3496 -3495 238 0
3496 3495 -238 0
-3497 3496 239 0
-3497 -3496 -239 0
3497 -3496 239 0
3497 3496 -239 0
-3498 3497 240 0
-3498 -3497 -240 0
3498 -3497 240 0
3498 3497 -240 0
-3499 3498 241 0
-3499 -3498 -241 0
3499 -3498 241 0
3499 3498 -241 0
-3500 3499 243 0
-3500 -3499 -243 0
3500 -3499 243 0
3500 3499 -243 0
-3501 3500 244 0
-3501 -3500 -244 0
3501 -3500 244 0
3501 3500 -244 0
-3502 3501 249 0
-3502 -3501 -249 0
3502 -3501 249 0
3502 3501 -249 0
-3503 3502 250 0
-3503 -3502 -250 0
3503 -3502 250 0
3503 3502 -250 0
-3504 3503 251 0
-3504 -3503 -251 0
3504 -3503 251 0
3504 3503 -251 0
-3505 3504 254 0
-3505 -3504 -254 0
3505 -3504 254 0
3505 3504 -254 0
-3506 3505 256 0
-3506 -3505 -256 0
3506 -3505 256 0
3506 3505 -256 0
-3507 3506 258 0
-3507 -3506 -258 0
3507 -3506 258 0
3507 3506 -258 0
-3508 3507 259 0
-3508 -3507 -259 0
3508 -3507 259 0
3508 3507 -259 0
-3509 3508 262 0
-3509 -3508 -262 0
3509 -3508 262 0
3509 3508 -262 0
-3510 3509 265 0
-3510 -3509 -265 0
3510 -3509 265 0
3510 3509 -265 0
-3511 3510 267 0
-3511 -3510 -267 0
3511 -3510 267 0
3511 3510 -267 0
-3512 3511 268 0
-3512 -3511 -268 0
3512 -3511 268 0
3512 3511 -268 0
-3513 3512 269 0
-3513 -3512 -269 0
3513 -3512 269 0
3513 3512 -269 0
-3514 3513 270 0
-3514 -3513 -270 0
3514 -3513 270 0
3514 3513 -270 0
-3515 3514 272 0
-3515 -3514 -272 0
3515 -3514 272 0
3515 3514 -272 0
-3516 3515 273 0
-3516 -3515 -273 0
3516 -3515 273 0
3516 3515 -273 0
-3517 3516 274 0
-3517 -3516 -274 0
3517 -3516 274 0
3517 3516 -274 0
-3518 3517 275 0
-3518 -3517 -275 0
3518 -3517 275 0
3518 3517 -275 0
-3519 3518 276 0
-3519 -3518 -276 0
3519 -3518 276 0
3519 3518 -276 0
-3520 3519 280 0
-3520 -3519 -280 0
3520 -3519 280 0
3520 3519 -280 0
-3521 3520 284 0
-3521 -3520 -284 0
3521 -3520 284 0
3521 3520 -284 0
-3522 3521 285 0
-3522 -3521 -285 0
3522 -3521 285 0
3522 3521 -285 0
-3522 0
-3523 63 64 0
-3523 -63 -64 0
3523 -63 64 0
3523 63 -64 0
-3524 3523 66 0
-3524 -3523 -66 0
3524 -3523 66 0
3524 3523 -66 0
-3525 3524 69 0
-3525 -3524 -69 0
3525 -3524 69 0
3525 3524 -69 0
-3526 3525 70 0
-3526 -3525 -70 0
3526 -3525 70 0
3526 3525 -70 0
-3527 3526 72 0
-3527 -3526 -72 0
3527 -3526 72 0
3527 3526 -72 0
-3528 3527 85 0
-3528 -3527 -85 0
3528 -3527 85 0
3528 3527 -85 0
-3529 3528 86 0
-3529 -3528 -86 0
3529 -3528 86 0
3529 3528 -86 0
-3530 3529 87 0
-3530 -3529 -87 0
3530 -3529 87 0
3530 3529 -87 0
-3531 3530 88 0
-3531 -3530 -88 0
3531 -3530 88 0
3531 3530 -88 0
-3532 3531 89 0
-3532 -3531 -89 0
3532 -3531 89 0
3532 3531 -89 0
-3533 3532 90 0
-3533 -3532 -90 0
3533 -3532 90 0
3533 3532 -90 0
-3534 3533 92 0
-3534 -3533 -92 0
3534 -3533 92 0
3534 3533 -92 0
-3535 3534 99 0
-3535 -3534 -99 0
3535 -3534 99 0
3535 3534 -99 0
-3536 3535 100 0
-3536 -3535 -100 0
3536 -3535 100 0
3536 3535 -100 0
-3537 3536 101 0
-3537 -3536 -101 0
3537 -3536 101 0
3537 3536 -101 0
-3538 3537 102 0
-3538 -3537 -102 0
3538 -3537 102 0
3538 3537 -102 0
-3539 3538 103 0
-3539 -3538 -103 0
3539 -3538 103 0
3539 3538 -103 0
-3540 3539 104 0
-3540 -3539 -104 0
3540 -3539 104 0
3540 3539 -104 0
-3541 3540 106 0
-3541 -3540 -106 0
3541 -3540 106 0
3541 3540 -106 0
-3542 3541 109 0
-3542 -3541 -109 0
3542 -3541 109 0
3542 3541 -109 0
-3543 3542 111 0
-3543 -3542 -111 0
3543 -3542 111 0
3543 3542 -111 0
-3544 3543 112 0
-3544 -3543 -112 0
3544 -3543 112 0
3544 3543 -112 0
-3545 3544 116 0
-3545 -3544 -116 0
3545 -3544 116 0
3545 3544 -116 0
-3546 3545 117 0
-3546 -3545 -117 0
3546 -3545 117 0
3546 3545 -117 0
-3547 3546 118 0
-3547 -3546 -118 0
3547 -3546 118 0
3547 3546 -118 0
-3548 3547 121 0
-3548 -3547 -121 0
3548 -3547 121 0
3548 3547 -121 0
-3549 3548 122 0
-3549 -3548 -122 0
3549 -3548 122 0
3549 3548 -122 0
-3550 3549 125 0
-3550 -3549 -125 0
3550 -3549 125 0
3550 3549 -125 0
-3551 3550 126 0
-3551 -3550 -126 0
3551 -3550 126 0
3551 3550 -126 0
-3552 3551 127 0
-3552 -3551 -127 0
3552 -3551 127 0
3552 3551 -127 0
-3553 3552 128 0
-3553 -3552 -128 0
3553 -3552 128 0
3553 3552 -128 0
-3554 3553 129 0
-3554 -3553 -129 0
3554 -3553 129 0
3554 3553 -129 0
-3555 3554 130 0
-3555 -3554 -130 0
3555 -3554 130 0
3555 3554 -130 0
-3556 3555 132 0
-3556 -3555 -132 0
3556 -3555 132 0
3556 3555 -132 0
-3557 3556 139 0
-3557 -3556 -139 0
3557 -3556 139 0
3557 3556 -139 0
-3558 3557 141 0
-3558 -3557 -141 0
3558 -3557 141 0
3558 3557 -141 0
-3559 3558 143 0
-3559 -3558 -143 0
3559 -3558 143 0
3559 3558 -143 0
-3560 3559 193 0
-3560 -3559 -193 0
3560 -3559 193 0
3560 3559 -193 0
-3561 3560 207 0
-3561 -3560 -207 0
3561 -3560 207 0
3561 3560 -207 0
-3562 3561 208 0
-3562 -3561 -208 0
3562 -3561 208 0
3562 3561 -208 0
-3563 3562 210 0
-3563 -3562 -210 0
3563 -3562 210 0
3563 3562 -210 0
-3564 3563 249 0
-3564 -3563 -249 0
3564 -3563 249 0
3564 3563 -249 0
-3565 3564 257 0
-3565 -3564 -257 0
3565 -3564 257 0
3565 3564 -257 0
-3566 3565 260 0
-3566 -3565 -260 0
3566 -3565 260 0
3566 3565 -260 0
-3567 3566 264 0
-3567 -3566 -264 0
3567 -3566 264 0
3567 3566 -264 0
-3568 3567 266 0
-3568 -3567 -266 0
3568 -3567 266 0
3568 3567 -266 0
-3569 3568 268 0
-3569 -3568 -268 0
3569 -3568 268 0
3569 3568 -268 0
-3570 3569 270 0
-3570 -3569 -270 0
3570 -3569 270 0
3570 3569 -270 0
-3571 3570 272 0
-3571 -3570 -272 0
3571 -3570 272 0
3571 3570 -272 0
-3572 3571 274 0
-3572 -3571 -274 0
3572 -3571 274 0
3572 3571 -274 0
-3573 3572 276 0
-3573 -3572 -276 0
3573 -3572 276 0
3573 3572 -276 0
-3574 3573 277 0
-3574 -3573 -277 0
3574 -3573 277 0
3574 3573 -277 0
-3575 3574 278 0
-3575 -3574 -278 0
3575 -3574 278 0
3575 3574 -278 0
-3576 3575 279 0
-3576 -3575 -279 0
3576 -3575 279 0
3576 3575 -279 0
-3577 3576 280 0
-3577 -3576 -280 0
3577 -3576 280 0
3577 3576 -280 0
-3578 3577 281 0
-3578 -3577 -281 0
3578 -3577 281 0
3578 3577 -281 0
-3579 3578 282 0
-3579 -3578 -282 0
3579 -3578 282 0
3579 3578 -282 0
-3580 3579 283 0
-3580 -3579 -283 0
3580 -3579 283 0
3580 3579 -283 0
-3581 3580 284 0
-3581 -3580 -284 0
3581 -3580 284 0
3581 3580 -284 0
-3582 3581 285 0
-3582 -3581 -285 0
3582 -3581 285 0
3582 3581 -285 0
-3583 3582 286 0
-3583 -3582 -286 0
3583 -3582 286 0
3583 3582 -286 0
-3584 3583 287 0
-3584 -3583 -287 0
3584 -3583 287 0
3584 3583 -287 0
-3585 3584 288 0
-3585 -3584 -288 0
3585 -3584 288 0
3585 3584 -288 0
-3585 0
-3586 63 64 0
-3586 -63 -64 0
3586 -63 64 0
3586 63 -64 0
-3587 3586 68 0
-3587 -3586 -68 0
3587 -3586 68 0
3587 3586 -68 0
-3588 3587 69 0
-3588 -3587 -69 0
3588 -3587 69 0
3588 3587 -69 0
-3589 3588 72 0
-3589 -3588 -72 0
3589 -3588 72 0
3589 3588 -72 0
-3590 3589 93 0
-3590 -3589 -93 0
3590 -3589 93 0
3590 3589 -93 0
-3591 3590 98 0
-3591 -3590 -98 0
3591 -3590 98 0
3591 3590 -98 0
-3592 3591 99 0
-3592 -3591 -99 0
3592 -3591 99 0
3592 3591 -99 0
-3593 3592 103 0
-3593 -3592 -103 0
3593 -3592 103 0
3593 3592 -103 0
-3594 3593 104 0
-3594 -3593 -104 0
3594 -3593 104 0
3594 3593 -104 0
-3595 3594 109 0
-3595 -3594 -109 0
3595 -3594 109 0
3595 3594 -109 0
-3596 3595 111 0
-3596 -3595 -111 0
3596 -3595 111 0
3596 3595 -111 0
-3597 3596 114 0
-3597 -3596 -114 0
3597 -3596 114 0
3597 3596 -114 0
-3598 3597 117 0
-3598 -3597 -117 0
3598 -3597 117 0
3598 3597 -117 0
-3599 3598 118 0
-3599 -3598 -118 0
3599 -3598 118 0
3599 3598 -118 0
-3600 3599 119 0
-3600 -3599 -119 0
3600 -3599 119 0
3600 3599 -119 0
-3601 3600 122 0
-3601 -3600 -122 0
3601 -3600 122 0
3601 3600 -122 0
-3602 3601 125 0
-3602 -3601 -125 0
3602 -3601 125 0
3602 3601 -125 0
-3603 3602 126 0
-3603 -3602 -126 0
3603 -3602 126 0
3603 3602 -126 0
-3604 3603 132 0
-3604 -3603 -132 0
3604 -3603 132 0
3604 3603 -132 0
-3605 3604 194 0
-3605 -3604 -194 0
3605 -3604 194 0
3605 3604 -194 0
-3606 3605 207 0
-3606 -3605 -207 0
3606 -3605 207 0
3606 3605 -207 0
-3607 3606 208 0
-3607 -3606 -208 0
3607 -3606 208 0
3607 3606 -208 0
-3608 3607 250 0
-3608 -3607 -250 0
3608 -3607 250 0
3608 3607 -250 0
-3609 3608 258 0
-3609 -3608 -258 0
3609 -3608 258 0
3609 3608 -258 0
-3610 3609 263 0
-3610 -3609 -263 0
3610 -3609 263 0
3610 3609 -263 0
-3610 0
-3611 64 65 0
-3611 -64 -65 0
3611 -64 65 0
3611 64 -65 0
-3612 3611 67 0
-3612 -3611 -67 0
3612 -3611 67 0
3612 3611 -67 0
-3613 3612 69 0
-3613 -3612 -69 0
3613 -3612 69 0
3613 3612 -69 0
-3614 3613 70 0
-3614 -3613 -70 0
3614 -3613 70 0
3614 3613 -70 0
-3615 3614 94 0
-3615 -3614 -94 0
3615 -3614 94 0
3615 3614 -94 0
-3616 3615 99 0
-3616 -3615 -99 0
3616 -3615 99 0
3616 3615 -99 0
-3617 3616 100 0
-3617 -3616 -100 0
3617 -3616 100 0
3617 3616 -100 0
-3618 3617 104 0
-3618 -3617 -104 0
3618 -3617 104 0
3618 3617 -104 0
-3619 3618 105 0
-3619 -3618 -105 0
3619 -3618 105 0
3619 3618 -105 0
-3620 3619 109 0
-3620 -3619 -109 0
3620 -3619 109 0
3620 3619 -109 0
-3621 3620 110 0
-3621 -3620 -110 0
3621 -3620 110 0
3621 3620 -110 0
-3622 3621 112 0
-3622 -3621 -112 0
3622 -3621 112 0
3622 3621 -112 0
-3623 3622 118 0
-3623 -3622 -118 0
3623 -3622 118 0
3623 3622 -118 0
-3624 3623 119 0
-3624 -3623 -119 0
3624 -3623 119 0
3624 3623 -119 0
-3625 3624 120 0
-3625 -3624 -120 0
3625 -3624 120 0
3625 3624 -120 0
-3626 3625 121 0
-3626 -3625 -121 0
3626 -3625 121 0
3626 3625 -121 0
-3627 3626 123 0
-3627 -3626 -123 0
3627 -3626 123 0
3627 3626 -123 0
-3628 3627 126 0
-3628 -3627 -126 0
3628 -3627 126 0
3628 3627 -126 0
-3629 3628 127 0
-3629 -3628 -127 0
3629 -3628 127 0
3629 3628 -127 0
-3630 3629 195 0
-3630 -3629 -195 0
3630 -3629 195 0
3630 3629 -195 0
-3631 3630 208 0
-3631 -3630 -208 0
3631 -3630 208 0
3631 3630 -208 0
-3632 3631 209 0
-3632 -3631 -209 0
3632 -3631 209 0
3632 3631 -209 0
-3633 3632 251 0
-3633 -3632 -251 0
3633 -3632 251 0
3633 3632 -251 0
-3634 3633 253 0
-3634 -3633 -253 0
3634 -3633 253 0
3634 3633 -253 0
-3635 3634 264 0
-3635 -3634 -264 0
3635 -3634 264 0
3635 3634 -264 0
-3635 0
-3636 65 66 0
-3636 -65 -66 0
3636 -65 66 0
3636 65 -66 0
-3637 3636 68 0
-3637 -3636 -68 0
3637 -3636 68 0
3637 3636 -68 0
-3638 3637 70 0
-3638 -3637 -70 0
3638 -3637 70 0
3638 3637 -70 0
-3639 3638 71 0
-3639 -3638 -71 0
3639 -3638 71 0
3639 3638 -71 0
-3640 3639 95 0
-3640 -3639 -95 0
3640 -3639 95 0
3640 3639 -95 0
-3641 3640 100 0
-3641 -3640 -100 0
3641 -3640 100 0
3641 3640 -100 0
-3642 3641 101 0
-3642 -3641 -101 0
3642 -3641 101 0
3642 3641 -101 0
-3643 3642 105 0
-3643 -3642 -105 0
3643 -3642 105 0
3643 3642 -105 0
-3644 3643 106 0
-3644 -3643 -106 0
3644 -3643 106 0
3644 3643 -106 0
-3645 3644 110 0
-3645 -3644 -110 0
3645 -3644 110 0
3645 3644 -110 0
-3646 3645 111 0
-3646 -3645 -111 0
3646 -3645 111 0
3646 3645 -111 0
-3647 3646 113 0
-3647 -3646 -113 0
3647 -3646 113 0
3647 3646 -113 0
-3648 3647 115 0
-3648 -3647 -115 0
3648 -3647 115 0
3648 3647 -115 0
-3649 3648 119 0
-3649 -3648 -119 0
3649 -3648 119 0
3649 3648 -119 0
-3650 3649 120 0
-3650 -3649 -120 0
3650 -3649 120 0
3650 3649 -120 0
-3651 3650 121 0
-3651 -3650 -121 0
3651 -3650 121 0
3651 3650 -121 0
-3652 3651 122 0
-3652 -3651 -122 0
3652 -3651 122 0
3652 3651 -122 0
-3653 3652 124 0
-3653 -3652 -124 0
3653 -3652 124 0
3653 3652 -124 0
-3654 3653 128 0
-3654 -3653 -128 0
3654 -3653 128 0
3654 3653 -128 0
-3655 3654 196 0
-3655 -3654 -196 0
3655 -3654 196 0
3655 3654 -196 0
-3656 3655 209 0
-3656 -3655 -209 0
3656 -3655 209 0
3656 3655 -209 0
-3657 3656 210 0
-3657 -3656 -210 0
3657 -3656 210 0
3657 3656 -210 0
-3658 3657 252 0
-3658 -3657 -252 0
3658 -3657 252 0
3658 3657 -252 0
-3659 3658 254 0
-3659 -3658 -254 0
3659 -3658 254 0
3659 3658 -254 0
-3660 3659 259 0
-3660 -3659 -259 0
3660 -3659 259 0
3660 3659 -259 0
-3660 0
-3661 63 65 0
-3661 -63 -65 0
3661 -63 65 0
3661 63 -65 0
-3662 3661 66 0
-3662 -3661 -66 0
3662 -3661 66 0
3662 3661 -66 0
-3663 3662 67 0
-3663 -3662 -67 0
3663 -3662 67 0
3663 3662 -67 0
-3664 3663 68 0
-3664 -3663 -68 0
3664 -3663 68 0
3664 3663 -68 0
-3665 3664 70 0
-3665 -3664 -70 0
3665 -3664 70 0
3665 3664 -70 0
-3666 3665 85 0
-3666 -3665 -85 0
3666 -3665 85 0
3666 3665 -85 0
-3667 3666 86 0
-3667 -3666 -86 0
3667 -3666 86 0
3667 3666 -86 0
-3668 3667 87 0
-3668 -3667 -87 0
3668 -3667 87 0
3668 3667 -87 0
-3669 3668 88 0
-3669 -3668 -88 0
3669 -3668 88 0
3669 3668 -88 0
-3670 3669 89 0
-3670 -3669 -89 0
3670 -3669 89 0
3670 3669 -89 0
-3671 3670 90 0
-3671 -3670 -90 0
3671 -3670 90 0
3671 3670 -90 0
-3672 3671 96 0
-3672 -3671 -96 0
3672 -3671 96 0
3672 3671 -96 0
-3673 3672 97 0
-3673 -3672 -97 0
3673 -3672 97 0
3673 3672 -97 0
-3674 3673 98 0
-3674 -3673 -98 0
3674 -3673 98 0
3674 3673 -98 0
-3675 3674 99 0
-3675 -3674 -99 0
3675 -3674 99 0
3675 3674 -99 0
-3676 3675 100 0
-3676 -3675 -100 0
3676 -3675 100 0
3676 3675 -100 0
-3677 3676 103 0
-3677 -3676 -103 0
3677 -3676 103 0
3677 3676 -103 0
-3678 3677 105 0
-3678 -3677 -105 0
3678 -3677 105 0
3678 3677 -105 0
-3679 3678 106 0
-3679 -3678 -106 0
3679 -3678 106 0
3679 3678 -106 0
-3680 3679 109 0
-3680 -3679 -109 0
3680 -3679 109 0
3680 3679 -109 0
-3681 3680 110 0
-3681 -3680 -110 0
3681 -3680 110 0
3681 3680 -110 0
-3682 3681 113 0
-3682 -3681 -113 0
3682 -3681 113 0
3682 3681 -113 0
-3683 3682 115 0
-3683 -3682 -115 0
3683 -3682 115 0
3683 3682 -115 0
-3684 3683 116 0
-3684 -3683 -116 0
3684 -3683 116 0
3684 3683 -116 0
-3685 3684 120 0
-3685 -3684 -120 0
3685 -3684 120 0
3685 3684 -120 0
-3686 3685 121 0
-3686 -3685 -121 0
3686 -3685 121 0
3686 3685 -121 0
-3687 3686 122 0
-3687 -3686 -122 0
3687 -3686 122 0
3687 3686 -122 0
-3688 3687 127 0
-3688 -3687 -127 0
3688 -3687 127 0
3688 3687 -127 0
-3689 3688 128 0
-3689 -3688 -128 0
3689 -3688 128 0
3689 3688 -128 0
-3690 3689 130 0
-3690 -3689 -130 0
3690 -3689 130 0
3690 3689 -130 0
-3691 3690 131 0
-3691 -3690 -131 0
3691 -3690 131 0
3691 3690 -131 0
-3692 3691 132 0
-3692 -3691 -132 0
3692 -3691 132 0
3692 3691 -132 0
-3693 3692 140 0
-3693 -3692 -140 0
3693 -3692 140 0
3693 3692 -140 0
-3694 3693 142 0
-3694 -3693 -142 0
3694 -3693 142 0
3694 3693 -142 0
-3695 3694 144 0
-3695 -3694 -144 0
3695 -3694 144 0
3695 3694 -144 0
-3696 3695 197 0
-3696 -3695 -197 0
3696 -3695 197 0
3696 3695 -197 0
-3697 3696 207 0
-3697 -3696 -207 0
3697 -3696 207 0
3697 3696 -207 0
-3698 3697 209 0
-3698 -3697 -209 0
3698 -3697 209 0
3698 3697 -209 0
-3699 3698 210 0
-3699 -3698 -210 0
3699 -3698 210 0
3699 3698 -210 0
-3700 3699 247 0
-3700 -3699 -247 0
3700 -3699 247 0
3700 3699 -247 0
-3701 3700 255 0
-3701 -3700 -255 0
3701 -3700 255 0
3701 3700 -255 0
-3702 3701 259 0
-3702 -3701 -259 0
3702 -3701 259 0
3702 3701 -259 0
-3703 3702 260 0
-3703 -3702 -260 0
3703 -3702 260 0
3703 3702 -260 0
-3704 3703 261 0
-3704 -3703 -261 0
3704 -3703 261 0
3704 3703 -261 0
-3705 3704 263 0
-3705 -3704 -263 0
3705 -3704 263 0
3705 3704 -263 0
-3706 3705 265 0
-3706 -3705 -265 0
3706 -3705 265 0
3706 3705 -265 0
-3707 3706 267 0
-3707 -3706 -267 0
3707 -3706 267 0
3707 3706 -267 0
-3708 3707 269 0
-3708 -3707 -269 0
3708 -3707 269 0
3708 3707 -269 0
-3709 3708 271 0
-3709 -3708 -271 0
3709 -3708 271 0
3709 3708 -271 0
-3710 3709 273 0
-3710 -3709 -273 0
3710 -3709 273 0
3710 3709 -273 0
-3711 3710 275 0
-3711 -3710 -275 0
3711 -3710 275 0
3711 3710 -275 0
-3712 3711 277 0
-3712 -3711 -277 0
3712 -3711 277 0
3712 3711 -277 0
-3713 3712 278 0
-3713 -3712 -278 0
3713 -3712 278 0
3713 3712 -278 0
-3714 3713 279 0
-3714 -3713 -279 0
3714 -3713 279 0
3714 3713 -279 0
-3715 3714 280 0
-3715 -3714 -280 0
3715 -3714 280 0
3715 3714 -280 0
-3716 3715 281 0
-3716 -3715 -281 0
3716 -3715 281 0
3716 3715 -281 0
-3717 3716 282 0
-3717 -3716 -282 0
3717 -3716 282 0
3717 3716 -282 0
-3718 3717 283 0
-3718 -3717 -283 0
3718 -3717 283 0
3718 3717 -283 0
-3719 3718 284 0
-3719 -3718 -284 0
3719 -3718 284 0
3719 3718 -284 0
-3720 3719 285 0
-3720 -3719 -285 0
3720 -3719 285 0
3720 3719 -285 0
-3721 3720 286 0
-3721 -3720 -286 0
3721 -3720 286 0
3721 3720 -286 0
-3722 3721 287 0
-3722 -3721 -287 0
3722 -3721 287 0
3722 3721 -287 0
-3723 3722 288 0
-3723 -3722 -288 0
3723 -3722 288 0
3723 3722 -288 0
-3723 0
-3724 63 64 0
-3724 -63 -64 0
3724 -63 64 0
3724 63 -64 0
-3725 3724 65 0
-3725 -3724 -65 0
3725 -3724 65 0
3725 3724 -65 0
-3726 3725 66 0
-3726 -3725 -66 0
3726 -3725 66 0
3726 3725 -66 0
-3727 3726 67 0
-3727 -3726 -67 0
3727 -3726 67 0
3727 3726 -67 0
-3728 3727 70 0
-3728 -3727 -70 0
3728 -3727 70 0
3728 3727 -70 0
-3729 3728 72 0
-3729 -3728 -72 0
3729 -3728 72 0
3729 3728 -72 0
-3730 3729 91 0
-3730 -3729 -91 0
3730 -3729 91 0
3730 3729 -91 0
-3731 3730 97 0
-3731 -3730 -97 0
3731 -3730 97 0
3731 3730 -97 0
-3732 3731 102 0
-3732 -3731 -102 0
3732 -3731 102 0
3732 3731 -102 0
-3733 3732 103 0
-3733 -3732 -103 0
3733 -3732 103 0
3733 3732 -103 0
-3734 3733 104 0
-3734 -3733 -104 0
3734 -3733 104 0
3734 3733 -104 0
-3735 3734 105 0
-3735 -3734 -105 0
3735 -3734 105 0
3735 3734 -105 0
-3736 3735 106 0
-3736 -3735 -106 0
3736 -3735 106 0
3736 3735 -106 0
-3737 3736 109 0
-3737 -3736 -109 0
3737 -3736 109 0
3737 3736 -109 0
-3738 3737 112 0
-3738 -3737 -112 0
3738 -3737 112 0
3738 3737 -112 0
-3739 3738 113 0
-3739 -3738 -113 0
3739 -3738 113 0
3739 3738 -113 0
-3740 3739 115 0
-3740 -3739 -115 0
3740 -3739 115 0
3740 3739 -115 0
-3741 3740 116 0
-3741 -3740 -116 0
3741 -3740 116 0
3741 3740 -116 0
-3742 3741 117 0
-3742 -3741 -117 0
3742 -3741 117 0
3742 3741 -117 0
-3743 3742 121 0
-3743 -3742 -121 0
3743 -3742 121 0
3743 3742 -121 0
-3744 3743 122 0
-3744 -3743 -122 0
3744 -3743 122 0
3744 3743 -122 0
-3745 3744 125 0
-3745 -3744 -125 0
3745 -3744 125 0
3745 3744 -125 0
-3746 3745 130 0
-3746 -3745 -130 0
3746 -3745 130 0
3746 3745 -130 0
-3747 3746 139 0
-3747 -3746 -139 0
3747 -3746 139 0
3747 3746 -139 0
-3748 3747 140 0
-3748 -3747 -140 0
3748 -3747 140 0
3748 3747 -140 0
-3749 3748 141 0
-3749 -3748 -141 0
3749 -3748 141 0
3749 3748 -141 0
-3750 3749 142 0
-3750 -3749 -142 0
3750 -3749 142 0
3750 3749 -142 0
-3751 3750 143 0
-3751 -3750 -143 0
3751 -3750 143 0
3751 3750 -143 0
-3752 3751 144 0
-3752 -3751 -144 0
3752 -3751 144 0
3752 3751 -144 0
-3753 3752 198 0
-3753 -3752 -198 0
3753 -3752 198 0
3753 3752 -198 0
-3754 3753 207 0
-3754 -3753 -207 0
3754 -3753 207 0
3754 3753 -207 0
-3755 3754 208 0
-3755 -3754 -208 0
3755 -3754 208 0
3755 3754 -208 0
-3756 3755 209 0
-3756 -3755 -209 0
3756 -3755 209 0
3756 3755 -209 0
-3757 3756 210 0
-3757 -3756 -210 0
3757 -3756 210 0
3757 3756 -210 0
-3758 3757 248 0
-3758 -3757 -248 0
3758 -3757 248 0
3758 3757 -248 0
-3759 3758 256 0
-3759 -3758 -256 0
3759 -3758 256 0
3759 3758 -256 0
-3760 3759 259 0
-3760 -3759 -259 0
3760 -3759 259 0
3760 3759 -259 0
-3761 3760 260 0
-3761 -3760 -260 0
3761 -3760 260 0
3761 3760 -260 0
-3762 3761 262 0
-3762 -3761 -262 0
3762 -3761 262 0
3762 3761 -262 0
-3763 3762 263 0
-3763 -3762 -263 0
3763 -3762 263 0
3763 3762 -263 0
-3764 3763 264 0
-3764 -3763 -264 0
3764 -3763 264 0
3764 3763 -264 0
-3765 3764 265 0
-3765 -3764 -265 0
3765 -3764 265 0
3765 3764 -265 0
-3766 3765 266 0
-3766 -3765 -266 0
3766 -3765 266 0
3766 3765 -266 0
-3767 3766 267 0
-3767 -3766 -267 0
3767 -3766 267 0
3767 3766 -267 0
-3768 3767 268 0
-3768 -3767 -268 0
3768 -3767 268 0
3768 3767 -268 0
-3769 3768 269 0
-3769 -3768 -269 0
3769 -3768 269 0
3769 3768 -269 0
-3770 3769 270 0
-3770 -3769 -270 0
3770 -3769 270 0
3770 3769 -270 0
-3771 3770 271 0
-3771 -3770 -271 0
3771 -3770 271 0
3771 3770 -271 0
-3772 3771 272 0
-3772 -3771 -272 0
3772 -3771 272 0
3772 3771 -272 0
-3773 3772 273 0
-3773 -3772 -273 0
3773 -3772 273 0
3773 3772 -273 0
-3774 3773 274 0
-3774 -3773 -274 0
3774 -3773 274 0
3774 3773 -274 0
-3775 3774 275 0
-3775 -3774 -275 0
3775 -3774 275 0
3775 3774 -275 0
-3776 3775 276 0
-3776 -3775 -276 0
3776 -3775 276 0
3776 3775 -276 0
-3776 0
-3777 62 63 0
-3777 -62 -63 0
3777 -62 63 0
3777 62 -63 0
-3778 3777 65 0
-3778 -3777 -65 0
3778 -3777 65 0
3778 3777 -65 0
-3779 3778 67 0
-3779 -3778 -67 0
3779 -3778 67 0
3779 3778 -67 0
-3780 3779 68 0
-3780 -3779 -68 0
3780 -3779 68 0
3780 3779 -68 0
-3781 3780 69 0
-3781 -3780 -69 0
3781 -3780 69 0
3781 3780 -69 0
-3782 3781 72 0
-3782 -3781 -72 0
3782 -3781 72 0
3782 3781 -72 0
-3783 3782 84 0
-3783 -3782 -84 0
3783 -3782 84 0
3783 3782 -84 0
-3784 3783 87 0
-3784 -3783 -87 0
3784 -3783 87 0
3784 3783 -87 0
-3785 3784 88 0
-3785 -3784 -88 0
3785 -3784 88 0
3785 3784 -88 0
-3786 3785 94 0
-3786 -3785 -94 0
3786 -3785 94 0
3786 3785 -94 0
-3787 3786 95 0
-3787 -3786 -95 0
3787 -3786 95 0
3787 3786 -95 0
-3788 3787 96 0
-3788 -3787 -96 0
3788 -3787 96 0
3788 3787 -96 0
-3789 3788 97 0
-3789 -3788 -97 0
3789 -3788 97 0
3789 3788 -97 0
-3790 3789 98 0
-3790 -3789 -98 0
3790 -3789 98 0
3790 3789 -98 0
-3791 3790 99 0
-3791 -3790 -99 0
3791 -3790 99 0
3791 3790 -99 0
-3792 3791 100 0
-3792 -3791 -100 0
3792 -3791 100 0
3792 3791 -100 0
-3793 3792 105 0
-3793 -3792 -105 0
3793 -3792 105 0
3793 3792 -105 0
-3794 3793 107 0
-3794 -3793 -107 0
3794 -3793 107 0
3794 3793 -107 0
-3795 3794 109 0
-3795 -3794 -109 0
3795 -3794 109 0
3795 3794 -109 0
-3796 3795 110 0
-3796 -3795 -110 0
3796 -3795 110 0
3796 3795 -110 0
-3797 3796 113 0
-3797 -3796 -113 0
3797 -3796 113 0
3797 3796 -113 0
-3798 3797 114 0
-3798 -3797 -114 0
3798 -3797 114 0
3798 3797 -114 0
-3799 3798 115 0
-3799 -3798 -115 0
3799 -3798 115 0
3799 3798 -115 0
-3800 3799 117 0
-3800 -3799 -117 0
3800 -3799 117 0
3800 3799 -117 0
-3801 3800 119 0
-3801 -3800 -119 0
3801 -3800 119 0
3801 3800 -119 0
-3802 3801 120 0
-3802 -3801 -120 0
3802 -3801 120 0
3802 3801 -120 0
-3803 3802 121 0
-3803 -3802 -121 0
3803 -3802 121 0
3803 3802 -121 0
-3804 3803 122 0
-3804 -3803 -122 0
3804 -3803 122 0
3804 3803 -122 0
-3805 3804 123 0
-3805 -3804 -123 0
3805 -3804 123 0
3805 3804 -123 0
-3806 3805 124 0
-3806 -3805 -124 0
3806 -3805 124 0
3806 3805 -124 0
-3807 3806 126 0
-3807 -3806 -126 0
3807 -3806 126 0
3807 3806 -126 0
-3808 3807 127 0
-3808 -3807 -127 0
3808 -3807 127 0
3808 3807 -127 0
-3809 3808 128 0
-3809 -3808 -128 0
3809 -3808 128 0
3809 3808 -128 0
-3810 3809 130 0
-3810 -3809 -130 0
3810 -3809 130 0
3810 3809 -130 0
-3811 3810 132 0
-3811 -3810 -132 0
3811 -3810 132 0
3811 3810 -132 0
-3812 3811 133 0
-3812 -3811 -133 0
3812 -3811 133 0
3812 3811 -133 0
-3813 3812 134 0
-3813 -3812 -134 0
3813 -3812 134 0
3813 3812 -134 0
-3814 3813 135 0
-3814 -3813 -135 0
3814 -3813 135 0
3814 3813 -135 0
-3815 3814 136 0
-3815 -3814 -136 0
3815 -3814 136 0
3815 3814 -136 0
-3816 3815 139 0
-3816 -3815 -139 0
3816 -3815 139 0
3816 3815 -139 0
-3817 3816 141 0
-3817 -3816 -141 0
3817 -3816 141 0
3817 3816 -141 0
-3818 3817 199 0
-3818 -3817 -199 0
3818 -3817 199 0
3818 3817 -199 0
-3819 3818 213 0
-3819 -3818 -213 0
3819 -3818 213 0
3819 3818 -213 0
-3820 3819 214 0
-3820 -3819 -214 0
3820 -3819 214 0
3820 3819 -214 0
-3821 3820 216 0
-3821 -3820 -216 0
3821 -3820 216 0
3821 3820 -216 0
-3822 3821 221 0
-3822 -3821 -221 0
3822 -3821 221 0
3822 3821 -221 0
-3823 3822 222 0
-3823 -3822 -222 0
3823 -3822 222 0
3823 3822 -222 0
-3824 3823 225 0
-3824 -3823 -225 0
3824 -3823 225 0
3824 3823 -225 0
-3825 3824 227 0
-3825 -3824 -227 0
3825 -3824 227 0
3825 3824 -227 0
-3826 3825 230 0
-3826 -3825 -230 0
3826 -3825 230 0
3826 3825 -230 0
-3827 3826 234 0
-3827 -3826 -234 0
3827 -3826 234 0
3827 3826 -234 0
-3828 3827 235 0
-3828 -3827 -235 0
3828 -3827 235 0
3828 3827 -235 0
-3829 3828 238 0
-3829 -3828 -238 0
3829 -3828 238 0
3829 3828 -238 0
-3830 3829 239 0
-3830 -3829 -239 0
3830 -3829 239 0
3830 3829 -239 0
-3831 3830 240 0
-3831 -3830 -240 0
3831 -3830 240 0
3831 3830 -240 0
-3832 3831 241 0
-3832 -3831 -241 0
3832 -3831 241 0
3832 3831 -241 0
-3833 3832 242 0
-3833 -3832 -242 0
3833 -3832 242 0
3833 3832 -242 0
-3834 3833 243 0
-3834 -3833 -243 0
3834 -3833 243 0
3834 3833 -243 0
-3835 3834 244 0
-3835 -3834 -244 0
3835 -3834 244 0
3835 3834 -244 0
-3836 3835 249 0
-3836 -3835 -249 0
3836 -3835 249 0
3836 3835 -249 0
-3837 3836 251 0
-3837 -3836 -251 0
3837 -3836 251 0
3837 3836 -251 0
-3838 3837 254 0
-3838 -3837 -254 0
3838 -3837 254 0
3838 3837 -254 0
-3839 3838 255 0
-3839 -3838 -255 0
3839 -3838 255 0
3839 3838 -255 0
-3840 3839 258 0
-3840 -3839 -258 0
3840 -3839 258 0
3840 3839 -258 0
-3841 3840 259 0
-3841 -3840 -259 0
3841 -3840 259 0
3841 3840 -259 0
-3842 3841 262 0
-3842 -3841 -262 0
3842 -3841 262 0
3842 3841 -262 0
-3843 3842 264 0
-3843 -3842 -264 0
3843 -3842 264 0
3843 3842 -264 0
-3844 3843 265 0
-3844 -3843 -265 0
3844 -3843 265 0
3844 3843 -265 0
-3845 3844 267 0
-3845 -3844 -267 0
3845 -3844 267 0
3845 3844 -267 0
-3846 3845 268 0
-3846 -3845 -268 0
3846 -3845 268 0
3846 3845 -268 0
-3847 3846 270 0
-3847 -3846 -270 0
3847 -3846 270 0
3847 3846 -270 0
-3848 3847 272 0
-3848 -3847 -272 0
3848 -3847 272 0
3848 3847 -272 0
-3849 3848 273 0
-3849 -3848 -273 0
3849 -3848 273 0
3849 3848 -273 0
-3850 3849 274 0
-3850 -3849 -274 0
3850 -3849 274 0
3850 3849 -274 0
-3851 3850 275 0
-3851 -3850 -275 0
3851 -3850 275 0
3851 3850 -275 0
-3852 3851 276 0
-3852 -3851 -276 0
3852 -3851 276 0
3852 3851 -276 0
-3853 3852 280 0
-3853 -3852 -280 0
3853 -3852 280 0
3853 3852 -280 0
-3854 3853 284 0
-3854 -3853 -284 0
3854 -3853 284 0
3854 3853 -284 0
-3855 3854 285 0
-3855 -3854 -285 0
3855 -3854 285 0
3855 3854 -285 0
-3855 0
-3856 61 62 0
-3856 -61 -62 0
3856 -61 62 0
3856 61 -62 0
-3857 3856 65 0
-3857 -3856 -65 0
3857 -3856 65 0
3857 3856 -65 0
-3858 3857 67 0
-3858 -3857 -67 0
3858 -3857 67 0
3858 3857 -67 0
-3859 3858 69 0
-3859 -3858 -69 0
3859 -3858 69 0
3859 3858 -69 0
-3860 3859 72 0
-3860 -3859 -72 0
3860 -3859 72 0
3860 3859 -72 0
-3861 3860 99 0
-3861 -3860 -99 0
3861 -3860 99 0
3861 3860 -99 0
-3862 3861 104 0
-3862 -3861 -104 0
3862 -3861 104 0
3862 3861 -104 0
-3863 3862 105 0
-3863 -3862 -105 0
3863 -3862 105 0
3863 3862 -105 0
-3864 3863 109 0
-3864 -3863 -109 0
3864 -3863 109 0
3864 3863 -109 0
-3865 3864 110 0
-3865 -3864 -110 0
3865 -3864 110 0
3865 3864 -110 0
-3866 3865 116 0
-3866 -3865 -116 0
3866 -3865 116 0
3866 3865 -116 0
-3867 3866 117 0
-3867 -3866 -117 0
3867 -3866 117 0
3867 3866 -117 0
-3868 3867 118 0
-3868 -3867 -118 0
3868 -3867 118 0
3868 3867 -118 0
-3869 3868 123 0
-3869 -3868 -123 0
3869 -3868 123 0
3869 3868 -123 0
-3870 3869 124 0
-3870 -3869 -124 0
3870 -3869 124 0
3870 3869 -124 0
-3871 3870 125 0
-3871 -3870 -125 0
3871 -3870 125 0
3871 3870 -125 0
-3872 3871 130 0
-3872 -3871 -130 0
3872 -3871 130 0
3872 3871 -130 0
-3873 3872 132 0
-3873 -3872 -132 0
3873 -3872 132 0
3873 3872 -132 0
-3874 3873 138 0
-3874 -3873 -138 0
3874 -3873 138 0
3874 3873 -138 0
-3875 3874 200 0
-3875 -3874 -200 0
3875 -3874 200 0
3875 3874 -200 0
-3876 3875 213 0
-3876 -3875 -213 0
3876 -3875 213 0
3876 3875 -213 0
-3877 3876 214 0
-3877 -3876 -214 0
3877 -3876 214 0
3877 3876 -214 0
-3878 3877 256 0
-3878 -3877 -256 0
3878 -3877 256 0
3878 3877 -256 0
-3879 3878 264 0
-3879 -3878 -264 0
3879 -3878 264 0
3879 3878 -264 0
-3880 3879 269 0
-3880 -3879 -269 0
3880 -3879 269 0
3880 3879 -269 0
-3880 0
-3881 62 63 0
-3881 -62 -63 0
3881 -62 63 0
3881 62 -63 0
-3882 3881 66 0
-3882 -3881 -66 0
3882 -3881 66 0
3882 3881 -66 0
-3883 3882 67 0
-3883 -3882 -67 0
3883 -3882 67 0
3883 3882 -67 0
-3884 3883 68 0
-3884 -3883 -68 0
3884 -3883 68 0
3884 3883 -68 0
-3885 3884 70 0
-3885 -3884 -70 0
3885 -3884 70 0
3885 3884 -70 0
-3886 3885 100 0
-3886 -3885 -100 0
3886 -3885 100 0
3886 3885 -100 0
-3887 3886 105 0
-3887 -3886 -105 0
3887 -3886 105 0
3887 3886 -105 0
-3888 3887 106 0
-3888 -3887 -106 0
3888 -3887 106 0
3888 3887 -106 0
-3889 3888 110 0
-3889 -3888 -110 0
3889 -3888 110 0
3889 3888 -110 0
-3890 3889 111 0
-3890 -3889 -111 0
3890 -3889 111 0
3890 3889 -111 0
-3891 3890 117 0
-3891 -3890 -117 0
3891 -3890 117 0
3891 3890 -117 0
-3892 3891 118 0
-3892 -3891 -118 0
3892 -3891 118 0
3892 3891 -118 0
-3893 3892 119 0
-3893 -3892 -119 0
3893 -3892 119 0
3893 3892 -119 0
-3894 3893 124 0
-3894 -3893 -124 0
3894 -3893 124 0
3894 3893 -124 0
-3895 3894 125 0
-3895 -3894 -125 0
3895 -3894 125 0
3895 3894 -125 0
-3896 3895 126 0
-3896 -3895 -126 0
3896 -3895 126 0
3896 3895 -126 0
-3897 3896 127 0
-3897 -3896 -127 0
3897 -3896 127 0
3897 3896 -127 0
-3898 3897 131 0
-3898 -3897 -131 0
3898 -3897 131 0
3898 3897 -131 0
-3899 3898 133 0
-3899 -3898 -133 0
3899 -3898 133 0
3899 3898 -133 0
-3900 3899 201 0
-3900 -3899 -201 0
3900 -3899 201 0
3900 3899 -201 0
-3901 3900 214 0
-3901 -3900 -214 0
3901 -3900 214 0
3901 3900 -214 0
-3902 3901 215 0
-3902 -3901 -215 0
3902 -3901 215 0
3902 3901 -215 0
-3903 3902 257 0
-3903 -3902 -257 0
3903 -3902 257 0
3903 3902 -257 0
-3904 3903 259 0
-3904 -3903 -259 0
3904 -3903 259 0
3904 3903 -259 0
-3905 3904 270 0
-3905 -3904 -270 0
3905 -3904 270 0
3905 3904 -270 0
-3905 0
-3906 61 63 0
-3906 -61 -63 0
3906 -61 63 0
3906 61 -63 0
-3907 3906 64 0
-3907 -3906 -64 0
3907 -3906 64 0
3907 3906 -64 0
-3908 3907 68 0
-3908 -3907 -68 0
3908 -3907 68 0
3908 3907 -68 0
-3909 3908 69 0
-3909 -3908 -69 0
3909 -3908 69 0
3909 3908 -69 0
-3910 3909 71 0
-3910 -3909 -71 0
3910 -3909 71 0
3910 3909 -71 0
-3911 3910 101 0
-3911 -3910 -101 0
3911 -3910 101 0
3911 3910 -101 0
-3912 3911 106 0
-3912 -3911 -106 0
3912 -3911 106 0
3912 3911 -106 0
-3913 3912 107 0
-3913 -3912 -107 0
3913 -3912 107 0
3913 3912 -107 0
-3914 3913 111 0
-3914 -3913 -111 0
3914 -3913 111 0
3914 3913 -111 0
-3915 3914 112 0
-3915 -3914 -112 0
3915 -3914 112 0
3915 3914 -112 0
-3916 3915 118 0
-3916 -3915 -118 0
3916 -3915 118 0
3916 3915 -118 0
-3917 3916 119 0
-3917 -3916 -119 0
3917 -3916 119 0
3917 3916 -119 0
-3918 3917 120 0
-3918 -3917 -120 0
3918 -3917 120 0
3918 3917 -120 0
-3919 3918 121 0
-3919 -3918 -121 0
3919 -3918 121 0
3919 3918 -121 0
-3920 3919 125 0
-3920 -3919 -125 0
3920 -3919 125 0
3920 3919 -125 0
-3921 3920 126 0
-3921 -3920 -126 0
3921 -3920 126 0
3921 3920 -126 0
-3922 3921 128 0
-3922 -3921 -128 0
3922 -3921 128 0
3922 3921 -128 0
-3923 3922 132 0
-3923 -3922 -132 0
3923 -3922 132 0
3923 3922 -132 0
-3924 3923 134 0
-3924 -3923 -134 0
3924 -3923 134 0
3924 3923 -134 0
-3925 3924 202 0
-3925 -3924 -202 0
3925 -3924 202 0
3925 3924 -202 0
-3926 3925 215 0
-3926 -3925 -215 0
3926 -3925 215 0
3926 3925 -215 0
-3927 3926 216 0
-3927 -3926 -216 0
3927 -3926 216 0
3927 3926 -216 0
-3928 3927 258 0
-3928 -3927 -258 0
3928 -3927 258 0
3928 3927 -258 0
-3929 3928 260 0
-3929 -3928 -260 0
3929 -3928 260 0
3929 3928 -260 0
-3930 3929 265 0
-3930 -3929 -265 0
3930 -3929 265 0
3930 3929 -265 0
-3930 0
-3931 61 63 0
-3931 -61 -63 0
3931 -61 63 0
3931 61 -63 0
-3932 3931 66 0
-3932 -3931 -66 0
3932 -3931 66 0
3932 3931 -66 0
-3933 3932 68 0
-3933 -3932 -68 0
3933 -3932 68 0
3933 3932 -68 0
-3934 3933 69 0
-3934 -3933 -69 0
3934 -3933 69 0
3934 3933 -69 0
-3935 3934 84 0
-3935 -3934 -84 0
3935 -3934 84 0
3935 3934 -84 0
-3936 3935 85 0
-3936 -3935 -85 0
3936 -3935 85 0
3936 3935 -85 0
-3937 3936 86 0
-3937 -3936 -86 0
3937 -3936 86 0
3937 3936 -86 0
-3938 3937 89 0
-3938 -3937 -89 0
3938 -3937 89 0
3938 3937 -89 0
-3939 3938 90 0
-3939 -3938 -90 0
3939 -3938 90 0
3939 3938 -90 0
-3940 3939 91 0
-3940 -3939 -91 0
3940 -3939 91 0
3940 3939 -91 0
-3941 3940 92 0
-3941 -3940 -92 0
3941 -3940 92 0
3941 3940 -92 0
-3942 3941 93 0
-3942 -3941 -93 0
3942 -3941 93 0
3942 3941 -93 0
-3943 3942 97 0
-3943 -3942 -97 0
3943 -3942 97 0
3943 3942 -97 0
-3944 3943 99 0
-3944 -3943 -99 0
3944 -3943 99 0
3944 3943 -99 0
-3945 3944 100 0
-3945 -3944 -100 0
3945 -3944 100 0
3945 3944 -100 0
-3946 3945 102 0
-3946 -3945 -102 0
3946 -3945 102 0
3946 3945 -102 0
-3947 3946 106 0
-3947 -3946 -106 0
3947 -3946 106 0
3947 3946 -106 0
-3948 3947 107 0
-3948 -3947 -107 0
3948 -3947 107 0
3948 3947 -107 0
-3949 3948 110 0
-3949 -3948 -110 0
3949 -3948 110 0
3949 3948 -110 0
-3950 3949 112 0
-3950 -3949 -112 0
3950 -3949 112 0
3950 3949 -112 0
-3951 3950 115 0
-3951 -3950 -115 0
3951 -3950 115 0
3951 3950 -115 0
-3952 3951 116 0
-3952 -3951 -116 0
3952 -3951 116 0
3952 3951 -116 0
-3953 3952 121 0
-3953 -3952 -121 0
3953 -3952 121 0
3953 3952 -121 0
-3954 3953 123 0
-3954 -3953 -123 0
3954 -3953 123 0
3954 3953 -123 0
-3955 3954 124 0
-3955 -3954 -124 0
3955 -3954 124 0
3955 3954 -124 0
-3956 3955 125 0
-3956 -3955 -125 0
3956 -3955 125 0
3956 3955 -125 0
-3957 3956 126 0
-3957 -3956 -126 0
3957 -3956 126 0
3957 3956 -126 0
-3958 3957 128 0
-3958 -3957 -128 0
3958 -3957 128 0
3958 3957 -128 0
-3959 3958 130 0
-3959 -3958 -130 0
3959 -3958 130 0
3959 3958 -130 0
-3960 3959 131 0
-3960 -3959 -131 0
3960 -3959 131 0
3960 3959 -131 0
-3961 3960 132 0
-3961 -3960 -132 0
3961 -3960 132 0
3961 3960 -132 0
-3962 3961 133 0
-3962 -3961 -133 0
3962 -3961 133 0
3962 3961 -133 0
-3963 3962 134 0
-3963 -3962 -134 0
3963 -3962 134 0
3963 3962 -134 0
-3964 3963 136 0
-3964 -3963 -136 0
3964 -3963 136 0
3964 3963 -136 0
-3965 3964 137 0
-3965 -3964 -137 0
3965 -3964 137 0
3965 3964 -137 0
-3966 3965 140 0
-3966 -3965 -140 0
3966 -3965 140 0
3966 3965 -140 0
-3967 3966 142 0
-3967 -3966 -142 0
3967 -3966 142 0
3967 3966 -142 0
-3968 3967 143 0
-3968 -3967 -143 0
3968 -3967 143 0
3968 3967 -143 0
-3969 3968 144 0
-3969 -3968 -144 0
3969 -3968 144 0
3969 3968 -144 0
-3970 3969 203 0
-3970 -3969 -203 0
3970 -3969 203 0
3970 3969 -203 0
-3971 3970 213 0
-3971 -3970 -213 0
3971 -3970 213 0
3971 3970 -213 0
-3972 3971 215 0
-3972 -3971 -215 0
3972 -3971 215 0
3972 3971 -215 0
-3973 3972 216 0
-3973 -3972 -216 0
3973 -3972 216 0
3973 3972 -216 0
-3974 3973 221 0
-3974 -3973 -221 0
3974 -3973 221 0
3974 3973 -221 0
-3975 3974 222 0
-3975 -3974 -222 0
3975 -3974 222 0
3975 3974 -222 0
-3976 3975 225 0
-3976 -3975 -225 0
3976 -3975 225 0
3976 3975 -225 0
-3977 3976 227 0
-3977 -3976 -227 0
3977 -3976 227 0
3977 3976 -227 0
-3978 3977 230 0
-3978 -3977 -230 0
3978 -3977 230 0
3978 3977 -230 0
-3979 3978 234 0
-3979 -3978 -234 0
3979 -3978 234 0
3979 3978 -234 0
-3980 3979 235 0
-3980 -3979 -235 0
3980 -3979 235 0
3980 3979 -235 0
-3981 3980 238 0
-3981 -3980 -238 0
3981 -3980 238 0
3981 3980 -238 0
-3982 3981 239 0
-3982 -3981 -239 0
3982 -3981 239 0
3982 3981 -239 0
-3983 3982 240 0
-3983 -3982 -240 0
3983 -3982 240 0
3983 3982 -240 0
-3984 3983 241 0
-3984 -3983 -241 0
3984 -3983 241 0
3984 3983 -241 0
-3985 3984 242 0
-3985 -3984 -242 0
3985 -3984 242 0
3985 3984 -242 0
-3986 3985 243 0
-3986 -3985 -243 0
3986 -3985 243 0
3986 3985 -243 0
-3987 3986 244 0
-3987 -3986 -244 0
3987 -3986 244 0
3987 3986 -244 0
-3988 3987 249 0
-3988 -3987 -249 0
3988 -3987 249 0
3988 3987 -249 0
-3989 3988 251 0
-3989 -3988 -251 0
3989 -3988 251 0
3989 3988 -251 0
-3990 3989 253 0
-3990 -3989 -253 0
3990 -3989 253 0
3990 3989 -253 0
-3991 3990 254 0
-3991 -3990 -254 0
3991 -3990 254 0
3991 3990 -254 0
-3992 3991 258 0
-3992 -3991 -258 0
3992 -3991 258 0
3992 3991 -258 0
-3993 3992 259 0
-3993 -3992 -259 0
3993 -3992 259 0
3993 3992 -259 0
-3994 3993 261 0
-3994 -3993 -261 0
3994 -3993 261 0
3994 3993 -261 0
-3995 3994 262 0
-3995 -3994 -262 0
3995 -3994 262 0
3995 3994 -262 0
-3996 3995 263 0
-3996 -3995 -263 0
3996 -3995 263 0
3996 3995 -263 0
-3997 3996 264 0
-3997 -3996 -264 0
3997 -3996 264 0
3997 3996 -264 0
-3998 3997 268 0
-3998 -3997 -268 0
3998 -3997 268 0
3998 3997 -268 0
-3999 3998 269 0
-3999 -3998 -269 0
3999 -3998 269 0
3999 3998 -269 0
-4000 3999 271 0
-4000 -3999 -271 0
4000 -3999 271 0
4000 3999 -271 0
-4001 4000 277 0
-4001 -4000 -277 0
4001 -4000 277 0
4001 4000 -277 0
-4002 4001 278 0
-4002 -4001 -278 0
4002 -4001 278 0
4002 4001 -278 0
-4003 4002 279 0
-4003 -4002 -279 0
4003 -4002 279 0
4003 4002 -279 0
-4004 4003 281 0
-4004 -4003 -281 0
4004 -4003 281 0
4004 4003 -281 0
-4005 4004 282 0
-4005 -4004 -282 0
4005 -4004 282 0
4005 4004 -282 0
-4006 4005 284 0
-4006 -4005 -284 0
4006 -4005 284 0
4006 4005 -284 0
-4007 4006 285 0
-4007 -4006 -285 0
4007 -4006 285 0
4007 4006 -285 0
-4007 0
-4008 63 65 0
-4008 -63 -65 0
4008 -63 65 0
4008 63 -65 0
-4009 4008 66 0
-4009 -4008 -66 0
4009 -4008 66 0
4009 4008 -66 0
-4010 4009 68 0
-4010 -4009 -68 0
4010 -4009 68 0
4010 4009 -68 0
-4011 4010 69 0
-4011 -4010 -69 0
4011 -4010 69 0
4011 4010 -69 0
-4012 4011 72 0
-4012 -4011 -72 0
4012 -4011 72 0
4012 4011 -72 0
-4013 4012 85 0
-4013 -4012 -85 0
4013 -4012 85 0
4013 4012 -85 0
-4014 4013 86 0
-4014 -4013 -86 0
4014 -4013 86 0
4014 4013 -86 0
-4015 4014 87 0
-4015 -4014 -87 0
4015 -4014 87 0
4015 4014 -87 0
-4016 4015 88 0
-4016 -4015 -88 0
4016 -4015 88 0
4016 4015 -88 0
-4017 4016 89 0
-4017 -4016 -89 0
4017 -4016 89 0
4017 4016 -89 0
-4018 4017 90 0
-4018 -4017 -90 0
4018 -4017 90 0
4018 4017 -90 0
-4019 4018 91 0
-4019 -4018 -91 0
4019 -4018 91 0
4019 4018 -91 0
-4020 4019 92 0
-4020 -4019 -92 0
4020 -4019 92 0
4020 4019 -92 0
-4021 4020 93 0
-4021 -4020 -93 0
4021 -4020 93 0
4021 4020 -93 0
-4022 4021 94 0
-4022 -4021 -94 0
4022 -4021 94 0
4022 4021 -94 0
-4023 4022 95 0
-4023 -4022 -95 0
4023 -4022 95 0
4023 4022 -95 0
-4024 4023 96 0
-4024 -4023 -96 0
4024 -4023 96 0
4024 4023 -96 0
-4025 4024 97 0
-4025 -4024 -97 0
4025 -4024 97 0
4025 4024 -97 0
-4026 4025 104 0
-4026 -4025 -104 0
4026 -4025 104 0
4026 4025 -104 0
-4027 4026 105 0
-4027 -4026 -105 0
4027 -4026 105 0
4027 4026 -105 0
-4028 4027 106 0
-4028 -4027 -106 0
4028 -4027 106 0
4028 4027 -106 0
-4029 4028 107 0
-4029 -4028 -107 0
4029 -4028 107 0
4029 4028 -107 0
-4030 4029 113 0
-4030 -4029 -113 0
4030 -4029 113 0
4030 4029 -113 0
-4031 4030 114 0
-4031 -4030 -114 0
4031 -4030 114 0
4031 4030 -114 0
-4032 4031 115 0
-4032 -4031 -115 0
4032 -4031 115 0
4032 4031 -115 0
-4033 4032 116 0
-4033 -4032 -116 0
4033 -4032 116 0
4033 4032 -116 0
-4034 4033 120 0
-4034 -4033 -120 0
4034 -4033 120 0
4034 4033 -120 0
-4035 4034 124 0
-4035 -4034 -124 0
4035 -4034 124 0
4035 4034 -124 0
-4036 4035 125 0
-4036 -4035 -125 0
4036 -4035 125 0
4036 4035 -125 0
-4037 4036 126 0
-4037 -4036 -126 0
4037 -4036 126 0
4037 4036 -126 0
-4038 4037 128 0
-4038 -4037 -128 0
4038 -4037 128 0
4038 4037 -128 0
-4039 4038 130 0
-4039 -4038 -130 0
4039 -4038 130 0
4039 4038 -130 0
-4040 4039 136 0
-4040 -4039 -136 0
4040 -4039 136 0
4040 4039 -136 0
-4041 4040 139 0
-4041 -4040 -139 0
4041 -4040 139 0
4041 4040 -139 0
-4042 4041 140 0
-4042 -4041 -140 0
4042 -4041 140 0
4042 4041 -140 0
-4043 4042 141 0
-4043 -4042 -141 0
4043 -4042 141 0
4043 4042 -141 0
-4044 4043 142 0
-4044 -4043 -142 0
4044 -4043 142 0
4044 4043 -142 0
-4045 4044 143 0
-4045 -4044 -143 0
4045 -4044 143 0
4045 4044 -143 0
-4046 4045 144 0
-4046 -4045 -144 0
4046 -4045 144 0
4046 4045 -144 0
-4047 4046 204 0
-4047 -4046 -204 0
4047 -4046 204 0
4047 4046 -204 0
-4048 4047 213 0
-4048 -4047 -213 0
4048 -4047 213 0
4048 4047 -213 0
-4049 4048 214 0
-4049 -4048 -214 0
4049 -4048 214 0
4049 4048 -214 0
-4050 4049 215 0
-4050 -4049 -215 0
4050 -4049 215 0
4050 4049 -215 0
-4051 4050 216 0
-4051 -4050 -216 0
4051 -4050 216 0
4051 4050 -216 0
-4052 4051 254 0
-4052 -4051 -254 0
4052 -4051 254 0
4052 4051 -254 0
-4053 4052 262 0
-4053 -4052 -262 0
4053 -4052 262 0
4053 4052 -262 0
-4054 4053 265 0
-4054 -4053 -265 0
4054 -4053 265 0
4054 4053 -265 0
-4055 4054 266 0
-4055 -4054 -266 0
4055 -4054 266 0
4055 4054 -266 0
-4056 4055 268 0
-4056 -4055 -268 0
4056 -4055 268 0
4056 4055 -268 0
-4057 4056 269 0
-4057 -4056 -269 0
4057 -4056 269 0
4057 4056 -269 0
-4058 4057 270 0
-4058 -4057 -270 0
4058 -4057 270 0
4058 4057 -270 0
-4059 4058 271 0
-4059 -4058 -271 0
4059 -4058 271 0
4059 4058 -271 0
-4060 4059 272 0
-4060 -4059 -272 0
4060 -4059 272 0
4060 4059 -272 0
-4061 4060 273 0
-4061 -4060 -273 0
4061 -4060 273 0
4061 4060 -273 0
-4062 4061 274 0
-4062 -4061 -274 0
4062 -4061 274 0
4062 4061 -274 0
-4063 4062 275 0
-4063 -4062 -275 0
4063 -4062 275 0
4063 4062 -275 0
-4064 4063 276 0
-4064 -4063 -276 0
4064 -4063 276 0
4064 4063 -276 0
-4065 4064 277 0
-4065 -4064 -277 0
4065 -4064 277 0
4065 4064 -277 0
-4066 4065 278 0
-4066 -4065 -278 0
4066 -4065 278 0
4066 4065 -278 0
-4067 4066 279 0
-4067 -4066 -279 0
4067 -4066 279 0
4067 4066 -279 0
-4068 4067 280 0
-4068 -4067 -280 0
4068 -4067 280 0
4068 4067 -280 0
-4069 4068 281 0
-4069 -4068 -281 0
4069 -4068 281 0
4069 4068 -281 0
-4070 4069 282 0
-4070 -4069 -282 0
4070 -4069 282 0
4070 4069 -282 0
-4070 0
-4071 61 63 0
-4071 -61 -63 0
4071 -61 63 0
4071 61 -63 0
-4072 4071 65 0
-4072 -4071 -65 0
4072 -4071 65 0
4072 4071 -65 0
-4073 4072 67 0
-4073 -4072 -67 0
4073 -4072 67 0
4073 4072 -67 0
-4074 4073 68 0
-4074 -4073 -68 0
4074 -4073 68 0
4074 4073 -68 0
-4075 4074 69 0
-4075 -4074 -69 0
4075 -4074 69 0
4075 4074 -69 0
-4076 4075 70 0
-4076 -4075 -70 0
4076 -4075 70 0
4076 4075 -70 0
-4077 4076 71 0
-4077 -4076 -71 0
4077 -4076 71 0
4077 4076 -71 0
-4078 4077 72 0
-4078 -4077 -72 0
4078 -4077 72 0
4078 4077 -72 0
-4079 4078 85 0
-4079 -4078 -85 0
4079 -4078 85 0
4079 4078 -85 0
-4080 4079 86 0
-4080 -4079 -86 0
4080 -4079 86 0
4080 4079 -86 0
-4081 4080 87 0
-4081 -4080 -87 0
4081 -4080 87 0
4081 4080 -87 0
-4082 4081 88 0
-4082 -4081 -88 0
4082 -4081 88 0
4082 4081 -88 0
-4083 4082 89 0
-4083 -4082 -89 0
4083 -4082 89 0
4083 4082 -89 0
-4084 4083 90 0
-4084 -4083 -90 0
4084 -4083 90 0
4084 4083 -90 0
-4085 4084 97 0
-4085 -4084 -97 0
4085 -4084 97 0
4085 4084 -97 0
-4086 4085 98 0
-4086 -4085 -98 0
4086 -4085 98 0
4086 4085 -98 0
-4087 4086 99 0
-4087 -4086 -99 0
4087 -4086 99 0
4087 4086 -99 0
-4088 4087 100 0
-4088 -4087 -100 0
4088 -4087 100 0
4088 4087 -100 0
-4089 4088 101 0
-4089 -4088 -101 0
4089 -4088 101 0
4089 4088 -101 0
-4090 4089 102 0
-4090 -4089 -102 0
4090 -4089 102 0
4090 4089 -102 0
-4091 4090 103 0
-4091 -4090 -103 0
4091 -4090 103 0
4091 4090 -103 0
-4092 4091 105 0
-4092 -4091 -105 0
4092 -4091 105 0
4092 4091 -105 0
-4093 4092 107 0
-4093 -4092 -107 0
4093 -4092 107 0
4093 4092 -107 0
-4094 4093 109 0
-4094 -4093 -109 0
4094 -4093 109 0
4094 4093 -109 0
-4095 4094 110 0
-4095 -4094 -110 0
4095 -4094 110 0
4095 4094 -110 0
-4096 4095 111 0
-4096 -4095 -111 0
4096 -4095 111 0
4096 4095 -111 0
-4097 4096 112 0
-4097 -4096 -112 0
4097 -4096 112 0
4097 4096 -112 0
-4098 4097 113 0
-4098 -4097 -113 0
4098 -4097 113 0
4098 4097 -113 0
-4099 4098 114 0
-4099 -4098 -114 0
4099 -4098 114 0
4099 4098 -114 0
-4100 4099 121 0
-4100 -4099 -121 0
4100 -4099 121 0
4100 4099 -121 0
-4101 4100 123 0
-4101 -4100 -123 0
4101 -4100 123 0
4101 4100 -123 0
-4102 4101 125 0
-4102 -4101 -125 0
4102 -4101 125 0
4102 4101 -125 0
-4103 4102 127 0
-4103 -4102 -127 0
4103 -4102 127 0
4103 4102 -127 0
-4104 4103 128 0
-4104 -4103 -128 0
4104 -4103 128 0
4104 4103 -128 0
-4105 4104 129 0
-4105 -4104 -129 0
4105 -4104 129 0
4105 4104 -129 0
-4106 4105 130 0
-4106 -4105 -130 0
4106 -4105 130 0
4106 4105 -130 0
-4107 4106 131 0
-4107 -4106 -131 0
4107 -4106 131 0
4107 4106 -131 0
-4108 4107 132 0
-4108 -4107 -132 0
4108 -4107 132 0
4108 4107 -132 0
-4109 4108 140 0
-4109 -4108 -140 0
4109 -4108 140 0
4109 4108 -140 0
-4110 4109 142 0
-4110 -4109 -142 0
4110 -4109 142 0
4110 4109 -142 0
-4111 4110 144 0
-4111 -4110 -144 0
4111 -4110 144 0
4111 4110 -144 0
-4112 4111 205 0
-4112 -4111 -205 0
4112 -4111 205 0
4112 4111 -205 0
-4113 4112 207 0
-4113 -4112 -207 0
4113 -4112 207 0
4113 4112 -207 0
-4114 4113 209 0
-4114 -4113 -209 0
4114 -4113 209 0
4114 4113 -209 0
-4115 4114 259 0
-4115 -4114 -259 0
4115 -4114 259 0
4115 4114 -259 0
-4116 4115 261 0
-4116 -4115 -261 0
4116 -4115 261 0
4116 4115 -261 0
-4117 4116 263 0
-4117 -4116 -263 0
4117 -4116 263 0
4117 4116 -263 0
-4118 4117 265 0
-4118 -4117 -265 0
4118 -4117 265 0
4118 4117 -265 0
-4119 4118 267 0
-4119 -4118 -267 0
4119 -4118 267 0
4119 4118 -267 0
-4120 4119 269 0
-4120 -4119 -269 0
4120 -4119 269 0
4120 4119 -269 0
-4121 4120 271 0
-4121 -4120 -271 0
4121 -4120 271 0
4121 4120 -271 0
-4122 4121 273 0
-4122 -4121 -273 0
4122 -4121 273 0
4122 4121 -273 0
-4123 4122 275 0
-4123 -4122 -275 0
4123 -4122 275 0
4123 4122 -275 0
-4124 4123 277 0
-4124 -4123 -277 0
4124 -4123 277 0
4124 4123 -277 0
-4125 4124 278 0
-4125 -4124 -278 0
4125 -4124 278 0
4125 4124 -278 0
-4126 4125 279 0
-4126 -4125 -279 0
4126 -4125 279 0
4126 4125 -279 0
-4127 4126 280 0
-4127 -4126 -280 0
4127 -4126 280 0
4127 4126 -280 0
-4128 4127 281 0
-4128 -4127 -281 0
4128 -4127 281 0
4128 4127 -281 0
-4129 4128 282 0
-4129 -4128 -282 0
4129 -4128 282 0
4129 4128 -282 0
-4130 4129 283 0
-4130 -4129 -283 0
4130 -4129 283 0
4130 4129 -283 0
-4131 4130 284 0
-4131 -4130 -284 0
4131 -4130 284 0
4131 4130 -284 0
-4132 4131 285 0
-4132 -4131 -285 0
4132 -4131 285 0
4132 4131 -285 0
-4133 4132 286 0
-4133 -4132 -286 0
4133 -4132 286 0
4133 4132 -286 0
-4134 4133 287 0
-4134 -4133 -287 0
4134 -4133 287 0
4134 4133 -287 0
-4135 4134 288 0
-4135 -4134 -288 0
4135 -4134 288 0
4135 4134 -288 0
-4135 0
-4136 62 64 0
-4136 -62 -64 0
4136 -62 64 0
4136 62 -64 0
-4137 4136 66 0
-4137 -4136 -66 0
4137 -4136 66 0
4137 4136 -66 0
-4138 4137 67 0
-4138 -4137 -67 0
4138 -4137 67 0
4138 4137 -67 0
-4139 4138 68 0
-4139 -4138 -68 0
4139 -4138 68 0
4139 4138 -68 0
-4140 4139 69 0
-4140 -4139 -69 0
4140 -4139 69 0
4140 4139 -69 0
-4141 4140 70 0
-4141 -4140 -70 0
4141 -4140 70 0
4141 4140 -70 0
-4142 4141 71 0
-4142 -4141 -71 0
4142 -4141 71 0
4142 4141 -71 0
-4143 4142 72 0
-4143 -4142 -72 0
4143 -4142 72 0
4143 4142 -72 0
-4144 4143 85 0
-4144 -4143 -85 0
4144 -4143 85 0
4144 4143 -85 0
-4145 4144 86 0
-4145 -4144 -86 0
4145 -4144 86 0
4145 4144 -86 0
-4146 4145 87 0
-4146 -4145 -87 0
4146 -4145 87 0
4146 4145 -87 0
-4147 4146 88 0
-4147 -4146 -88 0
4147 -4146 88 0
4147 4146 -88 0
-4148 4147 89 0
-4148 -4147 -89 0
4148 -4147 89 0
4148 4147 -89 0
-4149 4148 90 0
-4149 -4148 -90 0
4149 -4148 90 0
4149 4148 -90 0
-4150 4149 97 0
-4150 -4149 -97 0
4150 -4149 97 0
4150 4149 -97 0
-4151 4150 98 0
-4151 -4150 -98 0
4151 -4150 98 0
4151 4150 -98 0
-4152 4151 99 0
-4152 -4151 -99 0
4152 -4151 99 0
4152 4151 -99 0
-4153 4152 100 0
-4153 -4152 -100 0
4153 -4152 100 0
4153 4152 -100 0
-4154 4153 101 0
-4154 -4153 -101 0
4154 -4153 101 0
4154 4153 -101 0
-4155 4154 102 0
-4155 -4154 -102 0
4155 -4154 102 0
4155 4154 -102 0
-4156 4155 104 0
-4156 -4155 -104 0
4156 -4155 104 0
4156 4155 -104 0
-4157 4156 106 0
-4157 -4156 -106 0
4157 -4156 106 0
4157 4156 -106 0
-4158 4157 108 0
-4158 -4157 -108 0
4158 -4157 108 0
4158 4157 -108 0
-4159 4158 109 0
-4159 -4158 -109 0
4159 -4158 109 0
4159 4158 -109 0
-4160 4159 110 0
-4160 -4159 -110 0
4160 -4159 110 0
4160 4159 -110 0
-4161 4160 111 0
-4161 -4160 -111 0
4161 -4160 111 0
4161 4160 -111 0
-4162 4161 112 0
-4162 -4161 -112 0
4162 -4161 112 0
4162 4161 -112 0
-4163 4162 113 0
-4163 -4162 -113 0
4163 -4162 113 0
4163 4162 -113 0
-4164 4163 114 0
-4164 -4163 -114 0
4164 -4163 114 0
4164 4163 -114 0
-4165 4164 122 0
-4165 -4164 -122 0
4165 -4164 122 0
4165 4164 -122 0
-4166 4165 124 0
-4166 -4165 -124 0
4166 -4165 124 0
4166 4165 -124 0
-4167 4166 126 0
-4167 -4166 -126 0
4167 -4166 126 0
4167 4166 -126 0
-4168 4167 127 0
-4168 -4167 -127 0
4168 -4167 127 0
4168 4167 -127 0
-4169 4168 128 0
-4169 -4168 -128 0
4169 -4168 128 0
4169 4168 -128 0
-4170 4169 129 0
-4170 -4169 -129 0
4170 -4169 129 0
4170 4169 -129 0
-4171 4170 130 0
-4171 -4170 -130 0
4171 -4170 130 0
4171 4170 -130 0
-4172 4171 131 0
-4172 -4171 -131 0
4172 -4171 131 0
4172 4171 -131 0
-4173 4172 132 0
-4173 -4172 -132 0
4173 -4172 132 0
4173 4172 -132 0
-4174 4173 139 0
-4174 -4173 -139 0
4174 -4173 139 0
4174 4173 -139 0
-4175 4174 141 0
-4175 -4174 -141 0
4175 -4174 141 0
4175 4174 -141 0
-4176 4175 143 0
-4176 -4175 -143 0
4176 -4175 143 0
4176 4175 -143 0
-4177 4176 206 0
-4177 -4176 -206 0
4177 -4176 206 0
4177 4176 -206 0
-4178 4177 208 0
-4178 -4177 -208 0
4178 -4177 208 0
4178 4177 -208 0
-4179 4178 210 0
-4179 -4178 -210 0
4179 -4178 210 0
4179 4178 -210 0
-4180 4179 260 0
-4180 -4179 -260 0
4180 -4179 260 0
4180 4179 -260 0
-4181 4180 262 0
-4181 -4180 -262 0
4181 -4180 262 0
4181 4180 -262 0
-4182 4181 264 0
-4182 -4181 -264 0
4182 -4181 264 0
4182 4181 -264 0
-4183 4182 266 0
-4183 -4182 -266 0
4183 -4182 266 0
4183 4182 -266 0
-4184 4183 268 0
-4184 -4183 -268 0
4184 -4183 268 0
4184 4183 -268 0
-4185 4184 270 0
-4185 -4184 -270 0
4185 -4184 270 0
4185 4184 -270 0
-4186 4185 272 0
-4186 -4185 -272 0
4186 -4185 272 0
4186 4185 -272 0
-4187 4186 274 0
-4187 -4186 -274 0
4187 -4186 274 0
4187 4186 -274 0
-4188 4187 276 0
-4188 -4187 -276 0
4188 -4187 276 0
4188 4187 -276 0
-4189 4188 277 0
-4189 -4188 -277 0
4189 -4188 277 0
4189 4188 -277 0
-4190 4189 278 0
-4190 -4189 -278 0
4190 -4189 278 0
4190 4189 -278 0
-4191 4190 279 0
-4191 -4190 -279 0
4191 -4190 279 0
4191 4190 -279 0
-4192 4191 280 0
-4192 -4191 -280 0
4192 -4191 280 0
4192 4191 -280 0
-4193 4192 281 0
-4193 -4192 -281 0
4193 -4192 281 0
4193 4192 -281 0
-4194 4193 282 0
-4194 -4193 -282 0
4194 -4193 282 0
4194 4193 -282 0
-4195 4194 283 0
-4195 -4194 -283 0
4195 -4194 283 0
4195 4194 -283 0
-4196 4195 284 0
-4196 -4195 -284 0
4196 -4195 284 0
4196 4195 -284 0
-4197 4196 285 0
-4197 -4196 -285 0
4197 -4196 285 0
4197 4196 -285 0
-4198 4197 286 0
-4198 -4197 -286 0
4198 -4197 286 0
4198 4197 -286 0
-4199 4198 287 0
-4199 -4198 -287 0
4199 -4198 287 0
4199 4198 -287 0
-4200 4199 288 0
-4200 -4199 -288 0
4200 -4199 288 0
4200 4199 -288 0
-4200 0
-4201 61 62 0
-4201 -61 -62 0
4201 -61 62 0
4201 61 -62 0
-4202 4201 63 0
-4202 -4201 -63 0
4202 -4201 63 0
4202 4201 -63 0
-4203 4202 64 0
-4203 -4202 -64 0
4203 -4202 64 0
4203 4202 -64 0
-4204 4203 65 0
-4204 -4203 -65 0
4204 -4203 65 0
4204 4203 -65 0
-4205 4204 66 0
-4205 -4204 -66 0
4205 -4204 66 0
4205 4204 -66 0
-4206 4205 68 0
-4206 -4205 -68 0
4206 -4205 68 0
4206 4205 -68 0
-4207 4206 70 0
-4207 -4206 -70 0
4207 -4206 70 0
4207 4206 -70 0
-4208 4207 72 0
-4208 -4207 -72 0
4208 -4207 72 0
4208 4207 -72 0
-4209 4208 84 0
-4209 -4208 -84 0
4209 -4208 84 0
4209 4208 -84 0
-4210 4209 85 0
-4210 -4209 -85 0
4210 -4209 85 0
4210 4209 -85 0
-4211 4210 86 0
-4211 -4210 -86 0
4211 -4210 86 0
4211 4210 -86 0
-4212 4211 89 0
-4212 -4211 -89 0
4212 -4211 89 0
4212 4211 -89 0
-4213 4212 90 0
-4213 -4212 -90 0
4213 -4212 90 0
4213 4212 -90 0
-4214 4213 91 0
-4214 -4213 -91 0
4214 -4213 91 0
4214 4213 -91 0
-4215 4214 92 0
-4215 -4214 -92 0
4215 -4214 92 0
4215 4214 -92 0
-4216 4215 93 0
-4216 -4215 -93 0
4216 -4215 93 0
4216 4215 -93 0
-4217 4216 97 0
-4217 -4216 -97 0
4217 -4216 97 0
4217 4216 -97 0
-4218 4217 99 0
-4218 -4217 -99 0
4218 -4217 99 0
4218 4217 -99 0
-4219 4218 100 0
-4219 -4218 -100 0
4219 -4218 100 0
4219 4218 -100 0
-4220 4219 106 0
-4220 -4219 -106 0
4220 -4219 106 0
4220 4219 -106 0
-4221 4220 108 0
-4221 -4220 -108 0
4221 -4220 108 0
4221 4220 -108 0
-4222 4221 110 0
-4222 -4221 -110 0
4222 -4221 110 0
4222 4221 -110 0
-4223 4222 113 0
-4223 -4222 -113 0
4223 -4222 113 0
4223 4222 -113 0
-4224 4223 116 0
-4224 -4223 -116 0
4224 -4223 116 0
4224 4223 -116 0
-4225 4224 119 0
-4225 -4224 -119 0
4225 -4224 119 0
4225 4224 -119 0
-4226 4225 120 0
-4226 -4225 -120 0
4226 -4225 120 0
4226 4225 -120 0
-4227 4226 122 0
-4227 -4226 -122 0
4227 -4226 122 0
4227 4226 -122 0
-4228 4227 123 0
-4228 -4227 -123 0
4228 -4227 123 0
4228 4227 -123 0
-4229 4228 124 0
-4229 -4228 -124 0
4229 -4228 124 0
4229 4228 -124 0
-4230 4229 125 0
-4230 -4229 -125 0
4230 -4229 125 0
4230 4229 -125 0
-4231 4230 127 0
-4231 -4230 -127 0
4231 -4230 127 0
4231 4230 -127 0
-4232 4231 128 0
-4232 -4231 -128 0
4232 -4231 128 0
4232 4231 -128 0
-4233 4232 129 0
-4233 -4232 -129 0
4233 -4232 129 0
4233 4232 -129 0
-4234 4233 130 0
-4234 -4233 -130 0
4234 -4233 130 0
4234 4233 -130 0
-4235 4234 131 0
-4235 -4234 -131 0
4235 -4234 131 0
4235 4234 -131 0
-4236 4235 132 0
-4236 -4235 -132 0
4236 -4235 132 0
4236 4235 -132 0
-4237 4236 133 0
-4237 -4236 -133 0
4237 -4236 133 0
4237 4236 -133 0
-4238 4237 134 0
-4238 -4237 -134 0
4238 -4237 134 0
4238 4237 -134 0
-4239 4238 135 0
-4239 -4238 -135 0
4239 -4238 135 0
4239 4238 -135 0
-4240 4239 136 0
-4240 -4239 -136 0
4240 -4239 136 0
4240 4239 -136 0
-4241 4240 137 0
-4241 -4240 -137 0
4241 -4240 137 0
4241 4240 -137 0
-4242 4241 140 0
-4242 -4241 -140 0
4242 -4241 140 0
4242 4241 -140 0
-4243 4242 142 0
-4243 -4242 -142 0
4243 -4242 142 0
4243 4242 -142 0
-4244 4243 143 0
-4244 -4243 -143 0
4244 -4243 143 0
4244 4243 -143 0
-4245 4244 144 0
-4245 -4244 -144 0
4245 -4244 144 0
4245 4244 -144 0
-4246 4245 211 0
-4246 -4245 -211 0
4246 -4245 211 0
4246 4245 -211 0
-4247 4246 213 0
-4247 -4246 -213 0
4247 -4246 213 0
4247 4246 -213 0
-4248 4247 215 0
-4248 -4247 -215 0
4248 -4247 215 0
4248 4247 -215 0
-4249 4248 221 0
-4249 -4248 -221 0
4249 -4248 221 0
4249 4248 -221 0
-4250 4249 222 0
-4250 -4249 -222 0
4250 -4249 222 0
4250 4249 -222 0
-4251 4250 225 0
-4251 -4250 -225 0
4251 -4250 225 0
4251 4250 -225 0
-4252 4251 227 0
-4252 -4251 -227 0
4252 -4251 227 0
4252 4251 -227 0
-4253 4252 230 0
-4253 -4252 -230 0
4253 -4252 230 0
4253 4252 -230 0
-4254 4253 234 0
-4254 -4253 -234 0
4254 -4253 234 0
4254 4253 -234 0
-4255 4254 235 0
-4255 -4254 -235 0
4255 -4254 235 0
4255 4254 -235 0
-4256 4255 238 0
-4256 -4255 -238 0
4256 -4255 238 0
4256 4255 -238 0
-4257 4256 239 0
-4257 -4256 -239 0
4257 -4256 239 0
4257 4256 -239 0
-4258 4257 240 0
-4258 -4257 -240 0
4258 -4257 240 0
4258 4257 -240 0
-4259 4258 241 0
-4259 -4258 -241 0
4259 -4258 241 0
4259 4258 -241 0
-4260 4259 242 0
-4260 -4259 -242 0
4260 -4259 242 0
4260 4259 -242 0
-4261 4260 243 0
-4261 -4260 -243 0
4261 -4260 243 0
4261 4260 -243 0
-4262 4261 244 0
-4262 -4261 -244 0
4262 -4261 244 0
4262 4261 -244 0
-4263 4262 249 0
-4263 -4262 -249 0
4263 -4262 249 0
4263 4262 -249 0
-4264 4263 251 0
-4264 -4263 -251 0
4264 -4263 251 0
4264 4263 -251 0
-4265 4264 254 0
-4265 -4264 -254 0
4265 -4264 254 0
4265 4264 -254 0
-4266 4265 258 0
-4266 -4265 -258 0
4266 -4265 258 0
4266 4265 -258 0
-4267 4266 259 0
-4267 -4266 -259 0
4267 -4266 259 0
4267 4266 -259 0
-4268 4267 262 0
-4268 -4267 -262 0
4268 -4267 262 0
4268 4267 -262 0
-4269 4268 263 0
-4269 -4268 -263 0
4269 -4268 263 0
4269 4268 -263 0
-4270 4269 264 0
-4270 -4269 -264 0
4270 -4269 264 0
4270 4269 -264 0
-4271 4270 266 0
-4271 -4270 -266 0
4271 -4270 266 0
4271 4270 -266 0
-4272 4271 268 0
-4272 -4271 -268 0
4272 -4271 268 0
4272 4271 -268 0
-4273 4272 269 0
-4273 -4272 -269 0
4273 -4272 269 0
4273 4272 -269 0
-4274 4273 271 0
-4274 -4273 -271 0
4274 -4273 271 0
4274 4273 -271 0
-4275 4274 277 0
-4275 -4274 -277 0
4275 -4274 277 0
4275 4274 -277 0
-4276 4275 278 0
-4276 -4275 -278 0
4276 -4275 278 0
4276 4275 -278 0
-4277 4276 279 0
-4277 -4276 -279 0
4277 -4276 279 0
4277 4276 -279 0
-4278 4277 281 0
-4278 -4277 -281 0
4278 -4277 281 0
4278 4277 -281 0
-4279 4278 282 0
-4279 -4278 -282 0
4279 -4278 282 0
4279 4278 -282 0
-4280 4279 284 0
-4280 -4279 -284 0
4280 -4279 284 0
4280 4279 -284 0
-4281 4280 285 0
-4281 -4280 -285 0
4281 -4280 285 0
4281 4280 -285 0
-4281 0
-4282 61 62 0
-4282 -61 -62 0
4282 -61 62 0
4282 61 -62 0
-4283 4282 63 0
-4283 -4282 -63 0
4283 -4282 63 0
4283 4282 -63 0
-4284 4283 64 0
-4284 -4283 -64 0
4284 -4283 64 0
4284 4283 -64 0
-4285 4284 65 0
-4285 -4284 -65 0
4285 -4284 65 0
4285 4284 -65 0
-4286 4285 66 0
-4286 -4285 -66 0
4286 -4285 66 0
4286 4285 -66 0
-4287 4286 67 0
-4287 -4286 -67 0
4287 -4286 67 0
4287 4286 -67 0
-4288 4287 69 0
-4288 -4287 -69 0
4288 -4287 69 0
4288 4287 -69 0
-4289 4288 71 0
-4289 -4288 -71 0
4289 -4288 71 0
4289 4288 -71 0
-4290 4289 84 0
-4290 -4289 -84 0
4290 -4289 84 0
4290 4289 -84 0
-4291 4290 87 0
-4291 -4290 -87 0
4291 -4290 87 0
4291 4290 -87 0
-4292 4291 88 0
-4292 -4291 -88 0
4292 -4291 88 0
4292 4291 -88 0
-4293 4292 94 0
-4293 -4292 -94 0
4293 -4292 94 0
4293 4292 -94 0
-4294 4293 95 0
-4294 -4293 -95 0
4294 -4293 95 0
4294 4293 -95 0
-4295 4294 96 0
-4295 -4294 -96 0
4295 -4294 96 0
4295 4294 -96 0
-4296 4295 97 0
-4296 -4295 -97 0
4296 -4295 97 0
4296 4295 -97 0
-4297 4296 99 0
-4297 -4296 -99 0
4297 -4296 99 0
4297 4296 -99 0
-4298 4297 100 0
-4298 -4297 -100 0
4298 -4297 100 0
4298 4297 -100 0
-4299 4298 103 0
-4299 -4298 -103 0
4299 -4298 103 0
4299 4298 -103 0
-4300 4299 104 0
-4300 -4299 -104 0
4300 -4299 104 0
4300 4299 -104 0
-4301 4300 105 0
-4301 -4300 -105 0
4301 -4300 105 0
4301 4300 -105 0
-4302 4301 107 0
-4302 -4301 -107 0
4302 -4301 107 0
4302 4301 -107 0
-4303 4302 110 0
-4303 -4302 -110 0
4303 -4302 110 0
4303 4302 -110 0
-4304 4303 113 0
-4304 -4303 -113 0
4304 -4303 113 0
4304 4303 -113 0
-4305 4304 116 0
-4305 -4304 -116 0
4305 -4304 116 0
4305 4304 -116 0
-4306 4305 119 0
-4306 -4305 -119 0
4306 -4305 119 0
4306 4305 -119 0
-4307 4306 120 0
-4307 -4306 -120 0
4307 -4306 120 0
4307 4306 -120 0
-4308 4307 121 0
-4308 -4307 -121 0
4308 -4307 121 0
4308 4307 -121 0
-4309 4308 126 0
-4309 -4308 -126 0
4309 -4308 126 0
4309 4308 -126 0
-4310 4309 127 0
-4310 -4309 -127 0
4310 -4309 127 0
4310 4309 -127 0
-4311 4310 128 0
-4311 -4310 -128 0
4311 -4310 128 0
4311 4310 -128 0
-4312 4311 129 0
-4312 -4311 -129 0
4312 -4311 129 0
4312 4311 -129 0
-4313 4312 130 0
-4313 -4312 -130 0
4313 -4312 130 0
4313 4312 -130 0
-4314 4313 131 0
-4314 -4313 -131 0
4314 -4313 131 0
4314 4313 -131 0
-4315 4314 132 0
-4315 -4314 -132 0
4315 -4314 132 0
4315 4314 -132 0
-4316 4315 133 0
-4316 -4315 -133 0
4316 -4315 133 0
4316 4315 -133 0
-4317 4316 134 0
-4317 -4316 -134 0
4317 -4316 134 0
4317 4316 -134 0
-4318 4317 135 0
-4318 -4317 -135 0
4318 -4317 135 0
4318 4317 -135 0
-4319 4318 136 0
-4319 -4318 -136 0
4319 -4318 136 0
4319 4318 -136 0
-4320 4319 137 0
-4320 -4319 -137 0
4320 -4319 137 0
4320 4319 -137 0
-4321 4320 139 0
-4321 -4320 -139 0
4321 -4320 139 0
4321 4320 -139 0
-4322 4321 141 0
-4322 -4321 -141 0
4322 -4321 141 0
4322 4321 -141 0
-4323 4322 212 0
-4323 -4322 -212 0
4323 -4322 212 0
4323 4322 -212 0
-4324 4323 214 0
-4324 -4323 -214 0
4324 -4323 214 0
4324 4323 -214 0
-4325 4324 216 0
-4325 -4324 -216 0
4325 -4324 216 0
4325 4324 -216 0
-4326 4325 221 0
-4326 -4325 -221 0
4326 -4325 221 0
4326 4325 -221 0
-4327 4326 222 0
-4327 -4326 -222 0
4327 -4326 222 0
4327 4326 -222 0
-4328 4327 225 0
-4328 -4327 -225 0
4328 -4327 225 0
4328 4327 -225 0
-4329 4328 227 0
-4329 -4328 -227 0
4329 -4328 227 0
4329 4328 -227 0
-4330 4329 230 0
-4330 -4329 -230 0
4330 -4329 230 0
4330 4329 -230 0
-4331 4330 234 0
-4331 -4330 -234 0
4331 -4330 234 0
4331 4330 -234 0
-4332 4331 235 0
-4332 -4331 -235 0
4332 -4331 235 0
4332 4331 -235 0
-4333 4332 238 0
-4333 -4332 -238 0
4333 -4332 238 0
4333 4332 -238 0
-4334 4333 239 0
-4334 -4333 -239 0
4334 -4333 239 0
4334 4333 -239 0
-4335 4334 240 0
-4335 -4334 -240 0
4335 -4334 240 0
4335 4334 -240 0
-4336 4335 241 0
-4336 -4335 -241 0
4336 -4335 241 0
4336 4335 -241 0
-4337 4336 242 0
-4337 -4336 -242 0
4337 -4336 242 0
4337 4336 -242 0
-4338 4337 243 0
-4338 -4337 -243 0
4338 -4337 243 0
4338 4337 -243 0
-4339 4338 244 0
-4339 -4338 -244 0
4339 -4338 244 0
4339 4338 -244 0
-4340 4339 249 0
-4340 -4339 -249 0
4340 -4339 249 0
4340 4339 -249 0
-4341 4340 251 0
-4341 -4340 -251 0
4341 -4340 251 0
4341 4340 -251 0
-4342 4341 254 0
-4342 -4341 -254 0
4342 -4341 254 0
4342 4341 -254 0
-4343 4342 258 0
-4343 -4342 -258 0
4343 -4342 258 0
4343 4342 -258 0
-4344 4343 259 0
-4344 -4343 -259 0
4344 -4343 259 0
4344 4343 -259 0
-4345 4344 262 0
-4345 -4344 -262 0
4345 -4344 262 0
4345 4344 -262 0
-4346 4345 263 0
-4346 -4345 -263 0
4346 -4345 263 0
4346 4345 -263 0
-4347 4346 264 0
-4347 -4346 -264 0
4347 -4346 264 0
4347 4346 -264 0
-4348 4347 265 0
-4348 -4347 -265 0
4348 -4347 265 0
4348 4347 -265 0
-4349 4348 267 0
-4349 -4348 -267 0
4349 -4348 267 0
4349 4348 -267 0
-4350 4349 270 0
-4350 -4349 -270 0
4350 -4349 270 0
4350 4349 -270 0
-4351 4350 272 0
-4351 -4350 -272 0
4351 -4350 272 0
4351 4350 -272 0
-4352 4351 273 0
-4352 -4351 -273 0
4352 -4351 273 0
4352 4351 -273 0
-4353 4352 274 0
-4353 -4352 -274 0
4353 -4352 274 0
4353 4352 -274 0
-4354 4353 275 0
-4354 -4353 -275 0
4354 -4353 275 0
4354 4353 -275 0
-4355 4354 276 0
-4355 -4354 -276 0
4355 -4354 276 0
4355 4354 -276 0
-4356 4355 280 0
-4356 -4355 -280 0
4356 -4355 280 0
4356 4355 -280 0
-4357 4356 284 0
-4357 -4356 -284 0
4357 -4356 284 0
4357 4356 -284 0
-4358 4357 285 0
-4358 -4357 -285 0
4358 -4357 285 0
4358 4357 -285 0
-4358 0
-4359 83 85 0
-4359 -83 -85 0
4359 -83 85 0
4359 83 -85 0
-4360 4359 86 0
-4360 -4359 -86 0
4360 -4359 86 0
4360 4359 -86 0
-4361 4360 89 0
-4361 -4360 -89 0
4361 -4360 89 0
4361 4360 -89 0
-4362 4361 91 0
-4362 -4361 -91 0
4362 -4361 91 0
4362 4361 -91 0
-4363 4362 94 0
-4363 -4362 -94 0
4363 -4362 94 0
4363 4362 -94 0
-4364 4363 97 0
-4364 -4363 -97 0
4364 -4363 97 0
4364 4363 -97 0
-4365 4364 100 0
-4365 -4364 -100 0
4365 -4364 100 0
4365 4364 -100 0
-4366 4365 101 0
-4366 -4365 -101 0
4366 -4365 101 0
4366 4365 -101 0
-4367 4366 104 0
-4367 -4366 -104 0
4367 -4366 104 0
4367 4366 -104 0
-4368 4367 105 0
-4368 -4367 -105 0
4368 -4367 105 0
4368 4367 -105 0
-4369 4368 106 0
-4369 -4368 -106 0
4369 -4368 106 0
4369 4368 -106 0
-4370 4369 107 0
-4370 -4369 -107 0
4370 -4369 107 0
4370 4369 -107 0
-4371 4370 108 0
-4371 -4370 -108 0
4371 -4370 108 0
4371 4370 -108 0
-4372 4371 110 0
-4372 -4371 -110 0
4372 -4371 110 0
4372 4371 -110 0
-4373 4372 111 0
-4373 -4372 -111 0
4373 -4372 111 0
4373 4372 -111 0
-4374 4373 113 0
-4374 -4373 -113 0
4374 -4373 113 0
4374 4373 -113 0
-4375 4374 114 0
-4375 -4374 -114 0
4375 -4374 114 0
4375 4374 -114 0
-4376 4375 116 0
-4376 -4375 -116 0
4376 -4375 116 0
4376 4375 -116 0
-4377 4376 117 0
-4377 -4376 -117 0
4377 -4376 117 0
4377 4376 -117 0
-4378 4377 120 0
-4378 -4377 -120 0
4378 -4377 120 0
4378 4377 -120 0
-4379 4378 121 0
-4379 -4378 -121 0
4379 -4378 121 0
4379 4378 -121 0
-4380 4379 123 0
-4380 -4379 -123 0
4380 -4379 123 0
4380 4379 -123 0
-4381 4380 126 0
-4381 -4380 -126 0
4381 -4380 126 0
4381 4380 -126 0
-4382 4381 127 0
-4382 -4381 -127 0
4382 -4381 127 0
4382 4381 -127 0
-4383 4382 128 0
-4383 -4382 -128 0
4383 -4382 128 0
4383 4382 -128 0
-4384 4383 129 0
-4384 -4383 -129 0
4384 -4383 129 0
4384 4383 -129 0
-4385 4384 130 0
-4385 -4384 -130 0
4385 -4384 130 0
4385 4384 -130 0
-4386 4385 131 0
-4386 -4385 -131 0
4386 -4385 131 0
4386 4385 -131 0
-4387 4386 132 0
-4387 -4386 -132 0
4387 -4386 132 0
4387 4386 -132 0
-4388 4387 133 0
-4388 -4387 -133 0
4388 -4387 133 0
4388 4387 -133 0
-4389 4388 134 0
-4389 -4388 -134 0
4389 -4388 134 0
4389 4388 -134 0
-4390 4389 135 0
-4390 -4389 -135 0
4390 -4389 135 0
4390 4389 -135 0
-4391 4390 136 0
-4391 -4390 -136 0
4391 -4390 136 0
4391 4390 -136 0
-4392 4391 138 0
-4392 -4391 -138 0
4392 -4391 138 0
4392 4391 -138 0
-4393 4392 142 0
-4393 -4392 -142 0
4393 -4392 142 0
4393 4392 -142 0
-4394 4393 217 0
-4394 -4393 -217 0
4394 -4393 217 0
4394 4393 -217 0
-4395 4394 221 0
-4395 -4394 -221 0
4395 -4394 221 0
4395 4394 -221 0
-4396 4395 225 0
-4396 -4395 -225 0
4396 -4395 225 0
4396 4395 -225 0
-4397 4396 226 0
-4397 -4396 -226 0
4397 -4396 226 0
4397 4396 -226 0
-4398 4397 227 0
-4398 -4397 -227 0
4398 -4397 227 0
4398 4397 -227 0
-4399 4398 228 0
-4399 -4398 -228 0
4399 -4398 228 0
4399 4398 -228 0
-4400 4399 229 0
-4400 -4399 -229 0
4400 -4399 229 0
4400 4399 -229 0
-4401 4400 230 0
-4401 -4400 -230 0
4401 -4400 230 0
4401 4400 -230 0
-4402 4401 231 0
-4402 -4401 -231 0
4402 -4401 231 0
4402 4401 -231 0
-4403 4402 234 0
-4403 -4402 -234 0
4403 -4402 234 0
4403 4402 -234 0
-4404 4403 236 0
-4404 -4403 -236 0
4404 -4403 236 0
4404 4403 -236 0
-4405 4404 238 0
-4405 -4404 -238 0
4405 -4404 238 0
4405 4404 -238 0
-4406 4405 241 0
-4406 -4405 -241 0
4406 -4405 241 0
4406 4405 -241 0
-4407 4406 245 0
-4407 -4406 -245 0
4407 -4406 245 0
4407 4406 -245 0
-4408 4407 249 0
-4408 -4407 -249 0
4408 -4407 249 0
4408 4407 -249 0
-4409 4408 250 0
-4409 -4408 -250 0
4409 -4408 250 0
4409 4408 -250 0
-4410 4409 251 0
-4410 -4409 -251 0
4410 -4409 251 0
4410 4409 -251 0
-4411 4410 252 0
-4411 -4410 -252 0
4411 -4410 252 0
4411 4410 -252 0
-4412 4411 253 0
-4412 -4411 -253 0
4412 -4411 253 0
4412 4411 -253 0
-4413 4412 254 0
-4413 -4412 -254 0
4413 -4412 254 0
4413 4412 -254 0
-4414 4413 255 0
-4414 -4413 -255 0
4414 -4413 255 0
4414 4413 -255 0
-4415 4414 258 0
-4415 -4414 -258 0
4415 -4414 258 0
4415 4414 -258 0
-4416 4415 260 0
-4416 -4415 -260 0
4416 -4415 260 0
4416 4415 -260 0
-4417 4416 262 0
-4417 -4416 -262 0
4417 -4416 262 0
4417 4416 -262 0
-4418 4417 265 0
-4418 -4417 -265 0
4418 -4417 265 0
4418 4417 -265 0
-4419 4418 269 0
-4419 -4418 -269 0
4419 -4418 269 0
4419 4418 -269 0
-4420 4419 273 0
-4420 -4419 -273 0
4420 -4419 273 0
4420 4419 -273 0
-4421 4420 274 0
-4421 -4420 -274 0
4421 -4420 274 0
4421 4420 -274 0
-4422 4421 275 0
-4422 -4421 -275 0
4422 -4421 275 0
4422 4421 -275 0
-4423 4422 276 0
-4423 -4422 -276 0
4423 -4422 276 0
4423 4422 -276 0
-4424 4423 277 0
-4424 -4423 -277 0
4424 -4423 277 0
4424 4423 -277 0
-4425 4424 278 0
-4425 -4424 -278 0
4425 -4424 278 0
4425 4424 -278 0
-4426 4425 279 0
-4426 -4425 -279 0
4426 -4425 279 0
4426 4425 -279 0
-4427 4426 282 0
-4427 -4426 -282 0
4427 -4426 282 0
4427 4426 -282 0
-4428 4427 284 0
-4428 -4427 -284 0
4428 -4427 284 0
4428 4427 -284 0
-4429 4428 286 0
-4429 -4428 -286 0
4429 -4428 286 0
4429 4428 -286 0
-4429 0
-4430 84 89 0
-4430 -84 -89 0
4430 -84 89 0
4430 84 -89 0
-4431 4430 91 0
-4431 -4430 -91 0
4431 -4430 91 0
4431 4430 -91 0
-4432 4431 92 0
-4432 -4431 -92 0
4432 -4431 92 0
4432 4431 -92 0
-4433 4432 93 0
-4433 -4432 -93 0
4433 -4432 93 0
4433 4432 -93 0
-4434 4433 94 0
-4434 -4433 -94 0
4434 -4433 94 0
4434 4433 -94 0
-4435 4434 95 0
-4435 -4434 -95 0
4435 -4434 95 0
4435 4434 -95 0
-4436 4435 96 0
-4436 -4435 -96 0
4436 -4435 96 0
4436 4435 -96 0
-4437 4436 97 0
-4437 -4436 -97 0
4437 -4436 97 0
4437 4436 -97 0
-4438 4437 98 0
-4438 -4437 -98 0
4438 -4437 98 0
4438 4437 -98 0
-4439 4438 99 0
-4439 -4438 -99 0
4439 -4438 99 0
4439 4438 -99 0
-4440 4439 100 0
-4440 -4439 -100 0
4440 -4439 100 0
4440 4439 -100 0
-4441 4440 101 0
-4441 -4440 -101 0
4441 -4440 101 0
4441 4440 -101 0
-4442 4441 104 0
-4442 -4441 -104 0
4442 -4441 104 0
4442 4441 -104 0
-4443 4442 105 0
-4443 -4442 -105 0
4443 -4442 105 0
4443 4442 -105 0
-4444 4443 108 0
-4444 -4443 -108 0
4444 -4443 108 0
4444 4443 -108 0
-4445 4444 109 0
-4445 -4444 -109 0
4445 -4444 109 0
4445 4444 -109 0
-4446 4445 111 0
-4446 -4445 -111 0
4446 -4445 111 0
4446 4445 -111 0
-4447 4446 112 0
-4447 -4446 -112 0
4447 -4446 112 0
4447 4446 -112 0
-4448 4447 114 0
-4448 -4447 -114 0
4448 -4447 114 0
4448 4447 -114 0
-4449 4448 115 0
-4449 -4448 -115 0
4449 -4448 115 0
4449 4448 -115 0
-4450 4449 117 0
-4450 -4449 -117 0
4450 -4449 117 0
4450 4449 -117 0
-4451 4450 118 0
-4451 -4450 -118 0
4451 -4450 118 0
4451 4450 -118 0
-4452 4451 121 0
-4452 -4451 -121 0
4452 -4451 121 0
4452 4451 -121 0
-4453 4452 123 0
-4453 -4452 -123 0
4453 -4452 123 0
4453 4452 -123 0
-4454 4453 124 0
-4454 -4453 -124 0
4454 -4453 124 0
4454 4453 -124 0
-4455 4454 125 0
-4455 -4454 -125 0
4455 -4454 125 0
4455 4454 -125 0
-4456 4455 126 0
-4456 -4455 -126 0
4456 -4455 126 0
4456 4455 -126 0
-4457 4456 128 0
-4457 -4456 -128 0
4457 -4456 128 0
4457 4456 -128 0
-4458 4457 131 0
-4458 -4457 -131 0
4458 -4457 131 0
4458 4457 -131 0
-4459 4458 134 0
-4459 -4458 -134 0
4459 -4458 134 0
4459 4458 -134 0
-4460 4459 137 0
-4460 -4459 -137 0
4460 -4459 137 0
4460 4459 -137 0
-4461 4460 138 0
-4461 -4460 -138 0
4461 -4460 138 0
4461 4460 -138 0
-4462 4461 139 0
-4462 -4461 -139 0
4462 -4461 139 0
4462 4461 -139 0
-4463 4462 140 0
-4463 -4462 -140 0
4463 -4462 140 0
4463 4462 -140 0
-4464 4463 142 0
-4464 -4463 -142 0
4464 -4463 142 0
4464 4463 -142 0
-4465 4464 218 0
-4465 -4464 -218 0
4465 -4464 218 0
4465 4464 -218 0
-4466 4465 222 0
-4466 -4465 -222 0
4466 -4465 222 0
4466 4465 -222 0
-4467 4466 225 0
-4467 -4466 -225 0
4467 -4466 225 0
4467 4466 -225 0
-4468 4467 227 0
-4468 -4467 -227 0
4468 -4467 227 0
4468 4467 -227 0
-4469 4468 229 0
-4469 -4468 -229 0
4469 -4468 229 0
4469 4468 -229 0
-4470 4469 230 0
-4470 -4469 -230 0
4470 -4469 230 0
4470 4469 -230 0
-4471 4470 231 0
-4471 -4470 -231 0
4471 -4470 231 0
4471 4470 -231 0
-4472 4471 232 0
-4472 -4471 -232 0
4472 -4471 232 0
4472 4471 -232 0
-4473 4472 235 0
-4473 -4472 -235 0
4473 -4472 235 0
4473 4472 -235 0
-4474 4473 238 0
-4474 -4473 -238 0
4474 -4473 238 0
4474 4473 -238 0
-4475 4474 239 0
-4475 -4474 -239 0
4475 -4474 239 0
4475 4474 -239 0
-4476 4475 240 0
-4476 -4475 -240 0
4476 -4475 240 0
4476 4475 -240 0
-4477 4476 242 0
-4477 -4476 -242 0
4477 -4476 242 0
4477 4476 -242 0
-4478 4477 246 0
-4478 -4477 -246 0
4478 -4477 246 0
4478 4477 -246 0
-4479 4478 249 0
-4479 -4478 -249 0
4479 -4478 249 0
4479 4478 -249 0
-4480 4479 251 0
-4480 -4479 -251 0
4480 -4479 251 0
4480 4479 -251 0
-4481 4480 253 0
-4481 -4480 -253 0
4481 -4480 253 0
4481 4480 -253 0
-4482 4481 254 0
-4482 -4481 -254 0
4482 -4481 254 0
4482 4481 -254 0
-4483 4482 255 0
-4483 -4482 -255 0
4483 -4482 255 0
4483 4482 -255 0
-4484 4483 256 0
-4484 -4483 -256 0
4484 -4483 256 0
4484 4483 -256 0
-4485 4484 259 0
-4485 -4484 -259 0
4485 -4484 259 0
4485 4484 -259 0
-4486 4485 262 0
-4486 -4485 -262 0
4486 -4485 262 0
4486 4485 -262 0
-4487 4486 263 0
-4487 -4486 -263 0
4487 -4486 263 0
4487 4486 -263 0
-4488 4487 264 0
-4488 -4487 -264 0
4488 -4487 264 0
4488 4487 -264 0
-4489 4488 266 0
-4489 -4488 -266 0
4489 -4488 266 0
4489 4488 -266 0
-4490 4489 270 0
-4490 -4489 -270 0
4490 -4489 270 0
4490 4489 -270 0
-4491 4490 273 0
-4491 -4490 -273 0
4491 -4490 273 0
4491 4490 -273 0
-4492 4491 275 0
-4492 -4491 -275 0
4492 -4491 275 0
4492 4491 -275 0
-4493 4492 277 0
-4493 -4492 -277 0
4493 -4492 277 0
4493 4492 -277 0
-4494 4493 278 0
-4494 -4493 -278 0
4494 -4493 278 0
4494 4493 -278 0
-4495 4494 279 0
-4495 -4494 -279 0
4495 -4494 279 0
4495 4494 -279 0
-4496 4495 280 0
-4496 -4495 -280 0
4496 -4495 280 0
4496 4495 -280 0
-4497 4496 283 0
-4497 -4496 -283 0
4497 -4496 283 0
4497 4496 -283 0
-4498 4497 286 0
-4498 -4497 -286 0
4498 -4497 286 0
4498 4497 -286 0
-4499 4498 287 0
-4499 -4498 -287 0
4499 -4498 287 0
4499 4498 -287 0
-4500 4499 288 0
-4500 -4499 -288 0
4500 -4499 288 0
4500 4499 -288 0
-4500 0
-4501 84 85 0
-4501 -84 -85 0
4501 -84 85 0
4501 84 -85 0
-4502 4501 86 0
-4502 -4501 -86 0
4502 -4501 86 0
4502 4501 -86 0
-4503 4502 88 0
-4503 -4502 -88 0
4503 -4502 88 0
4503 4502 -88 0
-4504 4503 91 0
-4504 -4503 -91 0
4504 -4503 91 0
4504 4503 -91 0
-4505 4504 94 0
-4505 -4504 -94 0
4505 -4504 94 0
4505 4504 -94 0
-4506 4505 97 0
-4506 -4505 -97 0
4506 -4505 97 0
4506 4505 -97 0
-4507 4506 100 0
-4507 -4506 -100 0
4507 -4506 100 0
4507 4506 -100 0
-4508 4507 102 0
-4508 -4507 -102 0
4508 -4507 102 0
4508 4507 -102 0
-4509 4508 103 0
-4509 -4508 -103 0
4509 -4508 103 0
4509 4508 -103 0
-4510 4509 104 0
-4510 -4509 -104 0
4510 -4509 104 0
4510 4509 -104 0
-4511 4510 106 0
-4511 -4510 -106 0
4511 -4510 106 0
4511 4510 -106 0
-4512 4511 109 0
-4512 -4511 -109 0
4512 -4511 109 0
4512 4511 -109 0
-4513 4512 111 0
-4513 -4512 -111 0
4513 -4512 111 0
4513 4512 -111 0
-4514 4513 112 0
-4514 -4513 -112 0
4514 -4513 112 0
4514 4513 -112 0
-4515 4514 114 0
-4515 -4514 -114 0
4515 -4514 114 0
4515 4514 -114 0
-4516 4515 115 0
-4516 -4515 -115 0
4516 -4515 115 0
4516 4515 -115 0
-4517 4516 117 0
-4517 -4516 -117 0
4517 -4516 117 0
4517 4516 -117 0
-4518 4517 118 0
-4518 -4517 -118 0
4518 -4517 118 0
4518 4517 -118 0
-4519 4518 122 0
-4519 -4518 -122 0
4519 -4518 122 0
4519 4518 -122 0
-4520 4519 123 0
-4520 -4519 -123 0
4520 -4519 123 0
4520 4519 -123 0
-4521 4520 126 0
-4521 -4520 -126 0
4521 -4520 126 0
4521 4520 -126 0
-4522 4521 129 0
-4522 -4521 -129 0
4522 -4521 129 0
4522 4521 -129 0
-4523 4522 132 0
-4523 -4522 -132 0
4523 -4522 132 0
4523 4522 -132 0
-4524 4523 135 0
-4524 -4523 -135 0
4524 -4523 135 0
4524 4523 -135 0
-4525 4524 140 0
-4525 -4524 -140 0
4525 -4524 140 0
4525 4524 -140 0
-4526 4525 141 0
-4526 -4525 -141 0
4526 -4525 141 0
4526 4525 -141 0
-4527 4526 144 0
-4527 -4526 -144 0
4527 -4526 144 0
4527 4526 -144 0
-4528 4527 219 0
-4528 -4527 -219 0
4528 -4527 219 0
4528 4527 -219 0
-4529 4528 221 0
-4529 -4528 -221 0
4529 -4528 221 0
4529 4528 -221 0
-4530 4529 225 0
-4530 -4529 -225 0
4530 -4529 225 0
4530 4529 -225 0
-4531 4530 227 0
-4531 -4530 -227 0
4531 -4530 227 0
4531 4530 -227 0
-4532 4531 229 0
-4532 -4531 -229 0
4532 -4531 229 0
4532 4531 -229 0
-4533 4532 232 0
-4533 -4532 -232 0
4533 -4532 232 0
4533 4532 -232 0
-4534 4533 233 0
-4534 -4533 -233 0
4534 -4533 233 0
4534 4533 -233 0
-4535 4534 234 0
-4535 -4534 -234 0
4535 -4534 234 0
4535 4534 -234 0
-4536 4535 235 0
-4536 -4535 -235 0
4536 -4535 235 0
4536 4535 -235 0
-4537 4536 238 0
-4537 -4536 -238 0
4537 -4536 238 0
4537 4536 -238 0
-4538 4537 239 0
-4538 -4537 -239 0
4538 -4537 239 0
4538 4537 -239 0
-4539 4538 240 0
-4539 -4538 -240 0
4539 -4538 240 0
4539 4538 -240 0
-4540 4539 243 0
-4540 -4539 -243 0
4540 -4539 243 0
4540 4539 -243 0
-4541 4540 245 0
-4541 -4540 -245 0
4541 -4540 245 0
4541 4540 -245 0
-4542 4541 249 0
-4542 -4541 -249 0
4542 -4541 249 0
4542 4541 -249 0
-4543 4542 251 0
-4543 -4542 -251 0
4543 -4542 251 0
4543 4542 -251 0
-4544 4543 253 0
-4544 -4543 -253 0
4544 -4543 253 0
4544 4543 -253 0
-4545 4544 256 0
-4545 -4544 -256 0
4545 -4544 256 0
4545 4544 -256 0
-4546 4545 257 0
-4546 -4545 -257 0
4546 -4545 257 0
4546 4545 -257 0
-4547 4546 258 0
-4547 -4546 -258 0
4547 -4546 258 0
4547 4546 -258 0
-4548 4547 259 0
-4548 -4547 -259 0
4548 -4547 259 0
4548 4547 -259 0
-4549 4548 262 0
-4549 -4548 -262 0
4549 -4548 262 0
4549 4548 -262 0
-4550 4549 263 0
-4550 -4549 -263 0
4550 -4549 263 0
4550 4549 -263 0
-4551 4550 264 0
-4551 -4550 -264 0
4551 -4550 264 0
4551 4550 -264 0
-4552 4551 267 0
-4552 -4551 -267 0
4552 -4551 267 0
4552 4551 -267 0
-4553 4552 269 0
-4553 -4552 -269 0
4553 -4552 269 0
4553 4552 -269 0
-4554 4553 273 0
-4554 -4553 -273 0
4554 -4553 273 0
4554 4553 -273 0
-4555 4554 275 0
-4555 -4554 -275 0
4555 -4554 275 0
4555 4554 -275 0
-4556 4555 277 0
-4556 -4555 -277 0
4556 -4555 277 0
4556 4555 -277 0
-4557 4556 280 0
-4557 -4556 -280 0
4557 -4556 280 0
4557 4556 -280 0
-4558 4557 281 0
-4558 -4557 -281 0
4558 -4557 281 0
4558 4557 -281 0
-4559 4558 282 0
-4559 -4558 -282 0
4559 -4558 282 0
4559 4558 -282 0
-4560 4559 283 0
-4560 -4559 -283 0
4560 -4559 283 0
4560 4559 -283 0
-4561 4560 286 0
-4561 -4560 -286 0
4561 -4560 286 0
4561 4560 -286 0
-4562 4561 287 0
-4562 -4561 -287 0
4562 -4561 287 0
4562 4561 -287 0
-4563 4562 288 0
-4563 -4562 -288 0
4563 -4562 288 0
4563 4562 -288 0
-4563 0
-4564 83 84 0
-4564 -83 -84 0
4564 -83 84 0
4564 83 -84 0
-4565 4564 86 0
-4565 -4564 -86 0
4565 -4564 86 0
4565 4564 -86 0
-4566 4565 87 0
-4566 -4565 -87 0
4566 -4565 87 0
4566 4565 -87 0
-4567 4566 88 0
-4567 -4566 -88 0
4567 -4566 88 0
4567 4566 -88 0
-4568 4567 90 0
-4568 -4567 -90 0
4568 -4567 90 0
4568 4567 -90 0
-4569 4568 91 0
-4569 -4568 -91 0
4569 -4568 91 0
4569 4568 -91 0
-4570 4569 93 0
-4570 -4569 -93 0
4570 -4569 93 0
4570 4569 -93 0
-4571 4570 94 0
-4571 -4570 -94 0
4571 -4570 94 0
4571 4570 -94 0
-4572 4571 96 0
-4572 -4571 -96 0
4572 -4571 96 0
4572 4571 -96 0
-4573 4572 97 0
-4573 -4572 -97 0
4573 -4572 97 0
4573 4572 -97 0
-4574 4573 99 0
-4574 -4573 -99 0
4574 -4573 99 0
4574 4573 -99 0
-4575 4574 100 0
-4575 -4574 -100 0
4575 -4574 100 0
4575 4574 -100 0
-4576 4575 101 0
-4576 -4575 -101 0
4576 -4575 101 0
4576 4575 -101 0
-4577 4576 104 0
-4577 -4576 -104 0
4577 -4576 104 0
4577 4576 -104 0
-4578 4577 105 0
-4578 -4577 -105 0
4578 -4577 105 0
4578 4577 -105 0
-4579 4578 106 0
-4579 -4578 -106 0
4579 -4578 106 0
4579 4578 -106 0
-4580 4579 108 0
-4580 -4579 -108 0
4580 -4579 108 0
4580 4579 -108 0
-4581 4580 109 0
-4581 -4580 -109 0
4581 -4580 109 0
4581 4580 -109 0
-4582 4581 110 0
-4582 -4581 -110 0
4582 -4581 110 0
4582 4581 -110 0
-4583 4582 112 0
-4583 -4582 -112 0
4583 -4582 112 0
4583 4582 -112 0
-4584 4583 113 0
-4584 -4583 -113 0
4584 -4583 113 0
4584 4583 -113 0
-4585 4584 115 0
-4585 -4584 -115 0
4585 -4584 115 0
4585 4584 -115 0
-4586 4585 116 0
-4586 -4585 -116 0
4586 -4585 116 0
4586 4585 -116 0
-4587 4586 118 0
-4587 -4586 -118 0
4587 -4586 118 0
4587 4586 -118 0
-4588 4587 120 0
-4588 -4587 -120 0
4588 -4587 120 0
4588 4587 -120 0
-4589 4588 121 0
-4589 -4588 -121 0
4589 -4588 121 0
4589 4588 -121 0
-4590 4589 123 0
-4590 -4589 -123 0
4590 -4589 123 0
4590 4589 -123 0
-4591 4590 125 0
-4591 -4590 -125 0
4591 -4590 125 0
4591 4590 -125 0
-4592 4591 126 0
-4592 -4591 -126 0
4592 -4591 126 0
4592 4591 -126 0
-4593 4592 128 0
-4593 -4592 -128 0
4593 -4592 128 0
4593 4592 -128 0
-4594 4593 129 0
-4594 -4593 -129 0
4594 -4593 129 0
4594 4593 -129 0
-4595 4594 131 0
-4595 -4594 -131 0
4595 -4594 131 0
4595 4594 -131 0
-4596 4595 132 0
-4596 -4595 -132 0
4596 -4595 132 0
4596 4595 -132 0
-4597 4596 134 0
-4597 -4596 -134 0
4597 -4596 134 0
4597 4596 -134 0
-4598 4597 135 0
-4598 -4597 -135 0
4598 -4597 135 0
4598 4597 -135 0
-4599 4598 139 0
-4599 -4598 -139 0
4599 -4598 139 0
4599 4598 -139 0
-4600 4599 141 0
-4600 -4599 -141 0
4600 -4599 141 0
4600 4599 -141 0
-4601 4600 143 0
-4601 -4600 -143 0
4601 -4600 143 0
4601 4600 -143 0
-4602 4601 144 0
-4602 -4601 -144 0
4602 -4601 144 0
4602 4601 -144 0
-4603 4602 220 0
-4603 -4602 -220 0
4603 -4602 220 0
4603 4602 -220 0
-4604 4603 222 0
-4604 -4603 -222 0
4604 -4603 222 0
4604 4603 -222 0
-4605 4604 226 0
-4605 -4604 -226 0
4605 -4604 226 0
4605 4604 -226 0
-4606 4605 228 0
-4606 -4605 -228 0
4606 -4605 228 0
4606 4605 -228 0
-4607 4606 229 0
-4607 -4606 -229 0
4607 -4606 229 0
4607 4606 -229 0
-4608 4607 230 0
-4608 -4607 -230 0
4608 -4607 230 0
4608 4607 -230 0
-4609 4608 233 0
-4609 -4608 -233 0
4609 -4608 233 0
4609 4608 -233 0
-4610 4609 234 0
-4610 -4609 -234 0
4610 -4609 234 0
4610 4609 -234 0
-4611 4610 235 0
-4611 -4610 -235 0
4611 -4610 235 0
4611 4610 -235 0
-4612 4611 236 0
-4612 -4611 -236 0
4612 -4611 236 0
4612 4611 -236 0
-4613 4612 239 0
-4613 -4612 -239 0
4613 -4612 239 0
4613 4612 -239 0
-4614 4613 240 0
-4614 -4613 -240 0
4614 -4613 240 0
4614 4613 -240 0
-4615 4614 244 0
-4615 -4614 -244 0
4615 -4614 244 0
4615 4614 -244 0
-4616 4615 246 0
-4616 -4615 -246 0
4616 -4615 246 0
4616 4615 -246 0
-4617 4616 250 0
-4617 -4616 -250 0
4617 -4616 250 0
4617 4616 -250 0
-4618 4617 252 0
-4618 -4617 -252 0
4618 -4617 252 0
4618 4617 -252 0
-4619 4618 253 0
-4619 -4618 -253 0
4619 -4618 253 0
4619 4618 -253 0
-4620 4619 254 0
-4620 -4619 -254 0
4620 -4619 254 0
4620 4619 -254 0
-4621 4620 257 0
-4621 -4620 -257 0
4621 -4620 257 0
4621 4620 -257 0
-4622 4621 258 0
-4622 -4621 -258 0
4622 -4621 258 0
4622 4621 -258 0
-4623 4622 259 0
-4623 -4622 -259 0
4623 -4622 259 0
4623 4622 -259 0
-4624 4623 260 0
-4624 -4623 -260 0
4624 -4623 260 0
4624 4623 -260 0
-4625 4624 263 0
-4625 -4624 -263 0
4625 -4624 263 0
4625 4624 -263 0
-4626 4625 264 0
-4626 -4625 -264 0
4626 -4625 264 0
4626 4625 -264 0
-4627 4626 268 0
-4627 -4626 -268 0
4627 -4626 268 0
4627 4626 -268 0
-4628 4627 270 0
-4628 -4627 -270 0
4628 -4627 270 0
4628 4627 -270 0
-4629 4628 274 0
-4629 -4628 -274 0
4629 -4628 274 0
4629 4628 -274 0
-4630 4629 276 0
-4630 -4629 -276 0
4630 -4629 276 0
4630 4629 -276 0
-4631 4630 277 0
-4631 -4630 -277 0
4631 -4630 277 0
4631 4630 -277 0
-4632 4631 278 0
-4632 -4631 -278 0
4632 -4631 278 0
4632 4631 -278 0
-4633 4632 281 0
-4633 -4632 -281 0
4633 -4632 281 0
4633 4632 -281 0
-4634 4633 282 0
-4634 -4633 -282 0
4634 -4633 282 0
4634 4633 -282 0
-4635 4634 283 0
-4635 -4634 -283 0
4635 -4634 283 0
4635 4634 -283 0
-4636 4635 284 0
-4636 -4635 -284 0
4636 -4635 284 0
4636 4635 -284 0
-4637 4636 287 0
-4637 -4636 -287 0
4637 -4636 287 0
4637 4636 -287 0
-4638 4637 288 0
-4638 -4637 -288 0
4638 -4637 288 0
4638 4637 -288 0
-4638 0
-4639 86 87 0
-4639 -86 -87 0
4639 -86 87 0
4639 86 -87 0
-4640 4639 89 0
-4640 -4639 -89 0
4640 -4639 89 0
4640 4639 -89 0
-4641 4640 90 0
-4641 -4640 -90 0
4641 -4640 90 0
4641 4640 -90 0
-4642 4641 91 0
-4642 -4641 -91 0
4642 -4641 91 0
4642 4641 -91 0
-4643 4642 93 0
-4643 -4642 -93 0
4643 -4642 93 0
4643 4642 -93 0
-4644 4643 94 0
-4644 -4643 -94 0
4644 -4643 94 0
4644 4643 -94 0
-4645 4644 96 0
-4645 -4644 -96 0
4645 -4644 96 0
4645 4644 -96 0
-4646 4645 97 0
-4646 -4645 -97 0
4646 -4645 97 0
4646 4645 -97 0
-4647 4646 99 0
-4647 -4646 -99 0
4647 -4646 99 0
4647 4646 -99 0
-4648 4647 100 0
-4648 -4647 -100 0
4648 -4647 100 0
4648 4647 -100 0
-4649 4648 102 0
-4649 -4648 -102 0
4649 -4648 102 0
4649 4648 -102 0
-4650 4649 103 0
-4650 -4649 -103 0
4650 -4649 103 0
4650 4649 -103 0
-4651 4650 104 0
-4651 -4650 -104 0
4651 -4650 104 0
4651 4650 -104 0
-4652 4651 106 0
-4652 -4651 -106 0
4652 -4651 106 0
4652 4651 -106 0
-4653 4652 107 0
-4653 -4652 -107 0
4653 -4652 107 0
4653 4652 -107 0
-4654 4653 122 0
-4654 -4653 -122 0
4654 -4653 122 0
4654 4653 -122 0
-4655 4654 123 0
-4655 -4654 -123 0
4655 -4654 123 0
4655 4654 -123 0
-4656 4655 125 0
-4656 -4655 -125 0
4656 -4655 125 0
4656 4655 -125 0
-4657 4656 126 0
-4657 -4656 -126 0
4657 -4656 126 0
4657 4656 -126 0
-4658 4657 127 0
-4658 -4657 -127 0
4658 -4657 127 0
4658 4657 -127 0
-4659 4658 129 0
-4659 -4658 -129 0
4659 -4658 129 0
4659 4658 -129 0
-4660 4659 130 0
-4660 -4659 -130 0
4660 -4659 130 0
4660 4659 -130 0
-4661 4660 132 0
-4661 -4660 -132 0
4661 -4660 132 0
4661 4660 -132 0
-4662 4661 133 0
-4662 -4661 -133 0
4662 -4661 133 0
4662 4661 -133 0
-4663 4662 135 0
-4663 -4662 -135 0
4663 -4662 135 0
4663 4662 -135 0
-4664 4663 136 0
-4664 -4663 -136 0
4664 -4663 136 0
4664 4663 -136 0
-4665 4664 138 0
-4665 -4664 -138 0
4665 -4664 138 0
4665 4664 -138 0
-4666 4665 139 0
-4666 -4665 -139 0
4666 -4665 139 0
4666 4665 -139 0
-4667 4666 140 0
-4667 -4666 -140 0
4667 -4666 140 0
4667 4666 -140 0
-4668 4667 142 0
-4668 -4667 -142 0
4668 -4667 142 0
4668 4667 -142 0
-4669 4668 143 0
-4669 -4668 -143 0
4669 -4668 143 0
4669 4668 -143 0
-4670 4669 223 0
-4670 -4669 -223 0
4670 -4669 223 0
4670 4669 -223 0
-4671 4670 225 0
-4671 -4670 -225 0
4671 -4670 225 0
4671 4670 -225 0
-4672 4671 226 0
-4672 -4671 -226 0
4672 -4671 226 0
4672 4671 -226 0
-4673 4672 228 0
-4673 -4672 -228 0
4673 -4672 228 0
4673 4672 -228 0
-4674 4673 235 0
-4674 -4673 -235 0
4674 -4673 235 0
4674 4673 -235 0
-4675 4674 237 0
-4675 -4674 -237 0
4675 -4674 237 0
4675 4674 -237 0
-4676 4675 238 0
-4676 -4675 -238 0
4676 -4675 238 0
4676 4675 -238 0
-4677 4676 240 0
-4677 -4676 -240 0
4677 -4676 240 0
4677 4676 -240 0
-4678 4677 247 0
-4678 -4677 -247 0
4678 -4677 247 0
4678 4677 -247 0
-4679 4678 249 0
-4679 -4678 -249 0
4679 -4678 249 0
4679 4678 -249 0
-4680 4679 250 0
-4680 -4679 -250 0
4680 -4679 250 0
4680 4679 -250 0
-4681 4680 252 0
-4681 -4680 -252 0
4681 -4680 252 0
4681 4680 -252 0
-4682 4681 259 0
-4682 -4681 -259 0
4682 -4681 259 0
4682 4681 -259 0
-4683 4682 261 0
-4683 -4682 -261 0
4683 -4682 261 0
4683 4682 -261 0
-4684 4683 262 0
-4684 -4683 -262 0
4684 -4683 262 0
4684 4683 -262 0
-4685 4684 264 0
-4685 -4684 -264 0
4685 -4684 264 0
4685 4684 -264 0
-4686 4685 271 0
-4686 -4685 -271 0
4686 -4685 271 0
4686 4685 -271 0
-4687 4686 273 0
-4687 -4686 -273 0
4687 -4686 273 0
4687 4686 -273 0
-4688 4687 274 0
-4688 -4687 -274 0
4688 -4687 274 0
4688 4687 -274 0
-4689 4688 276 0
-4689 -4688 -276 0
4689 -4688 276 0
4689 4688 -276 0
-4690 4689 283 0
-4690 -4689 -283 0
4690 -4689 283 0
4690 4689 -283 0
-4691 4690 285 0
-4691 -4690 -285 0
4691 -4690 285 0
4691 4690 -285 0
-4692 4691 286 0
-4692 -4691 -286 0
4692 -4691 286 0
4692 4691 -286 0
-4693 4692 288 0
-4693 -4692 -288 0
4693 -4692 288 0
4693 4692 -288 0
-4693 0
-4694 85 86 0
-4694 -85 -86 0
4694 -85 86 0
4694 85 -86 0
-4695 4694 88 0
-4695 -4694 -88 0
4695 -4694 88 0
4695 4694 -88 0
-4696 4695 89 0
-4696 -4695 -89 0
4696 -4695 89 0
4696 4695 -89 0
-4697 4696 92 0
-4697 -4696 -92 0
4697 -4696 92 0
4697 4696 -92 0
-4698 4697 93 0
-4698 -4697 -93 0
4698 -4697 93 0
4698 4697 -93 0
-4699 4698 95 0
-4699 -4698 -95 0
4699 -4698 95 0
4699 4698 -95 0
-4700 4699 96 0
-4700 -4699 -96 0
4700 -4699 96 0
4700 4699 -96 0
-4701 4700 98 0
-4701 -4700 -98 0
4701 -4700 98 0
4701 4700 -98 0
-4702 4701 99 0
-4702 -4701 -99 0
4702 -4701 99 0
4702 4701 -99 0
-4703 4702 101 0
-4703 -4702 -101 0
4703 -4702 101 0
4703 4702 -101 0
-4704 4703 102 0
-4704 -4703 -102 0
4704 -4703 102 0
4704 4703 -102 0
-4705 4704 103 0
-4705 -4704 -103 0
4705 -4704 103 0
4705 4704 -103 0
-4706 4705 105 0
-4706 -4705 -105 0
4706 -4705 105 0
4706 4705 -105 0
-4707 4706 106 0
-4707 -4706 -106 0
4707 -4706 106 0
4707 4706 -106 0
-4708 4707 108 0
-4708 -4707 -108 0
4708 -4707 108 0
4708 4707 -108 0
-4709 4708 121 0
-4709 -4708 -121 0
4709 -4708 121 0
4709 4708 -121 0
-4710 4709 122 0
-4710 -4709 -122 0
4710 -4709 122 0
4710 4709 -122 0
-4711 4710 124 0
-4711 -4710 -124 0
4711 -4710 124 0
4711 4710 -124 0
-4712 4711 125 0
-4712 -4711 -125 0
4712 -4711 125 0
4712 4711 -125 0
-4713 4712 128 0
-4713 -4712 -128 0
4713 -4712 128 0
4713 4712 -128 0
-4714 4713 129 0
-4714 -4713 -129 0
4714 -4713 129 0
4714 4713 -129 0
-4715 4714 131 0
-4715 -4714 -131 0
4715 -4714 131 0
4715 4714 -131 0
-4716 4715 132 0
-4716 -4715 -132 0
4716 -4715 132 0
4716 4715 -132 0
-4717 4716 134 0
-4717 -4716 -134 0
4717 -4716 134 0
4717 4716 -134 0
-4718 4717 135 0
-4718 -4717 -135 0
4718 -4717 135 0
4718 4717 -135 0
-4719 4718 137 0
-4719 -4718 -137 0
4719 -4718 137 0
4719 4718 -137 0
-4720 4719 138 0
-4720 -4719 -138 0
4720 -4719 138 0
4720 4719 -138 0
-4721 4720 139 0
-4721 -4720 -139 0
4721 -4720 139 0
4721 4720 -139 0
-4722 4721 141 0
-4722 -4721 -141 0
4722 -4721 141 0
4722 4721 -141 0
-4723 4722 142 0
-4723 -4722 -142 0
4723 -4722 142 0
4723 4722 -142 0
-4724 4723 144 0
-4724 -4723 -144 0
4724 -4723 144 0
4724 4723 -144 0
-4725 4724 224 0
-4725 -4724 -224 0
4725 -4724 224 0
4725 4724 -224 0
-4726 4725 225 0
-4726 -4725 -225 0
4726 -4725 225 0
4726 4725 -225 0
-4727 4726 227 0
-4727 -4726 -227 0
4727 -4726 227 0
4727 4726 -227 0
-4728 4727 228 0
-4728 -4727 -228 0
4728 -4727 228 0
4728 4727 -228 0
-4729 4728 236 0
-4729 -4728 -236 0
4729 -4728 236 0
4729 4728 -236 0
-4730 4729 237 0
-4730 -4729 -237 0
4730 -4729 237 0
4730 4729 -237 0
-4731 4730 239 0
-4731 -4730 -239 0
4731 -4730 239 0
4731 4730 -239 0
-4732 4731 240 0
-4732 -4731 -240 0
4732 -4731 240 0
4732 4731 -240 0
-4733 4732 248 0
-4733 -4732 -248 0
4733 -4732 248 0
4733 4732 -248 0
-4734 4733 249 0
-4734 -4733 -249 0
4734 -4733 249 0
4734 4733 -249 0
-4735 4734 251 0
-4735 -4734 -251 0
4735 -4734 251 0
4735 4734 -251 0
-4736 4735 252 0
-4736 -4735 -252 0
4736 -4735 252 0
4736 4735 -252 0
-4737 4736 260 0
-4737 -4736 -260 0
4737 -4736 260 0
4737 4736 -260 0
-4738 4737 261 0
-4738 -4737 -261 0
4738 -4737 261 0
4738 4737 -261 0
-4739 4738 263 0
-4739 -4738 -263 0
4739 -4738 263 0
4739 4738 -263 0
-4740 4739 264 0
-4740 -4739 -264 0
4740 -4739 264 0
4740 4739 -264 0
-4741 4740 272 0
-4741 -4740 -272 0
4741 -4740 272 0
4741 4740 -272 0
-4742 4741 273 0
-4742 -4741 -273 0
4742 -4741 273 0
4742 4741 -273 0
-4743 4742 275 0
-4743 -4742 -275 0
4743 -4742 275 0
4743 4742 -275 0
-4744 4743 276 0
-4744 -4743 -276 0
4744 -4743 276 0
4744 4743 -276 0
-4745 4744 284 0
-4745 -4744 -284 0
4745 -4744 284 0
4745 4744 -284 0
-4746 4745 285 0
-4746 -4745 -285 0
4746 -4745 285 0
4746 4745 -285 0
-4747 4746 287 0
-4747 -4746 -287 0
4747 -4746 287 0
4747 4746 -287 0
-4748 4747 288 0
-4748 -4747 -288 0
4748 -4747 288 0
4748 4747 -288 0
-4748 0
-4749 1 66 0
-4749 -1 -66 0
4749 -1 66 0
4749 1 -66 0
-4750 4749 71 0
-4750 -4749 -71 0
4750 -4749 71 0
4750 4749 -71 0
-4751 4750 115 0
-4751 -4750 -115 0
4751 -4750 115 0
4751 4750 -115 0
-4752 4751 116 0
-4752 -4751 -116 0
4752 -4751 116 0
4752 4751 -116 0
-4753 4752 129 0
-4753 -4752 -129 0
4753 -4752 129 0
4753 4752 -129 0
-4753 0
-4754 2 61 0
-4754 -2 -61 0
4754 -2 61 0
4754 2 -61 0
-4755 4754 72 0
-4755 -4754 -72 0
4755 -4754 72 0
4755 4754 -72 0
-4756 4755 116 0
-4756 -4755 -116 0
4756 -4755 116 0
4756 4755 -116 0
-4757 4756 117 0
-4757 -4756 -117 0
4757 -4756 117 0
4757 4756 -117 0
-4758 4757 130 0
-4758 -4757 -130 0
4758 -4757 130 0
4758 4757 -130 0
-4758 0
-4759 3 62 0
-4759 -3 -62 0
4759 -3 62 0
4759 3 -62 0
-4760 4759 67 0
-4760 -4759 -67 0
4760 -4759 67 0
4760 4759 -67 0
-4761 4760 117 0
-4761 -4760 -117 0
4761 -4760 117 0
4761 4760 -117 0
-4762 4761 118 0
-4762 -4761 -118 0
4762 -4761 118 0
4762 4761 -118 0
-4763 4762 131 0
-4763 -4762 -131 0
4763 -4762 131 0
4763 4762 -131 0
-4763 0
-4764 4 63 0
-4764 -4 -63 0
4764 -4 63 0
4764 4 -63 0
-4765 4764 68 0
-4765 -4764 -68 0
4765 -4764 68 0
4765 4764 -68 0
-4766 4765 118 0
-4766 -4765 -118 0
4766 -4765 118 0
4766 4765 -118 0
-4767 4766 119 0
-4767 -4766 -119 0
4767 -4766 119 0
4767 4766 -119 0
-4768 4767 132 0
-4768 -4767 -132 0
4768 -4767 132 0
4768 4767 -132 0
-4768 0
-4769 5 64 0
-4769 -5 -64 0
4769 -5 64 0
4769 5 -64 0
-4770 4769 69 0
-4770 -4769 -69 0
4770 -4769 69 0
4770 4769 -69 0
-4771 4770 119 0
-4771 -4770 -119 0
4771 -4770 119 0
4771 4770 -119 0
-4772 4771 120 0
-4772 -4771 -120 0
4772 -4771 120 0
4772 4771 -120 0
-4773 4772 127 0
-4773 -4772 -127 0
4773 -4772 127 0
4773 4772 -127 0
-4773 0
-4774 6 65 0
-4774 -6 -65 0
4774 -6 65 0
4774 6 -65 0
-4775 4774 70 0
-4775 -4774 -70 0
4775 -4774 70 0
4775 4774 -70 0
-4776 4775 115 0
-4776 -4775 -115 0
4776 -4775 115 0
4776 4775 -115 0
-4777 4776 120 0
-4777 -4776 -120 0
4777 -4776 120 0
4777 4776 -120 0
-4778 4777 128 0
-4778 -4777 -128 0
4778 -4777 128 0
4778 4777 -128 0
-4778 0
-4779 7 64 0
-4779 -7 -64 0
4779 -7 64 0
4779 7 -64 0
-4780 4779 69 0
-4780 -4779 -69 0
4780 -4779 69 0
4780 4779 -69 0
-4781 4780 72 0
-4781 -4780 -72 0
4781 -4780 72 0
4781 4780 -72 0
-4782 4781 119 0
-4782 -4781 -119 0
4782 -4781 119 0
4782 4781 -119 0
-4783 4782 120 0
-4783 -4782 -120 0
4783 -4782 120 0
4783 4782 -120 0
-4784 4783 121 0
-4784 -4783 -121 0
4784 -4783 121 0
4784 4783 -121 0
-4785 4784 122 0
-4785 -4784 -122 0
4785 -4784 122 0
4785 4784 -122 0
-4786 4785 127 0
-4786 -4785 -127 0
4786 -4785 127 0
4786 4785 -127 0
-4787 4786 135 0
-4787 -4786 -135 0
4787 -4786 135 0
4787 4786 -135 0
-4787 0
-4788 8 65 0
-4788 -8 -65 0
4788 -8 65 0
4788 8 -65 0
-4789 4788 67 0
-4789 -4788 -67 0
4789 -4788 67 0
4789 4788 -67 0
-4790 4789 70 0
-4790 -4789 -70 0
4790 -4789 70 0
4790 4789 -70 0
-4791 4790 115 0
-4791 -4790 -115 0
4791 -4790 115 0
4791 4790 -115 0
-4792 4791 120 0
-4792 -4791 -120 0
4792 -4791 120 0
4792 4791 -120 0
-4793 4792 122 0
-4793 -4792 -122 0
4793 -4792 122 0
4793 4792 -122 0
-4794 4793 123 0
-4794 -4793 -123 0
4794 -4793 123 0
4794 4793 -123 0
-4795 4794 128 0
-4795 -4794 -128 0
4795 -4794 128 0
4795 4794 -128 0
-4796 4795 136 0
-4796 -4795 -136 0
4796 -4795 136 0
4796 4795 -136 0
-4796 0
-4797 9 66 0
-4797 -9 -66 0
4797 -9 66 0
4797 9 -66 0
-4798 4797 68 0
-4798 -4797 -68 0
4798 -4797 68 0
4798 4797 -68 0
-4799 4798 71 0
-4799 -4798 -71 0
4799 -4798 71 0
4799 4798 -71 0
-4800 4799 115 0
-4800 -4799 -115 0
4800 -4799 115 0
4800 4799 -115 0
-4801 4800 116 0
-4801 -4800 -116 0
4801 -4800 116 0
4801 4800 -116 0
-4802 4801 123 0
-4802 -4801 -123 0
4802 -4801 123 0
4802 4801 -123 0
-4803 4802 124 0
-4803 -4802 -124 0
4803 -4802 124 0
4803 4802 -124 0
-4804 4803 129 0
-4804 -4803 -129 0
4804 -4803 129 0
4804 4803 -129 0
-4805 4804 137 0
-4805 -4804 -137 0
4805 -4804 137 0
4805 4804 -137 0
-4805 0
-4806 10 61 0
-4806 -10 -61 0
4806 -10 61 0
4806 10 -61 0
-4807 4806 69 0
-4807 -4806 -69 0
4807 -4806 69 0
4807 4806 -69 0
-4808 4807 72 0
-4808 -4807 -72 0
4808 -4807 72 0
4808 4807 -72 0
-4809 4808 116 0
-4809 -4808 -116 0
4809 -4808 116 0
4809 4808 -116 0
-4810 4809 117 0
-4810 -4809 -117 0
4810 -4809 117 0
4810 4809 -117 0
-4811 4810 124 0
-4811 -4810 -124 0
4811 -4810 124 0
4811 4810 -124 0
-4812 4811 125 0
-4812 -4811 -125 0
4812 -4811 125 0
4812 4811 -125 0
-4813 4812 130 0
-4813 -4812 -130 0
4813 -4812 130 0
4813 4812 -130 0
-4814 4813 138 0
-4814 -4813 -138 0
4814 -4813 138 0
4814 4813 -138 0
-4814 0
-4815 11 62 0
-4815 -11 -62 0
4815 -11 62 0
4815 11 -62 0
-4816 4815 67 0
-4816 -4815 -67 0
4816 -4815 67 0
4816 4815 -67 0
-4817 4816 70 0
-4817 -4816 -70 0
4817 -4816 70 0
4817 4816 -70 0
-4818 4817 117 0
-4818 -4817 -117 0
4818 -4817 117 0
4818 4817 -117 0
-4819 4818 118 0
-4819 -4818 -118 0
4819 -4818 118 0
4819 4818 -118 0
-4820 4819 125 0
-4820 -4819 -125 0
4820 -4819 125 0
4820 4819 -125 0
-4821 4820 126 0
-4821 -4820 -126 0
4821 -4820 126 0
4821 4820 -126 0
-4822 4821 131 0
-4822 -4821 -131 0
4822 -4821 131 0
4822 4821 -131 0
-4823 4822 133 0
-4823 -4822 -133 0
4823 -4822 133 0
4823 4822 -133 0
-4823 0
-4824 12 63 0
-4824 -12 -63 0
4824 -12 63 0
4824 12 -63 0
-4825 4824 68 0
-4825 -4824 -68 0
4825 -4824 68 0
4825 4824 -68 0
-4826 4825 71 0
-4826 -4825 -71 0
4826 -4825 71 0
4826 4825 -71 0
-4827 4826 118 0
-4827 -4826 -118 0
4827 -4826 118 0
4827 4826 -118 0
-4828 4827 119 0
-4828 -4827 -119 0
4828 -4827 119 0
4828 4827 -119 0
-4829 4828 121 0
-4829 -4828 -121 0
4829 -4828 121 0
4829 4828 -121 0
-4830 4829 126 0
-4830 -4829 -126 0
4830 -4829 126 0
4830 4829 -126 0
-4831 4830 132 0
-4831 -4830 -132 0
4831 -4830 132 0
4831 4830 -132 0
-4832 4831 134 0
-4832 -4831 -134 0
4832 -4831 134 0
4832 4831 -134 0
-4832 0
-4833 13 62 0
-4833 -13 -62 0
4833 -13 62 0
4833 13 -62 0
-4834 4833 65 0
-4834 -4833 -65 0
4834 -4833 65 0
4834 4833 -65 0
-4835 4834 67 0
-4835 -4834 -67 0
4835 -4834 67 0
4835 4834 -67 0
-4836 4835 115 0
-4836 -4835 -115 0
4836 -4835 115 0
4836 4835 -115 0
-4837 4836 117 0
-4837 -4836 -117 0
4837 -4836 117 0
4837 4836 -117 0
-4838 4837 118 0
-4838 -4837 -118 0
4838 -4837 118 0
4838 4837 -118 0
-4839 4838 120 0
-4839 -4838 -120 0
4839 -4838 120 0
4839 4838 -120 0
-4840 4839 125 0
-4840 -4839 -125 0
4840 -4839 125 0
4840 4839 -125 0
-4841 4840 126 0
-4841 -4840 -126 0
4841 -4840 126 0
4841 4840 -126 0
-4842 4841 127 0
-4842 -4841 -127 0
4842 -4841 127 0
4842 4841 -127 0
-4843 4842 131 0
-4843 -4842 -131 0
4843 -4842 131 0
4843 4842 -131 0
-4844 4843 133 0
-4844 -4843 -133 0
4844 -4843 133 0
4844 4843 -133 0
-4845 4844 141 0
-4845 -4844 -141 0
4845 -4844 141 0
4845 4844 -141 0
-4845 0
-4846 14 63 0
-4846 -14 -63 0
4846 -14 63 0
4846 14 -63 0
-4847 4846 66 0
-4847 -4846 -66 0
4847 -4846 66 0
4847 4846 -66 0
-4848 4847 68 0
-4848 -4847 -68 0
4848 -4847 68 0
4848 4847 -68 0
-4849 4848 115 0
-4849 -4848 -115 0
4849 -4848 115 0
4849 4848 -115 0
-4850 4849 116 0
-4850 -4849 -116 0
4850 -4849 116 0
4850 4849 -116 0
-4851 4850 118 0
-4851 -4850 -118 0
4851 -4850 118 0
4851 4850 -118 0
-4852 4851 119 0
-4852 -4851 -119 0
4852 -4851 119 0
4852 4851 -119 0
-4853 4852 121 0
-4853 -4852 -121 0
4853 -4852 121 0
4853 4852 -121 0
-4854 4853 126 0
-4854 -4853 -126 0
4854 -4853 126 0
4854 4853 -126 0
-4855 4854 128 0
-4855 -4854 -128 0
4855 -4854 128 0
4855 4854 -128 0
-4856 4855 132 0
-4856 -4855 -132 0
4856 -4855 132 0
4856 4855 -132 0
-4857 4856 134 0
-4857 -4856 -134 0
4857 -4856 134 0
4857 4856 -134 0
-4858 4857 142 0
-4858 -4857 -142 0
4858 -4857 142 0
4858 4857 -142 0
-4858 0
-4859 15 61 0
-4859 -15 -61 0
4859 -15 61 0
4859 15 -61 0
-4860 4859 64 0
-4860 -4859 -64 0
4860 -4859 64 0
4860 4859 -64 0
-4861 4860 69 0
-4861 -4860 -69 0
4861 -4860 69 0
4861 4860 -69 0
-4862 4861 116 0
-4862 -4861 -116 0
4862 -4861 116 0
4862 4861 -116 0
-4863 4862 117 0
-4863 -4862 -117 0
4863 -4862 117 0
4863 4862 -117 0
-4864 4863 119 0
-4864 -4863 -119 0
4864 -4863 119 0
4864 4863 -119 0
-4865 4864 120 0
-4865 -4864 -120 0
4865 -4864 120 0
4865 4864 -120 0
-4866 4865 121 0
-4866 -4865 -121 0
4866 -4865 121 0
4866 4865 -121 0
-4867 4866 122 0
-4867 -4866 -122 0
4867 -4866 122 0
4867 4866 -122 0
-4868 4867 127 0
-4868 -4867 -127 0
4868 -4867 127 0
4868 4867 -127 0
-4869 4868 129 0
-4869 -4868 -129 0
4869 -4868 129 0
4869 4868 -129 0
-4870 4869 135 0
-4870 -4869 -135 0
4870 -4869 135 0
4870 4869 -135 0
-4871 4870 143 0
-4871 -4870 -143 0
4871 -4870 143 0
4871 4870 -143 0
-4871 0
-4872 16 62 0
-4872 -16 -62 0
4872 -16 62 0
4872 16 -62 0
-4873 4872 65 0
-4873 -4872 -65 0
4873 -4872 65 0
4873 4872 -65 0
-4874 4873 70 0
-4874 -4873 -70 0
4874 -4873 70 0
4874 4873 -70 0
-4875 4874 115 0
-4875 -4874 -115 0
4875 -4874 115 0
4875 4874 -115 0
-4876 4875 117 0
-4876 -4875 -117 0
4876 -4875 117 0
4876 4875 -117 0
-4877 4876 118 0
-4877 -4876 -118 0
4877 -4876 118 0
4877 4876 -118 0
-4878 4877 120 0
-4878 -4877 -120 0
4878 -4877 120 0
4878 4877 -120 0
-4879 4878 122 0
-4879 -4878 -122 0
4879 -4878 122 0
4879 4878 -122 0
-4880 4879 123 0
-4880 -4879 -123 0
4880 -4879 123 0
4880 4879 -123 0
-4881 4880 128 0
-4881 -4880 -128 0
4881 -4880 128 0
4881 4880 -128 0
-4882 4881 130 0
-4882 -4881 -130 0
4882 -4881 130 0
4882 4881 -130 0
-4883 4882 136 0
-4883 -4882 -136 0
4883 -4882 136 0
4883 4882 -136 0
-4884 4883 144 0
-4884 -4883 -144 0
4884 -4883 144 0
4884 4883 -144 0
-4884 0
-4885 17 63 0
-4885 -17 -63 0
4885 -17 63 0
4885 17 -63 0
-4886 4885 66 0
-4886 -4885 -66 0
4886 -4885 66 0
4886 4885 -66 0
-4887 4886 71 0
-4887 -4886 -71 0
4887 -4886 71 0
4887 4886 -71 0
-4888 4887 115 0
-4888 -4887 -115 0
4888 -4887 115 0
4888 4887 -115 0
-4889 4888 116 0
-4889 -4888 -116 0
4889 -4888 116 0
4889 4888 -116 0
-4890 4889 118 0
-4890 -4889 -118 0
4890 -4889 118 0
4890 4889 -118 0
-4891 4890 119 0
-4891 -4890 -119 0
4891 -4890 119 0
4891 4890 -119 0
-4892 4891 123 0
-4892 -4891 -123 0
4892 -4891 123 0
4892 4891 -123 0
-4893 4892 124 0
-4893 -4892 -124 0
4893 -4892 124 0
4893 4892 -124 0
-4894 4893 129 0
-4894 -4893 -129 0
4894 -4893 129 0
4894 4893 -129 0
-4895 4894 131 0
-4895 -4894 -131 0
4895 -4894 131 0
4895 4894 -131 0
-4896 4895 137 0
-4896 -4895 -137 0
4896 -4895 137 0
4896 4895 -137 0
-4897 4896 139 0
-4897 -4896 -139 0
4897 -4896 139 0
4897 4896 -139 0
-4897 0
-4898 18 61 0
-4898 -18 -61 0
4898 -18 61 0
4898 18 -61 0
-4899 4898 64 0
-4899 -4898 -64 0
4899 -4898 64 0
4899 4898 -64 0
-4900 4899 72 0
-4900 -4899 -72 0
4900 -4899 72 0
4900 4899 -72 0
-4901 4900 116 0
-4901 -4900 -116 0
4901 -4900 116 0
4901 4900 -116 0
-4902 4901 117 0
-4902 -4901 -117 0
4902 -4901 117 0
4902 4901 -117 0
-4903 4902 119 0
-4903 -4902 -119 0
4903 -4902 119 0
4903 4902 -119 0
-4904 4903 120 0
-4904 -4903 -120 0
4904 -4903 120 0
4904 4903 -120 0
-4905 4904 124 0
-4905 -4904 -124 0
4905 -4904 124 0
4905 4904 -124 0
-4906 4905 125 0
-4906 -4905 -125 0
4906 -4905 125 0
4906 4905 -125 0
-4907 4906 130 0
-4907 -4906 -130 0
4907 -4906 130 0
4907 4906 -130 0
-4908 4907 132 0
-4908 -4907 -132 0
4908 -4907 132 0
4908 4907 -132 0
-4909 4908 138 0
-4909 -4908 -138 0
4909 -4908 138 0
4909 4908 -138 0
-4910 4909 140 0
-4910 -4909 -140 0
4910 -4909 140 0
4910 4909 -140 0
-4910 0
-4911 19 66 0
-4911 -19 -66 0
4911 -19 66 0
4911 19 -66 0
-4912 4911 68 0
-4912 -4911 -68 0
4912 -4911 68 0
4912 4911 -68 0
-4913 4912 83 0
-4913 -4912 -83 0
4913 -4912 83 0
4913 4912 -83 0
-4914 4913 84 0
-4914 -4913 -84 0
4914 -4913 84 0
4914 4913 -84 0
-4915 4914 89 0
-4915 -4914 -89 0
4915 -4914 89 0
4915 4914 -89 0
-4916 4915 91 0
-4916 -4915 -91 0
4916 -4915 91 0
4916 4915 -91 0
-4917 4916 94 0
-4917 -4916 -94 0
4917 -4916 94 0
4917 4916 -94 0
-4918 4917 96 0
-4918 -4917 -96 0
4918 -4917 96 0
4918 4917 -96 0
-4919 4918 99 0
-4919 -4918 -99 0
4919 -4918 99 0
4919 4918 -99 0
-4920 4919 101 0
-4920 -4919 -101 0
4920 -4919 101 0
4920 4919 -101 0
-4921 4920 103 0
-4921 -4920 -103 0
4921 -4920 103 0
4921 4920 -103 0
-4922 4921 106 0
-4922 -4921 -106 0
4922 -4921 106 0
4922 4921 -106 0
-4923 4922 107 0
-4923 -4922 -107 0
4923 -4922 107 0
4923 4922 -107 0
-4924 4923 111 0
-4924 -4923 -111 0
4924 -4923 111 0
4924 4923 -111 0
-4925 4924 115 0
-4925 -4924 -115 0
4925 -4924 115 0
4925 4924 -115 0
-4926 4925 116 0
-4926 -4925 -116 0
4926 -4925 116 0
4926 4925 -116 0
-4927 4926 119 0
-4927 -4926 -119 0
4927 -4926 119 0
4927 4926 -119 0
-4928 4927 120 0
-4928 -4927 -120 0
4928 -4927 120 0
4928 4927 -120 0
-4929 4928 121 0
-4929 -4928 -121 0
4929 -4928 121 0
4929 4928 -121 0
-4930 4929 123 0
-4930 -4929 -123 0
4930 -4929 123 0
4930 4929 -123 0
-4931 4930 124 0
-4931 -4930 -124 0
4931 -4930 124 0
4931 4930 -124 0
-4932 4931 125 0
-4932 -4931 -125 0
4932 -4931 125 0
4932 4931 -125 0
-4933 4932 126 0
-4933 -4932 -126 0
4933 -4932 126 0
4933 4932 -126 0
-4934 4933 127 0
-4934 -4933 -127 0
4934 -4933 127 0
4934 4933 -127 0
-4935 4934 129 0
-4935 -4934 -129 0
4935 -4934 129 0
4935 4934 -129 0
-4936 4935 130 0
-4936 -4935 -130 0
4936 -4935 130 0
4936 4935 -130 0
-4937 4936 131 0
-4937 -4936 -131 0
4937 -4936 131 0
4937 4936 -131 0
-4938 4937 133 0
-4938 -4937 -133 0
4938 -4937 133 0
4938 4937 -133 0
-4939 4938 135 0
-4939 -4938 -135 0
4939 -4938 135 0
4939 4938 -135 0
-4940 4939 142 0
-4940 -4939 -142 0
4940 -4939 142 0
4940 4939 -142 0
-4941 4940 143 0
-4941 -4940 -143 0
4941 -4940 143 0
4941 4940 -143 0
-4941 0
-4942 20 61 0
-4942 -20 -61 0
4942 -20 61 0
4942 20 -61 0
-4943 4942 69 0
-4943 -4942 -69 0
4943 -4942 69 0
4943 4942 -69 0
-4944 4943 83 0
-4944 -4943 -83 0
4944 -4943 83 0
4944 4943 -83 0
-4945 4944 88 0
-4945 -4944 -88 0
4945 -4944 88 0
4945 4944 -88 0
-4946 4945 89 0
-4946 -4945 -89 0
4946 -4945 89 0
4946 4945 -89 0
-4947 4946 93 0
-4947 -4946 -93 0
4947 -4946 93 0
4947 4946 -93 0
-4948 4947 94 0
-4948 -4947 -94 0
4948 -4947 94 0
4948 4947 -94 0
-4949 4948 96 0
-4949 -4948 -96 0
4949 -4948 96 0
4949 4948 -96 0
-4950 4949 98 0
-4950 -4949 -98 0
4950 -4949 98 0
4950 4949 -98 0
-4951 4950 99 0
-4951 -4950 -99 0
4951 -4950 99 0
4951 4950 -99 0
-4952 4951 102 0
-4952 -4951 -102 0
4952 -4951 102 0
4952 4951 -102 0
-4953 4952 104 0
-4953 -4952 -104 0
4953 -4952 104 0
4953 4952 -104 0
-4954 4953 106 0
-4954 -4953 -106 0
4954 -4953 106 0
4954 4953 -106 0
-4955 4954 112 0
-4955 -4954 -112 0
4955 -4954 112 0
4955 4954 -112 0
-4956 4955 116 0
-4956 -4955 -116 0
4956 -4955 116 0
4956 4955 -116 0
-4957 4956 117 0
-4957 -4956 -117 0
4957 -4956 117 0
4957 4956 -117 0
-4958 4957 119 0
-4958 -4957 -119 0
4958 -4957 119 0
4958 4957 -119 0
-4959 4958 121 0
-4959 -4958 -121 0
4959 -4958 121 0
4959 4958 -121 0
-4960 4959 122 0
-4960 -4959 -122 0
4960 -4959 122 0
4960 4959 -122 0
-4961 4960 127 0
-4961 -4960 -127 0
4961 -4960 127 0
4961 4960 -127 0
-4962 4961 129 0
-4962 -4961 -129 0
4962 -4961 129 0
4962 4961 -129 0
-4963 4962 135 0
-4963 -4962 -135 0
4963 -4962 135 0
4963 4962 -135 0
-4964 4963 142 0
-4964 -4963 -142 0
4964 -4963 142 0
4964 4963 -142 0
-4964 0
-4965 21 62 0
-4965 -21 -62 0
4965 -21 62 0
4965 21 -62 0
-4966 4965 70 0
-4966 -4965 -70 0
4966 -4965 70 0
4966 4965 -70 0
-4967 4966 84 0
-4967 -4966 -84 0
4967 -4966 84 0
4967 4966 -84 0
-4968 4967 89 0
-4968 -4967 -89 0
4968 -4967 89 0
4968 4967 -89 0
-4969 4968 90 0
-4969 -4968 -90 0
4969 -4968 90 0
4969 4968 -90 0
-4970 4969 91 0
-4970 -4969 -91 0
4970 -4969 91 0
4970 4969 -91 0
-4971 4970 94 0
-4971 -4970 -94 0
4971 -4970 94 0
4971 4970 -94 0
-4972 4971 95 0
-4972 -4971 -95 0
4972 -4971 95 0
4972 4971 -95 0
-4973 4972 97 0
-4973 -4972 -97 0
4973 -4972 97 0
4973 4972 -97 0
-4974 4973 99 0
-4974 -4973 -99 0
4974 -4973 99 0
4974 4973 -99 0
-4975 4974 100 0
-4975 -4974 -100 0
4975 -4974 100 0
4975 4974 -100 0
-4976 4975 105 0
-4976 -4975 -105 0
4976 -4975 105 0
4976 4975 -105 0
-4977 4976 107 0
-4977 -4976 -107 0
4977 -4976 107 0
4977 4976 -107 0
-4978 4977 113 0
-4978 -4977 -113 0
4978 -4977 113 0
4978 4977 -113 0
-4979 4978 117 0
-4979 -4978 -117 0
4979 -4978 117 0
4979 4978 -117 0
-4980 4979 118 0
-4980 -4979 -118 0
4980 -4979 118 0
4980 4979 -118 0
-4981 4980 120 0
-4981 -4980 -120 0
4981 -4980 120 0
4981 4980 -120 0
-4982 4981 122 0
-4982 -4981 -122 0
4982 -4981 122 0
4982 4981 -122 0
-4983 4982 123 0
-4983 -4982 -123 0
4983 -4982 123 0
4983 4982 -123 0
-4984 4983 128 0
-4984 -4983 -128 0
4984 -4983 128 0
4984 4983 -128 0
-4985 4984 130 0
-4985 -4984 -130 0
4985 -4984 130 0
4985 4984 -130 0
-4986 4985 136 0
-4986 -4985 -136 0
4986 -4985 136 0
4986 4985 -136 0
-4987 4986 143 0
-4987 -4986 -143 0
4987 -4986 143 0
4987 4986 -143 0
-4987 0
-4988 22 63 0
-4988 -22 -63 0
4988 -22 63 0
4988 22 -63 0
-4989 4988 71 0
-4989 -4988 -71 0
4989 -4988 71 0
4989 4988 -71 0
-4990 4989 83 0
-4990 -4989 -83 0
4990 -4989 83 0
4990 4989 -83 0
-4991 4990 84 0
-4991 -4990 -84 0
4991 -4990 84 0
4991 4990 -84 0
-4992 4991 85 0
-4992 -4991 -85 0
4992 -4991 85 0
4992 4991 -85 0
-4993 4992 88 0
-4993 -4992 -88 0
4993 -4992 88 0
4993 4992 -88 0
-4994 4993 89 0
-4994 -4993 -89 0
4994 -4993 89 0
4994 4993 -89 0
-4995 4994 91 0
-4995 -4994 -91 0
4995 -4994 91 0
4995 4994 -91 0
-4996 4995 93 0
-4996 -4995 -93 0
4996 -4995 93 0
4996 4995 -93 0
-4997 4996 94 0
-4997 -4996 -94 0
4997 -4996 94 0
4997 4996 -94 0
-4998 4997 99 0
-4998 -4997 -99 0
4998 -4997 99 0
4998 4997 -99 0
-4999 4998 101 0
-4999 -4998 -101 0
4999 -4998 101 0
4999 4998 -101 0
-5000 4999 107 0
-5000 -4999 -107 0
5000 -4999 107 0
5000 4999 -107 0
-5001 5000 114 0
-5001 -5000 -114 0
5001 -5000 114 0
5001 5000 -114 0
-5002 5001 118 0
-5002 -5001 -118 0
5002 -5001 118 0
5002 5001 -118 0
-5003 5002 120 0
-5003 -5002 -120 0
5003 -5002 120 0
5003 5002 -120 0
-5004 5003 123 0
-5004 -5003 -123 0
5004 -5003 123 0
5004 5003 -123 0
-5005 5004 125 0
-5005 -5004 -125 0
5005 -5004 125 0
5005 5004 -125 0
-5006 5005 126 0
-5006 -5005 -126 0
5006 -5005 126 0
5006 5005 -126 0
-5007 5006 127 0
-5007 -5006 -127 0
5007 -5006 127 0
5007 5006 -127 0
-5008 5007 128 0
-5008 -5007 -128 0
5008 -5007 128 0
5008 5007 -128 0
-5009 5008 130 0
-5009 -5008 -130 0
5009 -5008 130 0
5009 5008 -130 0
-5010 5009 132 0
-5010 -5009 -132 0
5010 -5009 132 0
5010 5009 -132 0
-5011 5010 134 0
-5011 -5010 -134 0
5011 -5010 134 0
5011 5010 -134 0
-5012 5011 135 0
-5012 -5011 -135 0
5012 -5011 135 0
5012 5011 -135 0
-5013 5012 136 0
-5013 -5012 -136 0
5013 -5012 136 0
5013 5012 -136 0
-5014 5013 137 0
-5014 -5013 -137 0
5014 -5013 137 0
5014 5013 -137 0
-5015 5014 142 0
-5015 -5014 -142 0
5015 -5014 142 0
5015 5014 -142 0
-5016 5015 143 0
-5016 -5015 -143 0
5016 -5015 143 0
5016 5015 -143 0
-5016 0
-5017 23 64 0
-5017 -23 -64 0
5017 -23 64 0
5017 23 -64 0
-5018 5017 72 0
-5018 -5017 -72 0
5018 -5017 72 0
5018 5017 -72 0
-5019 5018 83 0
-5019 -5018 -83 0
5019 -5018 83 0
5019 5018 -83 0
-5020 5019 86 0
-5020 -5019 -86 0
5020 -5019 86 0
5020 5019 -86 0
-5021 5020 88 0
-5021 -5020 -88 0
5021 -5020 88 0
5021 5020 -88 0
-5022 5021 91 0
-5022 -5021 -91 0
5022 -5021 91 0
5022 5021 -91 0
-5023 5022 93 0
-5023 -5022 -93 0
5023 -5022 93 0
5023 5022 -93 0
-5024 5023 96 0
-5024 -5023 -96 0
5024 -5023 96 0
5024 5023 -96 0
-5025 5024 98 0
-5025 -5024 -98 0
5025 -5024 98 0
5025 5024 -98 0
-5026 5025 99 0
-5026 -5025 -99 0
5026 -5025 99 0
5026 5025 -99 0
-5027 5026 102 0
-5027 -5026 -102 0
5027 -5026 102 0
5027 5026 -102 0
-5028 5027 106 0
-5028 -5027 -106 0
5028 -5027 106 0
5028 5027 -106 0
-5029 5028 107 0
-5029 -5028 -107 0
5029 -5028 107 0
5029 5028 -107 0
-5030 5029 109 0
-5030 -5029 -109 0
5030 -5029 109 0
5030 5029 -109 0
-5031 5030 120 0
-5031 -5030 -120 0
5031 -5030 120 0
5031 5030 -120 0
-5032 5031 121 0
-5032 -5031 -121 0
5032 -5031 121 0
5032 5031 -121 0
-5033 5032 125 0
-5033 -5032 -125 0
5033 -5032 125 0
5033 5032 -125 0
-5034 5033 130 0
-5034 -5033 -130 0
5034 -5033 130 0
5034 5033 -130 0
-5035 5034 132 0
-5035 -5034 -132 0
5035 -5034 132 0
5035 5034 -132 0
-5036 5035 134 0
-5036 -5035 -134 0
5036 -5035 134 0
5036 5035 -134 0
-5037 5036 137 0
-5037 -5036 -137 0
5037 -5036 137 0
5037 5036 -137 0
-5038 5037 138 0
-5038 -5037 -138 0
5038 -5037 138 0
5038 5037 -138 0
-5039 5038 142 0
-5039 -5038 -142 0
5039 -5038 142 0
5039 5038 -142 0
-5039 0
-5040 24 65 0
-5040 -24 -65 0
5040 -24 65 0
5040 24 -65 0
-5041 5040 67 0
-5041 -5040 -67 0
5041 -5040 67 0
5041 5040 -67 0
-5042 5041 84 0
-5042 -5041 -84 0
5042 -5041 84 0
5042 5041 -84 0
-5043 5042 87 0
-5043 -5042 -87 0
5043 -5042 87 0
5043 5042 -87 0
-5044 5043 89 0
-5044 -5043 -89 0
5044 -5043 89 0
5044 5043 -89 0
-5045 5044 91 0
-5045 -5044 -91 0
5045 -5044 91 0
5045 5044 -91 0
-5046 5045 92 0
-5046 -5045 -92 0
5046 -5045 92 0
5046 5045 -92 0
-5047 5046 94 0
-5047 -5046 -94 0
5047 -5046 94 0
5047 5046 -94 0
-5048 5047 97 0
-5048 -5047 -97 0
5048 -5047 97 0
5048 5047 -97 0
-5049 5048 99 0
-5049 -5048 -99 0
5049 -5048 99 0
5049 5048 -99 0
-5050 5049 100 0
-5050 -5049 -100 0
5050 -5049 100 0
5050 5049 -100 0
-5051 5050 107 0
-5051 -5050 -107 0
5051 -5050 107 0
5051 5050 -107 0
-5052 5051 108 0
-5052 -5051 -108 0
5052 -5051 108 0
5052 5051 -108 0
-5053 5052 110 0
-5053 -5052 -110 0
5053 -5052 110 0
5053 5052 -110 0
-5054 5053 115 0
-5054 -5053 -115 0
5054 -5053 115 0
5054 5053 -115 0
-5055 5054 122 0
-5055 -5054 -122 0
5055 -5054 122 0
5055 5054 -122 0
-5056 5055 126 0
-5056 -5055 -126 0
5056 -5055 126 0
5056 5055 -126 0
-5057 5056 127 0
-5057 -5056 -127 0
5057 -5056 127 0
5057 5056 -127 0
-5058 5057 131 0
-5058 -5057 -131 0
5058 -5057 131 0
5058 5057 -131 0
-5059 5058 133 0
-5059 -5058 -133 0
5059 -5058 133 0
5059 5058 -133 0
-5060 5059 135 0
-5060 -5059 -135 0
5060 -5059 135 0
5060 5059 -135 0
-5061 5060 138 0
-5061 -5060 -138 0
5061 -5060 138 0
5061 5060 -138 0
-5062 5061 143 0
-5062 -5061 -143 0
5062 -5061 143 0
5062 5061 -143 0
-5062 0
-5063 25 61 0
-5063 -25 -61 0
5063 -25 61 0
5063 25 -61 0
-5064 5063 83 0
-5064 -5063 -83 0
5064 -5063 83 0
5064 5063 -83 0
-5065 5064 84 0
-5065 -5064 -84 0
5065 -5064 84 0
5065 5064 -84 0
-5066 5065 88 0
-5066 -5065 -88 0
5066 -5065 88 0
5066 5065 -88 0
-5067 5066 89 0
-5067 -5066 -89 0
5067 -5066 89 0
5067 5066 -89 0
-5068 5067 91 0
-5068 -5067 -91 0
5068 -5067 91 0
5068 5067 -91 0
-5069 5068 93 0
-5069 -5068 -93 0
5069 -5068 93 0
5069 5068 -93 0
-5070 5069 96 0
-5070 -5069 -96 0
5070 -5069 96 0
5070 5069 -96 0
-5071 5070 98 0
-5071 -5070 -98 0
5071 -5070 98 0
5071 5070 -98 0
-5072 5071 104 0
-5072 -5071 -104 0
5072 -5071 104 0
5072 5071 -104 0
-5073 5072 106 0
-5073 -5072 -106 0
5073 -5072 106 0
5073 5072 -106 0
-5074 5073 109 0
-5074 -5073 -109 0
5074 -5073 109 0
5074 5073 -109 0
-5075 5074 116 0
-5075 -5074 -116 0
5075 -5074 116 0
5075 5074 -116 0
-5076 5075 119 0
-5076 -5075 -119 0
5076 -5075 119 0
5076 5075 -119 0
-5077 5076 120 0
-5077 -5076 -120 0
5077 -5076 120 0
5077 5076 -120 0
-5078 5077 121 0
-5078 -5077 -121 0
5078 -5077 121 0
5078 5077 -121 0
-5079 5078 122 0
-5079 -5078 -122 0
5079 -5078 122 0
5079 5078 -122 0
-5080 5079 124 0
-5080 -5079 -124 0
5080 -5079 124 0
5080 5079 -124 0
-5081 5080 125 0
-5081 -5080 -125 0
5081 -5080 125 0
5081 5080 -125 0
-5082 5081 134 0
-5082 -5081 -134 0
5082 -5081 134 0
5082 5081 -134 0
-5083 5082 135 0
-5083 -5082 -135 0
5083 -5082 135 0
5083 5082 -135 0
-5084 5083 137 0
-5084 -5083 -137 0
5084 -5083 137 0
5084 5083 -137 0
-5085 5084 138 0
-5085 -5084 -138 0
5085 -5084 138 0
5085 5084 -138 0
-5086 5085 139 0
-5086 -5085 -139 0
5086 -5085 139 0
5086 5085 -139 0
-5087 5086 140 0
-5087 -5086 -140 0
5087 -5086 140 0
5087 5086 -140 0
-5088 5087 142 0
-5088 -5087 -142 0
5088 -5087 142 0
5088 5087 -142 0
-5089 5088 143 0
-5089 -5088 -143 0
5089 -5088 143 0
5089 5088 -143 0
-5089 0
-5090 26 62 0
-5090 -26 -62 0
5090 -26 62 0
5090 26 -62 0
-5091 5090 83 0
-5091 -5090 -83 0
5091 -5090 83 0
5091 5090 -83 0
-5092 5091 88 0
-5092 -5091 -88 0
5092 -5091 88 0
5092 5091 -88 0
-5093 5092 93 0
-5093 -5092 -93 0
5093 -5092 93 0
5093 5092 -93 0
-5094 5093 95 0
-5094 -5093 -95 0
5094 -5093 95 0
5094 5093 -95 0
-5095 5094 96 0
-5095 -5094 -96 0
5095 -5094 96 0
5095 5094 -96 0
-5096 5095 98 0
-5096 -5095 -98 0
5096 -5095 98 0
5096 5095 -98 0
-5097 5096 100 0
-5097 -5096 -100 0
5097 -5096 100 0
5097 5096 -100 0
-5098 5097 105 0
-5098 -5097 -105 0
5098 -5097 105 0
5098 5097 -105 0
-5099 5098 106 0
-5099 -5098 -106 0
5099 -5098 106 0
5099 5098 -106 0
-5100 5099 108 0
-5100 -5099 -108 0
5100 -5099 108 0
5100 5099 -108 0
-5101 5100 110 0
-5101 -5100 -110 0
5101 -5100 110 0
5101 5100 -110 0
-5102 5101 117 0
-5102 -5101 -117 0
5102 -5101 117 0
5102 5101 -117 0
-5103 5102 119 0
-5103 -5102 -119 0
5103 -5102 119 0
5103 5102 -119 0
-5104 5103 122 0
-5104 -5103 -122 0
5104 -5103 122 0
5104 5103 -122 0
-5105 5104 123 0
-5105 -5104 -123 0
5105 -5104 123 0
5105 5104 -123 0
-5106 5105 124 0
-5106 -5105 -124 0
5106 -5105 124 0
5106 5105 -124 0
-5107 5106 127 0
-5107 -5106 -127 0
5107 -5106 127 0
5107 5106 -127 0
-5108 5107 128 0
-5108 -5107 -128 0
5108 -5107 128 0
5108 5107 -128 0
-5109 5108 129 0
-5109 -5108 -129 0
5109 -5108 129 0
5109 5108 -129 0
-5110 5109 130 0
-5110 -5109 -130 0
5110 -5109 130 0
5110 5109 -130 0
-5111 5110 131 0
-5111 -5110 -131 0
5111 -5110 131 0
5111 5110 -131 0
-5112 5111 132 0
-5112 -5111 -132 0
5112 -5111 132 0
5112 5111 -132 0
-5113 5112 133 0
-5113 -5112 -133 0
5113 -5112 133 0
5113 5112 -133 0
-5114 5113 134 0
-5114 -5113 -134 0
5114 -5113 134 0
5114 5113 -134 0
-5115 5114 138 0
-5115 -5114 -138 0
5115 -5114 138 0
5115 5114 -138 0
-5116 5115 140 0
-5116 -5115 -140 0
5116 -5115 140 0
5116 5115 -140 0
-5117 5116 141 0
-5117 -5116 -141 0
5117 -5116 141 0
5117 5116 -141 0
-5118 5117 142 0
-5118 -5117 -142 0
5118 -5117 142 0
5118 5117 -142 0
-5118 0
-5119 27 63 0
-5119 -27 -63 0
5119 -27 63 0
5119 27 -63 0
-5120 5119 84 0
-5120 -5119 -84 0
5120 -5119 84 0
5120 5119 -84 0
-5121 5120 89 0
-5121 -5120 -89 0
5121 -5120 89 0
5121 5120 -89 0
-5122 5121 91 0
-5122 -5121 -91 0
5122 -5121 91 0
5122 5121 -91 0
-5123 5122 94 0
-5123 -5122 -94 0
5123 -5122 94 0
5123 5122 -94 0
-5124 5123 96 0
-5124 -5123 -96 0
5124 -5123 96 0
5124 5123 -96 0
-5125 5124 99 0
-5125 -5124 -99 0
5125 -5124 99 0
5125 5124 -99 0
-5126 5125 101 0
-5126 -5125 -101 0
5126 -5125 101 0
5126 5125 -101 0
-5127 5126 103 0
-5127 -5126 -103 0
5127 -5126 103 0
5127 5126 -103 0
-5128 5127 106 0
-5128 -5127 -106 0
5128 -5127 106 0
5128 5127 -106 0
-5129 5128 107 0
-5129 -5128 -107 0
5129 -5128 107 0
5129 5128 -107 0
-5130 5129 111 0
-5130 -5129 -111 0
5130 -5129 111 0
5130 5129 -111 0
-5131 5130 118 0
-5131 -5130 -118 0
5131 -5130 118 0
5131 5130 -118 0
-5132 5131 120 0
-5132 -5131 -120 0
5132 -5131 120 0
5132 5131 -120 0
-5133 5132 123 0
-5133 -5132 -123 0
5133 -5132 123 0
5133 5132 -123 0
-5134 5133 124 0
-5134 -5133 -124 0
5134 -5133 124 0
5134 5133 -124 0
-5135 5134 125 0
-5135 -5134 -125 0
5135 -5134 125 0
5135 5134 -125 0
-5136 5135 127 0
-5136 -5135 -127 0
5136 -5135 127 0
5136 5135 -127 0
-5137 5136 128 0
-5137 -5136 -128 0
5137 -5136 128 0
5137 5136 -128 0
-5138 5137 129 0
-5138 -5137 -129 0
5138 -5137 129 0
5138 5137 -129 0
-5139 5138 130 0
-5139 -5138 -130 0
5139 -5138 130 0
5139 5138 -130 0
-5140 5139 131 0
-5140 -5139 -131 0
5140 -5139 131 0
5140 5139 -131 0
-5141 5140 132 0
-5141 -5140 -132 0
5141 -5140 132 0
5141 5140 -132 0
-5142 5141 133 0
-5142 -5141 -133 0
5142 -5141 133 0
5142 5141 -133 0
-5143 5142 134 0
-5143 -5142 -134 0
5143 -5142 134 0
5143 5142 -134 0
-5144 5143 135 0
-5144 -5143 -135 0
5144 -5143 135 0
5144 5143 -135 0
-5145 5144 141 0
-5145 -5144 -141 0
5145 -5144 141 0
5145 5144 -141 0
-5146 5145 142 0
-5146 -5145 -142 0
5146 -5145 142 0
5146 5145 -142 0
-5147 5146 143 0
-5147 -5146 -143 0
5147 -5146 143 0
5147 5146 -143 0
-5147 0
-5148 28 64 0
-5148 -28 -64 0
5148 -28 64 0
5148 28 -64 0
-5149 5148 83 0
-5149 -5148 -83 0
5149 -5148 83 0
5149 5148 -83 0
-5150 5149 84 0
-5150 -5149 -84 0
5150 -5149 84 0
5150 5149 -84 0
-5151 5150 88 0
-5151 -5150 -88 0
5151 -5150 88 0
5151 5150 -88 0
-5152 5151 89 0
-5152 -5151 -89 0
5152 -5151 89 0
5152 5151 -89 0
-5153 5152 93 0
-5153 -5152 -93 0
5153 -5152 93 0
5153 5152 -93 0
-5154 5153 94 0
-5154 -5153 -94 0
5154 -5153 94 0
5154 5153 -94 0
-5155 5154 96 0
-5155 -5154 -96 0
5155 -5154 96 0
5155 5154 -96 0
-5156 5155 98 0
-5156 -5155 -98 0
5156 -5155 98 0
5156 5155 -98 0
-5157 5156 99 0
-5157 -5156 -99 0
5157 -5156 99 0
5157 5156 -99 0
-5158 5157 102 0
-5158 -5157 -102 0
5158 -5157 102 0
5158 5157 -102 0
-5159 5158 104 0
-5159 -5158 -104 0
5159 -5158 104 0
5159 5158 -104 0
-5160 5159 106 0
-5160 -5159 -106 0
5160 -5159 106 0
5160 5159 -106 0
-5161 5160 112 0
-5161 -5160 -112 0
5161 -5160 112 0
5161 5160 -112 0
-5162 5161 120 0
-5162 -5161 -120 0
5162 -5161 120 0
5162 5161 -120 0
-5162 0
-5163 29 65 0
-5163 -29 -65 0
5163 -29 65 0
5163 29 -65 0
-5164 5163 83 0
-5164 -5163 -83 0
5164 -5163 83 0
5164 5163 -83 0
-5165 5164 88 0
-5165 -5164 -88 0
5165 -5164 88 0
5165 5164 -88 0
-5166 5165 92 0
-5166 -5165 -92 0
5166 -5165 92 0
5166 5165 -92 0
-5167 5166 93 0
-5167 -5166 -93 0
5167 -5166 93 0
5167 5166 -93 0
-5168 5167 96 0
-5168 -5167 -96 0
5168 -5167 96 0
5168 5167 -96 0
-5169 5168 97 0
-5169 -5168 -97 0
5169 -5168 97 0
5169 5168 -97 0
-5170 5169 98 0
-5170 -5169 -98 0
5170 -5169 98 0
5170 5169 -98 0
-5171 5170 105 0
-5171 -5170 -105 0
5171 -5170 105 0
5171 5170 -105 0
-5172 5171 106 0
-5172 -5171 -106 0
5172 -5171 106 0
5172 5171 -106 0
-5173 5172 108 0
-5173 -5172 -108 0
5173 -5172 108 0
5173 5172 -108 0
-5174 5173 113 0
-5174 -5173 -113 0
5174 -5173 113 0
5174 5173 -113 0
-5175 5174 119 0
-5175 -5174 -119 0
5175 -5174 119 0
5175 5174 -119 0
-5176 5175 120 0
-5176 -5175 -120 0
5176 -5175 120 0
5176 5175 -120 0
-5177 5176 124 0
-5177 -5176 -124 0
5177 -5176 124 0
5177 5176 -124 0
-5178 5177 125 0
-5178 -5177 -125 0
5178 -5177 125 0
5178 5177 -125 0
-5179 5178 126 0
-5179 -5178 -126 0
5179 -5178 126 0
5179 5178 -126 0
-5180 5179 127 0
-5180 -5179 -127 0
5180 -5179 127 0
5180 5179 -127 0
-5181 5180 128 0
-5181 -5180 -128 0
5181 -5180 128 0
5181 5180 -128 0
-5182 5181 129 0
-5182 -5181 -129 0
5182 -5181 129 0
5182 5181 -129 0
-5183 5182 130 0
-5183 -5182 -130 0
5183 -5182 130 0
5183 5182 -130 0
-5184 5183 131 0
-5184 -5183 -131 0
5184 -5183 131 0
5184 5183 -131 0
-5185 5184 132 0
-5185 -5184 -132 0
5185 -5184 132 0
5185 5184 -132 0
-5186 5185 134 0
-5186 -5185 -134 0
5186 -5185 134 0
5186 5185 -134 0
-5187 5186 135 0
-5187 -5186 -135 0
5187 -5186 135 0
5187 5186 -135 0
-5188 5187 136 0
-5188 -5187 -136 0
5188 -5187 136 0
5188 5187 -136 0
-5189 5188 142 0
-5189 -5188 -142 0
5189 -5188 142 0
5189 5188 -142 0
-5190 5189 143 0
-5190 -5189 -143 0
5190 -5189 143 0
5190 5189 -143 0
-5191 5190 144 0
-5191 -5190 -144 0
5191 -5190 144 0
5191 5190 -144 0
-5191 0
-5192 30 66 0
-5192 -30 -66 0
5192 -30 66 0
5192 30 -66 0
-5193 5192 84 0
-5193 -5192 -84 0
5193 -5192 84 0
5193 5192 -84 0
-5194 5193 89 0
-5194 -5193 -89 0
5194 -5193 89 0
5194 5193 -89 0
-5195 5194 91 0
-5195 -5194 -91 0
5195 -5194 91 0
5195 5194 -91 0
-5196 5195 93 0
-5196 -5195 -93 0
5196 -5195 93 0
5196 5195 -93 0
-5197 5196 94 0
-5197 -5196 -94 0
5197 -5196 94 0
5197 5196 -94 0
-5198 5197 98 0
-5198 -5197 -98 0
5198 -5197 98 0
5198 5197 -98 0
-5199 5198 99 0
-5199 -5198 -99 0
5199 -5198 99 0
5199 5198 -99 0
-5200 5199 103 0
-5200 -5199 -103 0
5200 -5199 103 0
5200 5199 -103 0
-5201 5200 106 0
-5201 -5200 -106 0
5201 -5200 106 0
5201 5200 -106 0
-5202 5201 107 0
-5202 -5201 -107 0
5202 -5201 107 0
5202 5201 -107 0
-5203 5202 114 0
-5203 -5202 -114 0
5203 -5202 114 0
5203 5202 -114 0
-5204 5203 115 0
-5204 -5203 -115 0
5204 -5203 115 0
5204 5203 -115 0
-5205 5204 120 0
-5205 -5204 -120 0
5205 -5204 120 0
5205 5204 -120 0
-5206 5205 121 0
-5206 -5205 -121 0
5206 -5205 121 0
5206 5205 -121 0
-5207 5206 125 0
-5207 -5206 -125 0
5207 -5206 125 0
5207 5206 -125 0
-5208 5207 126 0
-5208 -5207 -126 0
5208 -5207 126 0
5208 5207 -126 0
-5209 5208 127 0
-5209 -5208 -127 0
5209 -5208 127 0
5209 5208 -127 0
-5210 5209 128 0
-5210 -5209 -128 0
5210 -5209 128 0
5210 5209 -128 0
-5211 5210 129 0
-5211 -5210 -129 0
5211 -5210 129 0
5211 5210 -129 0
-5212 5211 130 0
-5212 -5211 -130 0
5212 -5211 130 0
5212 5211 -130 0
-5213 5212 131 0
-5213 -5212 -131 0
5213 -5212 131 0
5213 5212 -131 0
-5214 5213 132 0
-5214 -5213 -132 0
5214 -5213 132 0
5214 5213 -132 0
-5215 5214 135 0
-5215 -5214 -135 0
5215 -5214 135 0
5215 5214 -135 0
-5216 5215 136 0
-5216 -5215 -136 0
5216 -5215 136 0
5216 5215 -136 0
-5217 5216 137 0
-5217 -5216 -137 0
5217 -5216 137 0
5217 5216 -137 0
-5218 5217 139 0
-5218 -5217 -139 0
5218 -5217 139 0
5218 5217 -139 0
-5219 5218 143 0
-5219 -5218 -143 0
5219 -5218 143 0
5219 5218 -143 0
-5220 5219 144 0
-5220 -5219 -144 0
5220 -5219 144 0
5220 5219 -144 0
-5220 0
-5221 31 67 0
-5221 -31 -67 0
5221 -31 67 0
5221 31 -67 0
-5222 5221 86 0
-5222 -5221 -86 0
5222 -5221 86 0
5222 5221 -86 0
-5223 5222 87 0
-5223 -5222 -87 0
5223 -5222 87 0
5223 5222 -87 0
-5224 5223 91 0
-5224 -5223 -91 0
5224 -5223 91 0
5224 5223 -91 0
-5225 5224 92 0
-5225 -5224 -92 0
5225 -5224 92 0
5225 5224 -92 0
-5226 5225 97 0
-5226 -5225 -97 0
5226 -5225 97 0
5226 5225 -97 0
-5227 5226 99 0
-5227 -5226 -99 0
5227 -5226 99 0
5227 5226 -99 0
-5228 5227 102 0
-5228 -5227 -102 0
5228 -5227 102 0
5228 5227 -102 0
-5229 5228 105 0
-5229 -5228 -105 0
5229 -5228 105 0
5229 5228 -105 0
-5230 5229 107 0
-5230 -5229 -107 0
5230 -5229 107 0
5230 5229 -107 0
-5231 5230 108 0
-5231 -5230 -108 0
5231 -5230 108 0
5231 5230 -108 0
-5232 5231 109 0
-5232 -5231 -109 0
5232 -5231 109 0
5232 5231 -109 0
-5233 5232 113 0
-5233 -5232 -113 0
5233 -5232 113 0
5233 5232 -113 0
-5234 5233 115 0
-5234 -5233 -115 0
5234 -5233 115 0
5234 5233 -115 0
-5235 5234 123 0
-5235 -5234 -123 0
5235 -5234 123 0
5235 5234 -123 0
-5235 0
-5236 32 68 0
-5236 -32 -68 0
5236 -32 68 0
5236 32 -68 0
-5237 5236 87 0
-5237 -5236 -87 0
5237 -5236 87 0
5237 5236 -87 0
-5238 5237 88 0
-5238 -5237 -88 0
5238 -5237 88 0
5238 5237 -88 0
-5239 5238 92 0
-5239 -5238 -92 0
5239 -5238 92 0
5239 5238 -92 0
-5240 5239 93 0
-5240 -5239 -93 0
5240 -5239 93 0
5240 5239 -93 0
-5241 5240 97 0
-5241 -5240 -97 0
5241 -5240 97 0
5241 5240 -97 0
-5242 5241 98 0
-5242 -5241 -98 0
5242 -5241 98 0
5242 5241 -98 0
-5243 5242 100 0
-5243 -5242 -100 0
5243 -5242 100 0
5243 5242 -100 0
-5244 5243 103 0
-5244 -5243 -103 0
5244 -5243 103 0
5244 5243 -103 0
-5245 5244 106 0
-5245 -5244 -106 0
5245 -5244 106 0
5245 5244 -106 0
-5246 5245 108 0
-5246 -5245 -108 0
5246 -5245 108 0
5246 5245 -108 0
-5247 5246 110 0
-5247 -5246 -110 0
5247 -5246 110 0
5247 5246 -110 0
-5248 5247 114 0
-5248 -5247 -114 0
5248 -5247 114 0
5248 5247 -114 0
-5249 5248 116 0
-5249 -5248 -116 0
5249 -5248 116 0
5249 5248 -116 0
-5250 5249 124 0
-5250 -5249 -124 0
5250 -5249 124 0
5250 5249 -124 0
-5250 0
-5251 33 69 0
-5251 -33 -69 0
5251 -33 69 0
5251 33 -69 0
-5252 5251 88 0
-5252 -5251 -88 0
5252 -5251 88 0
5252 5251 -88 0
-5253 5252 89 0
-5253 -5252 -89 0
5253 -5252 89 0
5253 5252 -89 0
-5254 5253 93 0
-5254 -5253 -93 0
5254 -5253 93 0
5254 5253 -93 0
-5255 5254 94 0
-5255 -5254 -94 0
5255 -5254 94 0
5255 5254 -94 0
-5256 5255 98 0
-5256 -5255 -98 0
5256 -5255 98 0
5256 5255 -98 0
-5257 5256 99 0
-5257 -5256 -99 0
5257 -5256 99 0
5257 5256 -99 0
-5258 5257 101 0
-5258 -5257 -101 0
5258 -5257 101 0
5258 5257 -101 0
-5259 5258 103 0
-5259 -5258 -103 0
5259 -5258 103 0
5259 5258 -103 0
-5260 5259 104 0
-5260 -5259 -104 0
5260 -5259 104 0
5260 5259 -104 0
-5261 5260 107 0
-5261 -5260 -107 0
5261 -5260 107 0
5261 5260 -107 0
-5262 5261 109 0
-5262 -5261 -109 0
5262 -5261 109 0
5262 5261 -109 0
-5263 5262 111 0
-5263 -5262 -111 0
5263 -5262 111 0
5263 5262 -111 0
-5264 5263 117 0
-5264 -5263 -117 0
5264 -5263 117 0
5264 5263 -117 0
-5265 5264 125 0
-5265 -5264 -125 0
5265 -5264 125 0
5265 5264 -125 0
-5265 0
-5266 34 70 0
-5266 -34 -70 0
5266 -34 70 0
5266 34 -70 0
-5267 5266 89 0
-5267 -5266 -89 0
5267 -5266 89 0
5267 5266 -89 0
-5268 5267 90 0
-5268 -5267 -90 0
5268 -5267 90 0
5268 5267 -90 0
-5269 5268 94 0
-5269 -5268 -94 0
5269 -5268 94 0
5269 5268 -94 0
-5270 5269 95 0
-5270 -5269 -95 0
5270 -5269 95 0
5270 5269 -95 0
-5271 5270 99 0
-5271 -5270 -99 0
5271 -5270 99 0
5271 5270 -99 0
-5272 5271 100 0
-5272 -5271 -100 0
5272 -5271 100 0
5272 5271 -100 0
-5273 5272 102 0
-5273 -5272 -102 0
5273 -5272 102 0
5273 5272 -102 0
-5274 5273 104 0
-5274 -5273 -104 0
5274 -5273 104 0
5274 5273 -104 0
-5275 5274 105 0
-5275 -5274 -105 0
5275 -5274 105 0
5275 5274 -105 0
-5276 5275 108 0
-5276 -5275 -108 0
5276 -5275 108 0
5276 5275 -108 0
-5277 5276 110 0
-5277 -5276 -110 0
5277 -5276 110 0
5277 5276 -110 0
-5278 5277 112 0
-5278 -5277 -112 0
5278 -5277 112 0
5278 5277 -112 0
-5279 5278 118 0
-5279 -5278 -118 0
5279 -5278 118 0
5279 5278 -118 0
-5280 5279 126 0
-5280 -5279 -126 0
5280 -5279 126 0
5280 5279 -126 0
-5280 0
-5281 35 71 0
-5281 -35 -71 0
5281 -35 71 0
5281 35 -71 0
-5282 5281 85 0
-5282 -5281 -85 0
5282 -5281 85 0
5282 5281 -85 0
-5283 5282 90 0
-5283 -5282 -90 0
5283 -5282 90 0
5283 5282 -90 0
-5284 5283 95 0
-5284 -5283 -95 0
5284 -5283 95 0
5284 5283 -95 0
-5285 5284 96 0
-5285 -5284 -96 0
5285 -5284 96 0
5285 5284 -96 0
-5286 5285 97 0
-5286 -5285 -97 0
5286 -5285 97 0
5286 5285 -97 0
-5287 5286 100 0
-5287 -5286 -100 0
5287 -5286 100 0
5287 5286 -100 0
-5288 5287 101 0
-5288 -5287 -101 0
5288 -5287 101 0
5288 5287 -101 0
-5289 5288 103 0
-5289 -5288 -103 0
5289 -5288 103 0
5289 5288 -103 0
-5290 5289 105 0
-5290 -5289 -105 0
5290 -5289 105 0
5290 5289 -105 0
-5291 5290 106 0
-5291 -5290 -106 0
5291 -5290 106 0
5291 5290 -106 0
-5292 5291 111 0
-5292 -5291 -111 0
5292 -5291 111 0
5292 5291 -111 0
-5293 5292 113 0
-5293 -5292 -113 0
5293 -5292 113 0
5293 5292 -113 0
-5294 5293 119 0
-5294 -5293 -119 0
5294 -5293 119 0
5294 5293 -119 0
-5295 5294 121 0
-5295 -5294 -121 0
5295 -5294 121 0
5295 5294 -121 0
-5295 0
-5296 36 72 0
-5296 -36 -72 0
5296 -36 72 0
5296 36 -72 0
-5297 5296 85 0
-5297 -5296 -85 0
5297 -5296 85 0
5297 5296 -85 0
-5298 5297 86 0
-5298 -5297 -86 0
5298 -5297 86 0
5298 5297 -86 0
-5299 5298 91 0
-5299 -5298 -91 0
5299 -5298 91 0
5299 5298 -91 0
-5300 5299 96 0
-5300 -5299 -96 0
5300 -5299 96 0
5300 5299 -96 0
-5301 5300 98 0
-5301 -5300 -98 0
5301 -5300 98 0
5301 5300 -98 0
-5302 5301 101 0
-5302 -5301 -101 0
5302 -5301 101 0
5302 5301 -101 0
-5303 5302 102 0
-5303 -5302 -102 0
5303 -5302 102 0
5303 5302 -102 0
-5304 5303 104 0
-5304 -5303 -104 0
5304 -5303 104 0
5304 5303 -104 0
-5305 5304 106 0
-5305 -5304 -106 0
5305 -5304 106 0
5305 5304 -106 0
-5306 5305 107 0
-5306 -5305 -107 0
5306 -5305 107 0
5306 5305 -107 0
-5307 5306 112 0
-5307 -5306 -112 0
5307 -5306 112 0
5307 5306 -112 0
-5308 5307 114 0
-5308 -5307 -114 0
5308 -5307 114 0
5308 5307 -114 0
-5309 5308 120 0
-5309 -5308 -120 0
5309 -5308 120 0
5309 5308 -120 0
-5310 5309 122 0
-5310 -5309 -122 0
5310 -5309 122 0
5310 5309 -122 0
-5310 0
-5311 37 66 0
-5311 -37 -66 0
5311 -37 66 0
5311 37 -66 0
-5312 5311 71 0
-5312 -5311 -71 0
5312 -5311 71 0
5312 5311 -71 0
-5313 5312 92 0
-5313 -5312 -92 0
5313 -5312 92 0
5313 5312 -92 0
-5314 5313 93 0
-5314 -5313 -93 0
5314 -5313 93 0
5314 5313 -93 0
-5315 5314 97 0
-5315 -5314 -97 0
5315 -5314 97 0
5315 5314 -97 0
-5316 5315 98 0
-5316 -5315 -98 0
5316 -5315 98 0
5316 5315 -98 0
-5317 5316 103 0
-5317 -5316 -103 0
5317 -5316 103 0
5317 5316 -103 0
-5318 5317 105 0
-5318 -5317 -105 0
5318 -5317 105 0
5318 5317 -105 0
-5319 5318 108 0
-5319 -5318 -108 0
5319 -5318 108 0
5319 5318 -108 0
-5320 5319 111 0
-5320 -5319 -111 0
5320 -5319 111 0
5320 5319 -111 0
-5321 5320 113 0
-5321 -5320 -113 0
5321 -5320 113 0
5321 5320 -113 0
-5322 5321 114 0
-5322 -5321 -114 0
5322 -5321 114 0
5322 5321 -114 0
-5323 5322 116 0
-5323 -5322 -116 0
5323 -5322 116 0
5323 5322 -116 0
-5324 5323 119 0
-5324 -5323 -119 0
5324 -5323 119 0
5324 5323 -119 0
-5325 5324 121 0
-5325 -5324 -121 0
5325 -5324 121 0
5325 5324 -121 0
-5325 0
-5326 38 61 0
-5326 -38 -61 0
5326 -38 61 0
5326 38 -61 0
-5327 5326 72 0
-5327 -5326 -72 0
5327 -5326 72 0
5327 5326 -72 0
-5328 5327 93 0
-5328 -5327 -93 0
5328 -5327 93 0
5328 5327 -93 0
-5329 5328 94 0
-5329 -5328 -94 0
5329 -5328 94 0
5329 5328 -94 0
-5330 5329 98 0
-5330 -5329 -98 0
5330 -5329 98 0
5330 5329 -98 0
-5331 5330 99 0
-5331 -5330 -99 0
5331 -5330 99 0
5331 5330 -99 0
-5332 5331 103 0
-5332 -5331 -103 0
5332 -5331 103 0
5332 5331 -103 0
-5333 5332 104 0
-5333 -5332 -104 0
5333 -5332 104 0
5333 5332 -104 0
-5334 5333 106 0
-5334 -5333 -106 0
5334 -5333 106 0
5334 5333 -106 0
-5335 5334 109 0
-5335 -5334 -109 0
5335 -5334 109 0
5335 5334 -109 0
-5336 5335 112 0
-5336 -5335 -112 0
5336 -5335 112 0
5336 5335 -112 0
-5337 5336 114 0
-5337 -5336 -114 0
5337 -5336 114 0
5337 5336 -114 0
-5338 5337 117 0
-5338 -5337 -117 0
5338 -5337 117 0
5338 5337 -117 0
-5339 5338 120 0
-5339 -5338 -120 0
5339 -5338 120 0
5339 5338 -120 0
-5340 5339 122 0
-5340 -5339 -122 0
5340 -5339 122 0
5340 5339 -122 0
-5340 0
-5341 39 62 0
-5341 -39 -62 0
5341 -39 62 0
5341 39 -62 0
-5342 5341 67 0
-5342 -5341 -67 0
5342 -5341 67 0
5342 5341 -67 0
-5343 5342 94 0
-5343 -5342 -94 0
5343 -5342 94 0
5343 5342 -94 0
-5344 5343 95 0
-5344 -5343 -95 0
5344 -5343 95 0
5344 5343 -95 0
-5345 5344 99 0
-5345 -5344 -99 0
5345 -5344 99 0
5345 5344 -99 0
-5346 5345 100 0
-5346 -5345 -100 0
5346 -5345 100 0
5346 5345 -100 0
-5347 5346 104 0
-5347 -5346 -104 0
5347 -5346 104 0
5347 5346 -104 0
-5348 5347 105 0
-5348 -5347 -105 0
5348 -5347 105 0
5348 5347 -105 0
-5349 5348 107 0
-5349 -5348 -107 0
5349 -5348 107 0
5349 5348 -107 0
-5350 5349 109 0
-5350 -5349 -109 0
5350 -5349 109 0
5350 5349 -109 0
-5351 5350 110 0
-5351 -5350 -110 0
5351 -5350 110 0
5351 5350 -110 0
-5352 5351 113 0
-5352 -5351 -113 0
5352 -5351 113 0
5352 5351 -113 0
-5353 5352 115 0
-5353 -5352 -115 0
5353 -5352 115 0
5353 5352 -115 0
-5354 5353 118 0
-5354 -5353 -118 0
5354 -5353 118 0
5354 5353 -118 0
-5355 5354 123 0
-5355 -5354 -123 0
5355 -5354 123 0
5355 5354 -123 0
-5355 0
-5356 40 63 0
-5356 -40 -63 0
5356 -40 63 0
5356 40 -63 0
-5357 5356 68 0
-5357 -5356 -68 0
5357 -5356 68 0
5357 5356 -68 0
-5358 5357 95 0
-5358 -5357 -95 0
5358 -5357 95 0
5358 5357 -95 0
-5359 5358 96 0
-5359 -5358 -96 0
5359 -5358 96 0
5359 5358 -96 0
-5360 5359 100 0
-5360 -5359 -100 0
5360 -5359 100 0
5360 5359 -100 0
-5361 5360 101 0
-5361 -5360 -101 0
5361 -5360 101 0
5361 5360 -101 0
-5362 5361 105 0
-5362 -5361 -105 0
5362 -5361 105 0
5362 5361 -105 0
-5363 5362 106 0
-5363 -5362 -106 0
5363 -5362 106 0
5363 5362 -106 0
-5364 5363 108 0
-5364 -5363 -108 0
5364 -5363 108 0
5364 5363 -108 0
-5365 5364 110 0
-5365 -5364 -110 0
5365 -5364 110 0
5365 5364 -110 0
-5366 5365 111 0
-5366 -5365 -111 0
5366 -5365 111 0
5366 5365 -111 0
-5367 5366 114 0
-5367 -5366 -114 0
5367 -5366 114 0
5367 5366 -114 0
-5368 5367 116 0
-5368 -5367 -116 0
5368 -5367 116 0
5368 5367 -116 0
-5369 5368 119 0
-5369 -5368 -119 0
5369 -5368 119 0
5369 5368 -119 0
-5370 5369 124 0
-5370 -5369 -124 0
5370 -5369 124 0
5370 5369 -124 0
-5370 0
-5371 41 64 0
-5371 -41 -64 0
5371 -41 64 0
5371 41 -64 0
-5372 5371 69 0
-5372 -5371 -69 0
5372 -5371 69 0
5372 5371 -69 0
-5373 5372 91 0
-5373 -5372 -91 0
5373 -5372 91 0
5373 5372 -91 0
-5374 5373 96 0
-5374 -5373 -96 0
5374 -5373 96 0
5374 5373 -96 0
-5375 5374 101 0
-5375 -5374 -101 0
5375 -5374 101 0
5375 5374 -101 0
-5376 5375 102 0
-5376 -5375 -102 0
5376 -5375 102 0
5376 5375 -102 0
-5377 5376 103 0
-5377 -5376 -103 0
5377 -5376 103 0
5377 5376 -103 0
-5378 5377 106 0
-5378 -5377 -106 0
5378 -5377 106 0
5378 5377 -106 0
-5379 5378 107 0
-5379 -5378 -107 0
5379 -5378 107 0
5379 5378 -107 0
-5380 5379 109 0
-5380 -5379 -109 0
5380 -5379 109 0
5380 5379 -109 0
-5381 5380 111 0
-5381 -5380 -111 0
5381 -5380 111 0
5381 5380 -111 0
-5382 5381 112 0
-5382 -5381 -112 0
5382 -5381 112 0
5382 5381 -112 0
-5383 5382 117 0
-5383 -5382 -117 0
5383 -5382 117 0
5383 5382 -117 0
-5384 5383 120 0
-5384 -5383 -120 0
5384 -5383 120 0
5384 5383 -120 0
-5385 5384 125 0
-5385 -5384 -125 0
5385 -5384 125 0
5385 5384 -125 0
-5385 0
-5386 42 65 0
-5386 -42 -65 0
5386 -42 65 0
5386 42 -65 0
-5387 5386 70 0
-5387 -5386 -70 0
5387 -5386 70 0
5387 5386 -70 0
-5388 5387 91 0
-5388 -5387 -91 0
5388 -5387 91 0
5388 5387 -91 0
-5389 5388 92 0
-5389 -5388 -92 0
5389 -5388 92 0
5389 5388 -92 0
-5390 5389 97 0
-5390 -5389 -97 0
5390 -5389 97 0
5390 5389 -97 0
-5391 5390 102 0
-5391 -5390 -102 0
5391 -5390 102 0
5391 5390 -102 0
-5392 5391 104 0
-5392 -5391 -104 0
5392 -5391 104 0
5392 5391 -104 0
-5393 5392 107 0
-5393 -5392 -107 0
5393 -5392 107 0
5393 5392 -107 0
-5394 5393 108 0
-5394 -5393 -108 0
5394 -5393 108 0
5394 5393 -108 0
-5395 5394 110 0
-5395 -5394 -110 0
5395 -5394 110 0
5395 5394 -110 0
-5396 5395 112 0
-5396 -5395 -112 0
5396 -5395 112 0
5396 5395 -112 0
-5397 5396 113 0
-5397 -5396 -113 0
5397 -5396 113 0
5397 5396 -113 0
-5398 5397 115 0
-5398 -5397 -115 0
5398 -5397 115 0
5398 5397 -115 0
-5399 5398 118 0
-5399 -5398 -118 0
5399 -5398 118 0
5399 5398 -118 0
-5400 5399 126 0
-5400 -5399 -126 0
5400 -5399 126 0
5400 5399 -126 0
-5400 0
-5401 43 64 0
-5401 -43 -64 0
5401 -43 64 0
5401 43 -64 0
-5402 5401 69 0
-5402 -5401 -69 0
5402 -5401 69 0
5402 5401 -69 0
-5403 5402 72 0
-5403 -5402 -72 0
5403 -5402 72 0
5403 5402 -72 0
-5404 5403 98 0
-5404 -5403 -98 0
5404 -5403 98 0
5404 5403 -98 0
-5405 5404 99 0
-5405 -5404 -99 0
5405 -5404 99 0
5405 5404 -99 0
-5406 5405 103 0
-5406 -5405 -103 0
5406 -5405 103 0
5406 5405 -103 0
-5407 5406 104 0
-5407 -5406 -104 0
5407 -5406 104 0
5407 5406 -104 0
-5408 5407 109 0
-5408 -5407 -109 0
5408 -5407 109 0
5408 5407 -109 0
-5409 5408 111 0
-5409 -5408 -111 0
5409 -5408 111 0
5409 5408 -111 0
-5410 5409 114 0
-5410 -5409 -114 0
5410 -5409 114 0
5410 5409 -114 0
-5411 5410 117 0
-5411 -5410 -117 0
5411 -5410 117 0
5411 5410 -117 0
-5412 5411 122 0
-5412 -5411 -122 0
5412 -5411 122 0
5412 5411 -122 0
-5413 5412 125 0
-5413 -5412 -125 0
5413 -5412 125 0
5413 5412 -125 0
-5413 0
-5414 44 65 0
-5414 -44 -65 0
5414 -44 65 0
5414 44 -65 0
-5415 5414 67 0
-5415 -5414 -67 0
5415 -5414 67 0
5415 5414 -67 0
-5416 5415 70 0
-5416 -5415 -70 0
5416 -5415 70 0
5416 5415 -70 0
-5417 5416 99 0
-5417 -5416 -99 0
5417 -5416 99 0
5417 5416 -99 0
-5418 5417 100 0
-5418 -5417 -100 0
5418 -5417 100 0
5418 5417 -100 0
-5419 5418 104 0
-5419 -5418 -104 0
5419 -5418 104 0
5419 5418 -104 0
-5420 5419 105 0
-5420 -5419 -105 0
5420 -5419 105 0
5420 5419 -105 0
-5421 5420 109 0
-5421 -5420 -109 0
5421 -5420 109 0
5421 5420 -109 0
-5422 5421 110 0
-5422 -5421 -110 0
5422 -5421 110 0
5422 5421 -110 0
-5423 5422 112 0
-5423 -5422 -112 0
5423 -5422 112 0
5423 5422 -112 0
-5424 5423 118 0
-5424 -5423 -118 0
5424 -5423 118 0
5424 5423 -118 0
-5425 5424 123 0
-5425 -5424 -123 0
5425 -5424 123 0
5425 5424 -123 0
-5426 5425 126 0
-5426 -5425 -126 0
5426 -5425 126 0
5426 5425 -126 0
-5426 0
-5427 45 66 0
-5427 -45 -66 0
5427 -45 66 0
5427 45 -66 0
-5428 5427 68 0
-5428 -5427 -68 0
5428 -5427 68 0
5428 5427 -68 0
-5429 5428 71 0
-5429 -5428 -71 0
5429 -5428 71 0
5429 5428 -71 0
-5430 5429 100 0
-5430 -5429 -100 0
5430 -5429 100 0
5430 5429 -100 0
-5431 5430 101 0
-5431 -5430 -101 0
5431 -5430 101 0
5431 5430 -101 0
-5432 5431 105 0
-5432 -5431 -105 0
5432 -5431 105 0
5432 5431 -105 0
-5433 5432 106 0
-5433 -5432 -106 0
5433 -5432 106 0
5433 5432 -106 0
-5434 5433 110 0
-5434 -5433 -110 0
5434 -5433 110 0
5434 5433 -110 0
-5435 5434 111 0
-5435 -5434 -111 0
5435 -5434 111 0
5435 5434 -111 0
-5436 5435 113 0
-5436 -5435 -113 0
5436 -5435 113 0
5436 5435 -113 0
-5437 5436 119 0
-5437 -5436 -119 0
5437 -5436 119 0
5437 5436 -119 0
-5438 5437 121 0
-5438 -5437 -121 0
5438 -5437 121 0
5438 5437 -121 0
-5439 5438 124 0
-5439 -5438 -124 0
5439 -5438 124 0
5439 5438 -124 0
-5439 0
-5440 46 61 0
-5440 -46 -61 0
5440 -46 61 0
5440 46 -61 0
-5441 5440 69 0
-5441 -5440 -69 0
5441 -5440 69 0
5441 5440 -69 0
-5442 5441 72 0
-5442 -5441 -72 0
5442 -5441 72 0
5442 5441 -72 0
-5443 5442 101 0
-5443 -5442 -101 0
5443 -5442 101 0
5443 5442 -101 0
-5444 5443 102 0
-5444 -5443 -102 0
5444 -5443 102 0
5444 5443 -102 0
-5445 5444 106 0
-5445 -5444 -106 0
5445 -5444 106 0
5445 5444 -106 0
-5446 5445 107 0
-5446 -5445 -107 0
5446 -5445 107 0
5446 5445 -107 0
-5447 5446 111 0
-5447 -5446 -111 0
5447 -5446 111 0
5447 5446 -111 0
-5448 5447 112 0
-5448 -5447 -112 0
5448 -5447 112 0
5448 5447 -112 0
-5449 5448 114 0
-5449 -5448 -114 0
5449 -5448 114 0
5449 5448 -114 0
-5450 5449 120 0
-5450 -5449 -120 0
5450 -5449 120 0
5450 5449 -120 0
-5451 5450 122 0
-5451 -5450 -122 0
5451 -5450 122 0
5451 5450 -122 0
-5452 5451 125 0
-5452 -5451 -125 0
5452 -5451 125 0
5452 5451 -125 0
-5452 0
-5453 47 62 0
-5453 -47 -62 0
5453 -47 62 0
5453 47 -62 0
-5454 5453 67 0
-5454 -5453 -67 0
5454 -5453 67 0
5454 5453 -67 0
-5455 5454 70 0
-5455 -5454 -70 0
5455 -5454 70 0
5455 5454 -70 0
-5456 5455 97 0
-5456 -5455 -97 0
5456 -5455 97 0
5456 5455 -97 0
-5457 5456 102 0
-5457 -5456 -102 0
5457 -5456 102 0
5457 5456 -102 0
-5458 5457 107 0
-5458 -5457 -107 0
5458 -5457 107 0
5458 5457 -107 0
-5459 5458 108 0
-5459 -5458 -108 0
5459 -5458 108 0
5459 5458 -108 0
-5460 5459 109 0
-5460 -5459 -109 0
5460 -5459 109 0
5460 5459 -109 0
-5461 5460 112 0
-5461 -5460 -112 0
5461 -5460 112 0
5461 5460 -112 0
-5462 5461 113 0
-5462 -5461 -113 0
5462 -5461 113 0
5462 5461 -113 0
-5463 5462 115 0
-5463 -5462 -115 0
5463 -5462 115 0
5463 5462 -115 0
-5464 5463 123 0
-5464 -5463 -123 0
5464 -5463 123 0
5464 5463 -123 0
-5465 5464 126 0
-5465 -5464 -126 0
5465 -5464 126 0
5465 5464 -126 0
-5465 0
-5466 48 63 0
-5466 -48 -63 0
5466 -48 63 0
5466 48 -63 0
-5467 5466 68 0
-5467 -5466 -68 0
5467 -5466 68 0
5467 5466 -68 0
-5468 5467 71 0
-5468 -5467 -71 0
5468 -5467 71 0
5468 5467 -71 0
-5469 5468 97 0
-5469 -5468 -97 0
5469 -5468 97 0
5469 5468 -97 0
-5470 5469 98 0
-5470 -5469 -98 0
5470 -5469 98 0
5470 5469 -98 0
-5471 5470 103 0
-5471 -5470 -103 0
5471 -5470 103 0
5471 5470 -103 0
-5472 5471 108 0
-5472 -5471 -108 0
5472 -5471 108 0
5472 5471 -108 0
-5473 5472 110 0
-5473 -5472 -110 0
5473 -5472 110 0
5473 5472 -110 0
-5474 5473 113 0
-5474 -5473 -113 0
5474 -5473 113 0
5474 5473 -113 0
-5475 5474 114 0
-5475 -5474 -114 0
5475 -5474 114 0
5475 5474 -114 0
-5476 5475 116 0
-5476 -5475 -116 0
5476 -5475 116 0
5476 5475 -116 0
-5477 5476 121 0
-5477 -5476 -121 0
5477 -5476 121 0
5477 5476 -121 0
-5478 5477 124 0
-5478 -5477 -124 0
5478 -5477 124 0
5478 5477 -124 0
-5478 0
-5479 49 62 0
-5479 -49 -62 0
5479 -49 62 0
5479 49 -62 0
-5480 5479 65 0
-5480 -5479 -65 0
5480 -5479 65 0
5480 5479 -65 0
-5481 5480 67 0
-5481 -5480 -67 0
5481 -5480 67 0
5481 5480 -67 0
-5482 5481 104 0
-5482 -5481 -104 0
5482 -5481 104 0
5482 5481 -104 0
-5483 5482 105 0
-5483 -5482 -105 0
5483 -5482 105 0
5483 5482 -105 0
-5484 5483 109 0
-5484 -5483 -109 0
5484 -5483 109 0
5484 5483 -109 0
-5485 5484 110 0
-5485 -5484 -110 0
5485 -5484 110 0
5485 5484 -110 0
-5486 5485 118 0
-5486 -5485 -118 0
5486 -5485 118 0
5486 5485 -118 0
-5487 5486 123 0
-5487 -5486 -123 0
5487 -5486 123 0
5487 5486 -123 0
-5487 0
-5488 50 63 0
-5488 -50 -63 0
5488 -50 63 0
5488 50 -63 0
-5489 5488 66 0
-5489 -5488 -66 0
5489 -5488 66 0
5489 5488 -66 0
-5490 5489 68 0
-5490 -5489 -68 0
5490 -5489 68 0
5490 5489 -68 0
-5491 5490 105 0
-5491 -5490 -105 0
5491 -5490 105 0
5491 5490 -105 0
-5492 5491 106 0
-5492 -5491 -106 0
5492 -5491 106 0
5492 5491 -106 0
-5493 5492 110 0
-5493 -5492 -110 0
5493 -5492 110 0
5493 5492 -110 0
-5494 5493 111 0
-5494 -5493 -111 0
5494 -5493 111 0
5494 5493 -111 0
-5495 5494 119 0
-5495 -5494 -119 0
5495 -5494 119 0
5495 5494 -119 0
-5496 5495 124 0
-5496 -5495 -124 0
5496 -5495 124 0
5496 5495 -124 0
-5496 0
-5497 51 61 0
-5497 -51 -61 0
5497 -51 61 0
5497 51 -61 0
-5498 5497 64 0
-5498 -5497 -64 0
5498 -5497 64 0
5498 5497 -64 0
-5499 5498 69 0
-5499 -5498 -69 0
5499 -5498 69 0
5499 5498 -69 0
-5500 5499 106 0
-5500 -5499 -106 0
5500 -5499 106 0
5500 5499 -106 0
-5501 5500 107 0
-5501 -5500 -107 0
5501 -5500 107 0
5501 5500 -107 0
-5502 5501 111 0
-5502 -5501 -111 0
5502 -5501 111 0
5502 5501 -111 0
-5503 5502 112 0
-5503 -5502 -112 0
5503 -5502 112 0
5503 5502 -112 0
-5504 5503 120 0
-5504 -5503 -120 0
5504 -5503 120 0
5504 5503 -120 0
-5505 5504 125 0
-5505 -5504 -125 0
5505 -5504 125 0
5505 5504 -125 0
-5505 0
-5506 52 62 0
-5506 -52 -62 0
5506 -52 62 0
5506 52 -62 0
-5507 5506 65 0
-5507 -5506 -65 0
5507 -5506 65 0
5507 5506 -65 0
-5508 5507 70 0
-5508 -5507 -70 0
5508 -5507 70 0
5508 5507 -70 0
-5509 5508 107 0
-5509 -5508 -107 0
5509 -5508 107 0
5509 5508 -107 0
-5510 5509 108 0
-5510 -5509 -108 0
5510 -5509 108 0
5510 5509 -108 0
-5511 5510 112 0
-5511 -5510 -112 0
5511 -5510 112 0
5511 5510 -112 0
-5512 5511 113 0
-5512 -5511 -113 0
5512 -5511 113 0
5512 5511 -113 0
-5513 5512 115 0
-5513 -5512 -115 0
5513 -5512 115 0
5513 5512 -115 0
-5514 5513 126 0
-5514 -5513 -126 0
5514 -5513 126 0
5514 5513 -126 0
-5514 0
-5515 53 63 0
-5515 -53 -63 0
5515 -53 63 0
5515 53 -63 0
-5516 5515 66 0
-5516 -5515 -66 0
5516 -5515 66 0
5516 5515 -66 0
-5517 5516 71 0
-5517 -5516 -71 0
5517 -5516 71 0
5517 5516 -71 0
-5518 5517 103 0
-5518 -5517 -103 0
5518 -5517 103 0
5518 5517 -103 0
-5519 5518 108 0
-5519 -5518 -108 0
5519 -5518 108 0
5519 5518 -108 0
-5520 5519 113 0
-5520 -5519 -113 0
5520 -5519 113 0
5520 5519 -113 0
-5521 5520 114 0
-5521 -5520 -114 0
5521 -5520 114 0
5521 5520 -114 0
-5522 5521 116 0
-5522 -5521 -116 0
5522 -5521 116 0
5522 5521 -116 0
-5523 5522 121 0
-5523 -5522 -121 0
5523 -5522 121 0
5523 5522 -121 0
-5523 0
-5524 54 61 0
-5524 -54 -61 0
5524 -54 61 0
5524 54 -61 0
-5525 5524 64 0
-5525 -5524 -64 0
5525 -5524 64 0
5525 5524 -64 0
-5526 5525 72 0
-5526 -5525 -72 0
5526 -5525 72 0
5526 5525 -72 0
-5527 5526 103 0
-5527 -5526 -103 0
5527 -5526 103 0
5527 5526 -103 0
-5528 5527 104 0
-5528 -5527 -104 0
5528 -5527 104 0
5528 5527 -104 0
-5529 5528 109 0
-5529 -5528 -109 0
5529 -5528 109 0
5529 5528 -109 0
-5530 5529 114 0
-5530 -5529 -114 0
5530 -5529 114 0
5530 5529 -114 0
-5531 5530 117 0
-5531 -5530 -117 0
5531 -5530 117 0
5531 5530 -117 0
-5532 5531 122 0
-5532 -5531 -122 0
5532 -5531 122 0
5532 5531 -122 0
-5532 0
-5533 55 66 0
-5533 -55 -66 0
5533 -55 66 0
5533 55 -66 0
-5534 5533 68 0
-5534 -5533 -68 0
5534 -5533 68 0
5534 5533 -68 0
-5535 5534 110 0
-5535 -5534 -110 0
5535 -5534 110 0
5535 5534 -110 0
-5536 5535 111 0
-5536 -5535 -111 0
5536 -5535 111 0
5536 5535 -111 0
-5537 5536 124 0
-5537 -5536 -124 0
5537 -5536 124 0
5537 5536 -124 0
-5537 0
-5538 56 61 0
-5538 -56 -61 0
5538 -56 61 0
5538 56 -61 0
-5539 5538 69 0
-5539 -5538 -69 0
5539 -5538 69 0
5539 5538 -69 0
-5540 5539 111 0
-5540 -5539 -111 0
5540 -5539 111 0
5540 5539 -111 0
-5541 5540 112 0
-5541 -5540 -112 0
5541 -5540 112 0
5541 5540 -112 0
-5542 5541 125 0
-5542 -5541 -125 0
5542 -5541 125 0
5542 5541 -125 0
-5542 0
-5543 57 62 0
-5543 -57 -62 0
5543 -57 62 0
5543 57 -62 0
-5544 5543 70 0
-5544 -5543 -70 0
5544 -5543 70 0
5544 5543 -70 0
-5545 5544 112 0
-5545 -5544 -112 0
5545 -5544 112 0
5545 5544 -112 0
-5546 5545 113 0
-5546 -5545 -113 0
5546 -5545 113 0
5546 5545 -113 0
-5547 5546 126 0
-5547 -5546 -126 0
5547 -5546 126 0
5547 5546 -126 0
-5547 0
-5548 58 63 0
-5548 -58 -63 0
5548 -58 63 0
5548 58 -63 0
-5549 5548 71 0
-5549 -5548 -71 0
5549 -5548 71 0
5549 5548 -71 0
-5550 5549 113 0
-5550 -5549 -113 0
5550 -5549 113 0
5550 5549 -113 0
-5551 5550 114 0
-5551 -5550 -114 0
5551 -5550 114 0
5551 5550 -114 0
-5552 5551 121 0
-5552 -5551 -121 0
5552 -5551 121 0
5552 5551 -121 0
-5552 0
-5553 59 64 0
-5553 -59 -64 0
5553 -59 64 0
5553 59 -64 0
-5554 5553 72 0
-5554 -5553 -72 0
5554 -5553 72 0
5554 5553 -72 0
-5555 5554 109 0
-5555 -5554 -109 0
5555 -5554 109 0
5555 5554 -109 0
-5556 5555 114 0
-5556 -5555 -114 0
5556 -5555 114 0
5556 5555 -114 0
-5557 5556 122 0
-5557 -5556 -122 0
5557 -5556 122 0
5557 5556 -122 0
-5557 0
-5558 60 65 0
-5558 -60 -65 0
5558 -60 65 0
5558 60 -65 0
-5559 5558 67 0
-5559 -5558 -67 0
5559 -5558 67 0
5559 5558 -67 0
-5560 5559 109 0
-5560 -5559 -109 0
5560 -5559 109 0
5560 5559 -109 0
-5561 5560 110 0
-5561 -5560 -110 0
5561 -5560 110 0
5561 5560 -110 0
-5562 5561 123 0
-5562 -5561 -123 0
5562 -5561 123 0
5562 5561 -123 0
-5562 0
-5563 73 83 0
-5563 -73 -83 0
5563 -73 83 0
5563 73 -83 0
-5564 5563 86 0
-5564 -5563 -86 0
5564 -5563 86 0
5564 5563 -86 0
-5565 5564 88 0
-5565 -5564 -88 0
5565 -5564 88 0
5565 5564 -88 0
-5566 5565 91 0
-5566 -5565 -91 0
5566 -5565 91 0
5566 5565 -91 0
-5567 5566 93 0
-5567 -5566 -93 0
5567 -5566 93 0
5567 5566 -93 0
-5568 5567 96 0
-5568 -5567 -96 0
5568 -5567 96 0
5568 5567 -96 0
-5569 5568 98 0
-5569 -5568 -98 0
5569 -5568 98 0
5569 5568 -98 0
-5570 5569 99 0
-5570 -5569 -99 0
5570 -5569 99 0
5570 5569 -99 0
-5571 5570 102 0
-5571 -5570 -102 0
5571 -5570 102 0
5571 5570 -102 0
-5572 5571 106 0
-5572 -5571 -106 0
5572 -5571 106 0
5572 5571 -106 0
-5573 5572 107 0
-5573 -5572 -107 0
5573 -5572 107 0
5573 5572 -107 0
-5574 5573 109 0
-5574 -5573 -109 0
5574 -5573 109 0
5574 5573 -109 0
-5575 5574 119 0
-5575 -5574 -119 0
5575 -5574 119 0
5575 5574 -119 0
-5576 5575 122 0
-5576 -5575 -122 0
5576 -5575 122 0
5576 5575 -122 0
-5577 5576 124 0
-5577 -5576 -124 0
5577 -5576 124 0
5577 5576 -124 0
-5578 5577 127 0
-5578 -5577 -127 0
5578 -5577 127 0
5578 5577 -127 0
-5579 5578 129 0
-5579 -5578 -129 0
5579 -5578 129 0
5579 5578 -129 0
-5580 5579 132 0
-5580 -5579 -132 0
5580 -5579 132 0
5580 5579 -132 0
-5581 5580 134 0
-5581 -5580 -134 0
5581 -5580 134 0
5581 5580 -134 0
-5582 5581 135 0
-5582 -5581 -135 0
5582 -5581 135 0
5582 5581 -135 0
-5583 5582 138 0
-5583 -5582 -138 0
5583 -5582 138 0
5583 5582 -138 0
-5584 5583 142 0
-5584 -5583 -142 0
5584 -5583 142 0
5584 5583 -142 0
-5585 5584 143 0
-5585 -5584 -143 0
5585 -5584 143 0
5585 5584 -143 0
-5585 0
-5586 74 84 0
-5586 -74 -84 0
5586 -74 84 0
5586 74 -84 0
-5587 5586 87 0
-5587 -5586 -87 0
5587 -5586 87 0
5587 5586 -87 0
-5588 5587 89 0
-5588 -5587 -89 0
5588 -5587 89 0
5588 5587 -89 0
-5589 5588 91 0
-5589 -5588 -91 0
5589 -5588 91 0
5589 5588 -91 0
-5590 5589 92 0
-5590 -5589 -92 0
5590 -5589 92 0
5590 5589 -92 0
-5591 5590 94 0
-5591 -5590 -94 0
5591 -5590 94 0
5591 5590 -94 0
-5592 5591 97 0
-5592 -5591 -97 0
5592 -5591 97 0
5592 5591 -97 0
-5593 5592 99 0
-5593 -5592 -99 0
5593 -5592 99 0
5593 5592 -99 0
-5594 5593 100 0
-5594 -5593 -100 0
5594 -5593 100 0
5594 5593 -100 0
-5595 5594 107 0
-5595 -5594 -107 0
5595 -5594 107 0
5595 5594 -107 0
-5596 5595 108 0
-5596 -5595 -108 0
5596 -5595 108 0
5596 5595 -108 0
-5597 5596 110 0
-5597 -5596 -110 0
5597 -5596 110 0
5597 5596 -110 0
-5598 5597 120 0
-5598 -5597 -120 0
5598 -5597 120 0
5598 5597 -120 0
-5599 5598 123 0
-5599 -5598 -123 0
5599 -5598 123 0
5599 5598 -123 0
-5600 5599 125 0
-5600 -5599 -125 0
5600 -5599 125 0
5600 5599 -125 0
-5601 5600 127 0
-5601 -5600 -127 0
5601 -5600 127 0
5601 5600 -127 0
-5602 5601 128 0
-5602 -5601 -128 0
5602 -5601 128 0
5602 5601 -128 0
-5603 5602 130 0
-5603 -5602 -130 0
5603 -5602 130 0
5603 5602 -130 0
-5604 5603 133 0
-5604 -5603 -133 0
5604 -5603 133 0
5604 5603 -133 0
-5605 5604 135 0
-5605 -5604 -135 0
5605 -5604 135 0
5605 5604 -135 0
-5606 5605 136 0
-5606 -5605 -136 0
5606 -5605 136 0
5606 5605 -136 0
-5607 5606 143 0
-5607 -5606 -143 0
5607 -5606 143 0
5607 5606 -143 0
-5608 5607 144 0
-5608 -5607 -144 0
5608 -5607 144 0
5608 5607 -144 0
-5608 0
-5609 75 83 0
-5609 -75 -83 0
5609 -75 83 0
5609 75 -83 0
-5610 5609 84 0
-5610 -5609 -84 0
5610 -5609 84 0
5610 5609 -84 0
-5611 5610 89 0
-5611 -5610 -89 0
5611 -5610 89 0
5611 5610 -89 0
-5612 5611 91 0
-5612 -5611 -91 0
5612 -5611 91 0
5612 5611 -91 0
-5613 5612 94 0
-5613 -5612 -94 0
5613 -5612 94 0
5613 5612 -94 0
-5614 5613 96 0
-5614 -5613 -96 0
5614 -5613 96 0
5614 5613 -96 0
-5615 5614 99 0
-5615 -5614 -99 0
5615 -5614 99 0
5615 5614 -99 0
-5616 5615 101 0
-5616 -5615 -101 0
5616 -5615 101 0
5616 5615 -101 0
-5617 5616 103 0
-5617 -5616 -103 0
5617 -5616 103 0
5617 5616 -103 0
-5618 5617 106 0
-5618 -5617 -106 0
5618 -5617 106 0
5618 5617 -106 0
-5619 5618 107 0
-5619 -5618 -107 0
5619 -5618 107 0
5619 5618 -107 0
-5620 5619 111 0
-5620 -5619 -111 0
5620 -5619 111 0
5620 5619 -111 0
-5621 5620 119 0
-5621 -5620 -119 0
5621 -5620 119 0
5621 5620 -119 0
-5622 5621 120 0
-5622 -5621 -120 0
5622 -5621 120 0
5622 5621 -120 0
-5623 5622 125 0
-5623 -5622 -125 0
5623 -5622 125 0
5623 5622 -125 0
-5624 5623 127 0
-5624 -5623 -127 0
5624 -5623 127 0
5624 5623 -127 0
-5625 5624 130 0
-5625 -5624 -130 0
5625 -5624 130 0
5625 5624 -130 0
-5626 5625 132 0
-5626 -5625 -132 0
5626 -5625 132 0
5626 5625 -132 0
-5627 5626 135 0
-5627 -5626 -135 0
5627 -5626 135 0
5627 5626 -135 0
-5628 5627 137 0
-5628 -5627 -137 0
5628 -5627 137 0
5628 5627 -137 0
-5629 5628 139 0
-5629 -5628 -139 0
5629 -5628 139 0
5629 5628 -139 0
-5630 5629 142 0
-5630 -5629 -142 0
5630 -5629 142 0
5630 5629 -142 0
-5631 5630 143 0
-5631 -5630 -143 0
5631 -5630 143 0
5631 5630 -143 0
-5631 0
-5632 76 83 0
-5632 -76 -83 0
5632 -76 83 0
5632 76 -83 0
-5633 5632 88 0
-5633 -5632 -88 0
5633 -5632 88 0
5633 5632 -88 0
-5634 5633 89 0
-5634 -5633 -89 0
5634 -5633 89 0
5634 5633 -89 0
-5635 5634 93 0
-5635 -5634 -93 0
5635 -5634 93 0
5635 5634 -93 0
-5636 5635 94 0
-5636 -5635 -94 0
5636 -5635 94 0
5636 5635 -94 0
-5637 5636 96 0
-5637 -5636 -96 0
5637 -5636 96 0
5637 5636 -96 0
-5638 5637 98 0
-5638 -5637 -98 0
5638 -5637 98 0
5638 5637 -98 0
-5639 5638 99 0
-5639 -5638 -99 0
5639 -5638 99 0
5639 5638 -99 0
-5640 5639 102 0
-5640 -5639 -102 0
5640 -5639 102 0
5640 5639 -102 0
-5641 5640 104 0
-5641 -5640 -104 0
5641 -5640 104 0
5641 5640 -104 0
-5642 5641 106 0
-5642 -5641 -106 0
5642 -5641 106 0
5642 5641 -106 0
-5643 5642 112 0
-5643 -5642 -112 0
5643 -5642 112 0
5643 5642 -112 0
-5644 5643 119 0
-5644 -5643 -119 0
5644 -5643 119 0
5644 5643 -119 0
-5645 5644 124 0
-5645 -5644 -124 0
5645 -5644 124 0
5645 5644 -124 0
-5646 5645 125 0
-5646 -5645 -125 0
5646 -5645 125 0
5646 5645 -125 0
-5647 5646 129 0
-5647 -5646 -129 0
5647 -5646 129 0
5647 5646 -129 0
-5648 5647 130 0
-5648 -5647 -130 0
5648 -5647 130 0
5648 5647 -130 0
-5649 5648 132 0
-5649 -5648 -132 0
5649 -5648 132 0
5649 5648 -132 0
-5650 5649 134 0
-5650 -5649 -134 0
5650 -5649 134 0
5650 5649 -134 0
-5651 5650 135 0
-5651 -5650 -135 0
5651 -5650 135 0
5651 5650 -135 0
-5652 5651 138 0
-5652 -5651 -138 0
5652 -5651 138 0
5652 5651 -138 0
-5653 5652 140 0
-5653 -5652 -140 0
5653 -5652 140 0
5653 5652 -140 0
-5654 5653 142 0
-5654 -5653 -142 0
5654 -5653 142 0
5654 5653 -142 0
-5654 0
-5655 77 84 0
-5655 -77 -84 0
5655 -77 84 0
5655 77 -84 0
-5656 5655 89 0
-5656 -5655 -89 0
5656 -5655 89 0
5656 5655 -89 0
-5657 5656 90 0
-5657 -5656 -90 0
5657 -5656 90 0
5657 5656 -90 0
-5658 5657 91 0
-5658 -5657 -91 0
5658 -5657 91 0
5658 5657 -91 0
-5659 5658 94 0
-5659 -5658 -94 0
5659 -5658 94 0
5659 5658 -94 0
-5660 5659 95 0
-5660 -5659 -95 0
5660 -5659 95 0
5660 5659 -95 0
-5661 5660 97 0
-5661 -5660 -97 0
5661 -5660 97 0
5661 5660 -97 0
-5662 5661 99 0
-5662 -5661 -99 0
5662 -5661 99 0
5662 5661 -99 0
-5663 5662 100 0
-5663 -5662 -100 0
5663 -5662 100 0
5663 5662 -100 0
-5664 5663 105 0
-5664 -5663 -105 0
5664 -5663 105 0
5664 5663 -105 0
-5665 5664 107 0
-5665 -5664 -107 0
5665 -5664 107 0
5665 5664 -107 0
-5666 5665 113 0
-5666 -5665 -113 0
5666 -5665 113 0
5666 5665 -113 0
-5667 5666 120 0
-5667 -5666 -120 0
5667 -5666 120 0
5667 5666 -120 0
-5668 5667 125 0
-5668 -5667 -125 0
5668 -5667 125 0
5668 5667 -125 0
-5669 5668 126 0
-5669 -5668 -126 0
5669 -5668 126 0
5669 5668 -126 0
-5670 5669 127 0
-5670 -5669 -127 0
5670 -5669 127 0
5670 5669 -127 0
-5671 5670 130 0
-5671 -5670 -130 0
5671 -5670 130 0
5671 5670 -130 0
-5672 5671 131 0
-5672 -5671 -131 0
5672 -5671 131 0
5672 5671 -131 0
-5673 5672 133 0
-5673 -5672 -133 0
5673 -5672 133 0
5673 5672 -133 0
-5674 5673 135 0
-5674 -5673 -135 0
5674 -5673 135 0
5674 5673 -135 0
-5675 5674 136 0
-5675 -5674 -136 0
5675 -5674 136 0
5675 5674 -136 0
-5676 5675 141 0
-5676 -5675 -141 0
5676 -5675 141 0
5676 5675 -141 0
-5677 5676 143 0
-5677 -5676 -143 0
5677 -5676 143 0
5677 5676 -143 0
-5677 0
-5678 78 83 0
-5678 -78 -83 0
5678 -78 83 0
5678 78 -83 0
-5679 5678 84 0
-5679 -5678 -84 0
5679 -5678 84 0
5679 5678 -84 0
-5680 5679 85 0
-5680 -5679 -85 0
5680 -5679 85 0
5680 5679 -85 0
-5681 5680 88 0
-5681 -5680 -88 0
5681 -5680 88 0
5681 5680 -88 0
-5682 5681 89 0
-5682 -5681 -89 0
5682 -5681 89 0
5682 5681 -89 0
-5683 5682 91 0
-5683 -5682 -91 0
5683 -5682 91 0
5683 5682 -91 0
-5684 5683 93 0
-5684 -5683 -93 0
5684 -5683 93 0
5684 5683 -93 0
-5685 5684 94 0
-5685 -5684 -94 0
5685 -5684 94 0
5685 5684 -94 0
-5686 5685 99 0
-5686 -5685 -99 0
5686 -5685 99 0
5686 5685 -99 0
-5687 5686 101 0
-5687 -5686 -101 0
5687 -5686 101 0
5687 5686 -101 0
-5688 5687 107 0
-5688 -5687 -107 0
5688 -5687 107 0
5688 5687 -107 0
-5689 5688 114 0
-5689 -5688 -114 0
5689 -5688 114 0
5689 5688 -114 0
-5690 5689 119 0
-5690 -5689 -119 0
5690 -5689 119 0
5690 5689 -119 0
-5691 5690 120 0
-5691 -5690 -120 0
5691 -5690 120 0
5691 5690 -120 0
-5692 5691 121 0
-5692 -5691 -121 0
5692 -5691 121 0
5692 5691 -121 0
-5693 5692 124 0
-5693 -5692 -124 0
5693 -5692 124 0
5693 5692 -124 0
-5694 5693 125 0
-5694 -5693 -125 0
5694 -5693 125 0
5694 5693 -125 0
-5695 5694 127 0
-5695 -5694 -127 0
5695 -5694 127 0
5695 5694 -127 0
-5696 5695 129 0
-5696 -5695 -129 0
5696 -5695 129 0
5696 5695 -129 0
-5697 5696 130 0
-5697 -5696 -130 0
5697 -5696 130 0
5697 5696 -130 0
-5698 5697 135 0
-5698 -5697 -135 0
5698 -5697 135 0
5698 5697 -135 0
-5699 5698 137 0
-5699 -5698 -137 0
5699 -5698 137 0
5699 5698 -137 0
-5700 5699 143 0
-5700 -5699 -143 0
5700 -5699 143 0
5700 5699 -143 0
-5700 0
-5701 79 83 0
-5701 -79 -83 0
5701 -79 83 0
5701 79 -83 0
-5702 5701 84 0
-5702 -5701 -84 0
5702 -5701 84 0
5702 5701 -84 0
-5703 5702 88 0
-5703 -5702 -88 0
5703 -5702 88 0
5703 5702 -88 0
-5704 5703 89 0
-5704 -5703 -89 0
5704 -5703 89 0
5704 5703 -89 0
-5705 5704 90 0
-5705 -5704 -90 0
5705 -5704 90 0
5705 5704 -90 0
-5706 5705 91 0
-5706 -5705 -91 0
5706 -5705 91 0
5706 5705 -91 0
-5707 5706 92 0
-5707 -5706 -92 0
5707 -5706 92 0
5707 5706 -92 0
-5708 5707 93 0
-5708 -5707 -93 0
5708 -5707 93 0
5708 5707 -93 0
-5709 5708 94 0
-5709 -5708 -94 0
5709 -5708 94 0
5709 5708 -94 0
-5710 5709 95 0
-5710 -5709 -95 0
5710 -5709 95 0
5710 5709 -95 0
-5711 5710 96 0
-5711 -5710 -96 0
5711 -5710 96 0
5711 5710 -96 0
-5712 5711 98 0
-5712 -5711 -98 0
5712 -5711 98 0
5712 5711 -98 0
-5713 5712 99 0
-5713 -5712 -99 0
5713 -5712 99 0
5713 5712 -99 0
-5714 5713 100 0
-5714 -5713 -100 0
5714 -5713 100 0
5714 5713 -100 0
-5715 5714 106 0
-5715 -5714 -106 0
5715 -5714 106 0
5715 5714 -106 0
-5716 5715 107 0
-5716 -5715 -107 0
5716 -5715 107 0
5716 5715 -107 0
-5717 5716 108 0
-5717 -5716 -108 0
5717 -5716 108 0
5717 5716 -108 0
-5718 5717 115 0
-5718 -5717 -115 0
5718 -5717 115 0
5718 5717 -115 0
-5719 5718 119 0
-5719 -5718 -119 0
5719 -5718 119 0
5719 5718 -119 0
-5720 5719 120 0
-5720 -5719 -120 0
5720 -5719 120 0
5720 5719 -120 0
-5721 5720 124 0
-5721 -5720 -124 0
5721 -5720 124 0
5721 5720 -124 0
-5722 5721 125 0
-5722 -5721 -125 0
5722 -5721 125 0
5722 5721 -125 0
-5723 5722 126 0
-5723 -5722 -126 0
5723 -5722 126 0
5723 5722 -126 0
-5724 5723 127 0
-5724 -5723 -127 0
5724 -5723 127 0
5724 5723 -127 0
-5725 5724 128 0
-5725 -5724 -128 0
5725 -5724 128 0
5725 5724 -128 0
-5726 5725 129 0
-5726 -5725 -129 0
5726 -5725 129 0
5726 5725 -129 0
-5727 5726 130 0
-5727 -5726 -130 0
5727 -5726 130 0
5727 5726 -130 0
-5728 5727 131 0
-5728 -5727 -131 0
5728 -5727 131 0
5728 5727 -131 0
-5729 5728 132 0
-5729 -5728 -132 0
5729 -5728 132 0
5729 5728 -132 0
-5730 5729 134 0
-5730 -5729 -134 0
5730 -5729 134 0
5730 5729 -134 0
-5731 5730 135 0
-5731 -5730 -135 0
5731 -5730 135 0
5731 5730 -135 0
-5732 5731 136 0
-5732 -5731 -136 0
5732 -5731 136 0
5732 5731 -136 0
-5733 5732 142 0
-5733 -5732 -142 0
5733 -5732 142 0
5733 5732 -142 0
-5734 5733 143 0
-5734 -5733 -143 0
5734 -5733 143 0
5734 5733 -143 0
-5735 5734 144 0
-5735 -5734 -144 0
5735 -5734 144 0
5735 5734 -144 0
-5735 0
-5736 80 83 0
-5736 -80 -83 0
5736 -80 83 0
5736 80 -83 0
-5737 5736 85 0
-5737 -5736 -85 0
5737 -5736 85 0
5737 5736 -85 0
-5738 5737 88 0
-5738 -5737 -88 0
5738 -5737 88 0
5738 5737 -88 0
-5739 5738 98 0
-5739 -5738 -98 0
5739 -5738 98 0
5739 5738 -98 0
-5740 5739 101 0
-5740 -5739 -101 0
5740 -5739 101 0
5740 5739 -101 0
-5741 5740 103 0
-5741 -5740 -103 0
5741 -5740 103 0
5741 5740 -103 0
-5742 5741 106 0
-5742 -5741 -106 0
5742 -5741 106 0
5742 5741 -106 0
-5743 5742 116 0
-5743 -5742 -116 0
5743 -5742 116 0
5743 5742 -116 0
-5744 5743 119 0
-5744 -5743 -119 0
5744 -5743 119 0
5744 5743 -119 0
-5745 5744 121 0
-5745 -5744 -121 0
5745 -5744 121 0
5745 5744 -121 0
-5746 5745 124 0
-5746 -5745 -124 0
5746 -5745 124 0
5746 5745 -124 0
-5747 5746 134 0
-5747 -5746 -134 0
5747 -5746 134 0
5747 5746 -134 0
-5748 5747 137 0
-5748 -5747 -137 0
5748 -5747 137 0
5748 5747 -137 0
-5749 5748 139 0
-5749 -5748 -139 0
5749 -5748 139 0
5749 5748 -139 0
-5750 5749 142 0
-5750 -5749 -142 0
5750 -5749 142 0
5750 5749 -142 0
-5750 0
-5751 81 84 0
-5751 -81 -84 0
5751 -81 84 0
5751 81 -84 0
-5752 5751 86 0
-5752 -5751 -86 0
5752 -5751 86 0
5752 5751 -86 0
-5753 5752 89 0
-5753 -5752 -89 0
5753 -5752 89 0
5753 5752 -89 0
-5754 5753 99 0
-5754 -5753 -99 0
5754 -5753 99 0
5754 5753 -99 0
-5755 5754 102 0
-5755 -5754 -102 0
5755 -5754 102 0
5755 5754 -102 0
-5756 5755 104 0
-5756 -5755 -104 0
5756 -5755 104 0
5756 5755 -104 0
-5757 5756 107 0
-5757 -5756 -107 0
5757 -5756 107 0
5757 5756 -107 0
-5758 5757 117 0
-5758 -5757 -117 0
5758 -5757 117 0
5758 5757 -117 0
-5759 5758 120 0
-5759 -5758 -120 0
5759 -5758 120 0
5759 5758 -120 0
-5760 5759 122 0
-5760 -5759 -122 0
5760 -5759 122 0
5760 5759 -122 0
-5761 5760 125 0
-5761 -5760 -125 0
5761 -5760 125 0
5761 5760 -125 0
-5762 5761 135 0
-5762 -5761 -135 0
5762 -5761 135 0
5762 5761 -135 0
-5763 5762 138 0
-5763 -5762 -138 0
5763 -5762 138 0
5763 5762 -138 0
-5764 5763 140 0
-5764 -5763 -140 0
5764 -5763 140 0
5764 5763 -140 0
-5765 5764 143 0
-5765 -5764 -143 0
5765 -5764 143 0
5765 5764 -143 0
-5765 0
-5766 82 83 0
-5766 -82 -83 0
5766 -82 83 0
5766 82 -83 0
-5767 5766 84 0
-5767 -5766 -84 0
5767 -5766 84 0
5767 5766 -84 0
-5768 5767 87 0
-5768 -5767 -87 0
5768 -5767 87 0
5768 5767 -87 0
-5769 5768 88 0
-5769 -5768 -88 0
5769 -5768 88 0
5769 5768 -88 0
-5770 5769 89 0
-5770 -5769 -89 0
5770 -5769 89 0
5770 5769 -89 0
-5771 5770 91 0
-5771 -5770 -91 0
5771 -5770 91 0
5771 5770 -91 0
-5772 5771 92 0
-5772 -5771 -92 0
5772 -5771 92 0
5772 5771 -92 0
-5773 5772 93 0
-5773 -5772 -93 0
5773 -5772 93 0
5773 5772 -93 0
-5774 5773 94 0
-5774 -5773 -94 0
5774 -5773 94 0
5774 5773 -94 0
-5775 5774 95 0
-5775 -5774 -95 0
5775 -5774 95 0
5775 5774 -95 0
-5776 5775 96 0
-5776 -5775 -96 0
5776 -5775 96 0
5776 5775 -96 0
-5777 5776 97 0
-5777 -5776 -97 0
5777 -5776 97 0
5777 5776 -97 0
-5778 5777 98 0
-5778 -5777 -98 0
5778 -5777 98 0
5778 5777 -98 0
-5779 5778 99 0
-5779 -5778 -99 0
5779 -5778 99 0
5779 5778 -99 0
-5780 5779 105 0
-5780 -5779 -105 0
5780 -5779 105 0
5780 5779 -105 0
-5781 5780 106 0
-5781 -5780 -106 0
5781 -5780 106 0
5781 5780 -106 0
-5782 5781 107 0
-5782 -5781 -107 0
5782 -5781 107 0
5782 5781 -107 0
-5783 5782 118 0
-5783 -5782 -118 0
5783 -5782 118 0
5783 5782 -118 0
-5784 5783 119 0
-5784 -5783 -119 0
5784 -5783 119 0
5784 5783 -119 0
-5785 5784 120 0
-5785 -5784 -120 0
5785 -5784 120 0
5785 5784 -120 0
-5786 5785 123 0
-5786 -5785 -123 0
5786 -5785 123 0
5786 5785 -123 0
-5787 5786 124 0
-5787 -5786 -124 0
5787 -5786 124 0
5787 5786 -124 0
-5788 5787 125 0
-5788 -5787 -125 0
5788 -5787 125 0
5788 5787 -125 0
-5789 5788 127 0
-5789 -5788 -127 0
5789 -5788 127 0
5789 5788 -127 0
-5790 5789 128 0
-5790 -5789 -128 0
5790 -5789 128 0
5790 5789 -128 0
-5791 5790 129 0
-5791 -5790 -129 0
5791 -5790 129 0
5791 5790 -129 0
-5792 5791 130 0
-5792 -5791 -130 0
5792 -5791 130 0
5792 5791 -130 0
-5793 5792 131 0
-5793 -5792 -131 0
5793 -5792 131 0
5793 5792 -131 0
-5794 5793 132 0
-5794 -5793 -132 0
5794 -5793 132 0
5794 5793 -132 0
-5795 5794 133 0
-5795 -5794 -133 0
5795 -5794 133 0
5795 5794 -133 0
-5796 5795 134 0
-5796 -5795 -134 0
5796 -5795 134 0
5796 5795 -134 0
-5797 5796 135 0
-5797 -5796 -135 0
5797 -5796 135 0
5797 5796 -135 0
-5798 5797 141 0
-5798 -5797 -141 0
5798 -5797 141 0
5798 5797 -141 0
-5799 5798 142 0
-5799 -5798 -142 0
5799 -5798 142 0
5799 5798 -142 0
-5800 5799 143 0
-5800 -5799 -143 0
5800 -5799 143 0
5800 5799 -143 0
-5800 0
-5802 146 148 0
-5802 -146 -148 0
5802 -146 148 0
5802 146 -148 0
-5803 5802 151 0
-5803 -5802 -151 0
5803 -5802 151 0
5803 5802 -151 0
-5804 5803 152 0
-5804 -5803 -152 0
5804 -5803 152 0
5804 5803 -152 0
-5805 5804 160 0
-5805 -5804 -160 0
5805 -5804 160 0
5805 5804 -160 0
-5806 5805 161 0
-5806 -5805 -161 0
5806 -5805 161 0
5806 5805 -161 0
-5807 5806 163 0
-5807 -5806 -163 0
5807 -5806 163 0
5807 5806 -163 0
-5808 5807 164 0
-5808 -5807 -164 0
5808 -5807 164 0
5808 5807 -164 0
-5809 5808 171 0
-5809 -5808 -171 0
5809 -5808 171 0
5809 5808 -171 0
-5810 5809 172 0
-5810 -5809 -172 0
5810 -5809 172 0
5810 5809 -172 0
-5811 5810 173 0
-5811 -5810 -173 0
5811 -5810 173 0
5811 5810 -173 0
-5812 5811 174 0
-5812 -5811 -174 0
5812 -5811 174 0
5812 5811 -174 0
-5813 5812 175 0
-5813 -5812 -175 0
5813 -5812 175 0
5813 5812 -175 0
-5814 5813 176 0
-5814 -5813 -176 0
5814 -5813 176 0
5814 5813 -176 0
-5815 5814 181 0
-5815 -5814 -181 0
5815 -5814 181 0
5815 5814 -181 0
-5816 5815 183 0
-5816 -5815 -183 0
5816 -5815 183 0
5816 5815 -183 0
-5817 5816 185 0
-5817 -5816 -185 0
5817 -5816 185 0
5817 5816 -185 0
-5818 5817 186 0
-5818 -5817 -186 0
5818 -5817 186 0
5818 5817 -186 0
-5819 5818 187 0
-5819 -5818 -187 0
5819 -5818 187 0
5819 5818 -187 0
-5820 5819 188 0
-5820 -5819 -188 0
5820 -5819 188 0
5820 5819 -188 0
-5821 5820 193 0
-5821 -5820 -193 0
5821 -5820 193 0
5821 5820 -193 0
-5822 5821 194 0
-5822 -5821 -194 0
5822 -5821 194 0
5822 5821 -194 0
-5823 5822 195 0
-5823 -5822 -195 0
5823 -5822 195 0
5823 5822 -195 0
-5824 5823 198 0
-5824 -5823 -198 0
5824 -5823 198 0
5824 5823 -198 0
-5825 5824 199 0
-5825 -5824 -199 0
5825 -5824 199 0
5825 5824 -199 0
-5826 5825 200 0
-5826 -5825 -200 0
5826 -5825 200 0
5826 5825 -200 0
-5827 5826 205 0
-5827 -5826 -205 0
5827 -5826 205 0
5827 5826 -205 0
-5828 5827 206 0
-5828 -5827 -206 0
5828 -5827 206 0
5828 5827 -206 0
-5829 5828 211 0
-5829 -5828 -211 0
5829 -5828 211 0
5829 5828 -211 0
-5830 5829 212 0
-5830 -5829 -212 0
5830 -5829 212 0
5830 5829 -212 0
-5831 5830 218 0
-5831 -5830 -218 0
5831 -5830 218 0
5831 5830 -218 0
-5832 5831 221 0
-5832 -5831 -221 0
5832 -5831 221 0
5832 5831 -221 0
-5833 5832 230 0
-5833 -5832 -230 0
5833 -5832 230 0
5833 5832 -230 0
-5834 5833 231 0
-5834 -5833 -231 0
5834 -5833 231 0
5834 5833 -231 0
-5835 5834 233 0
-5835 -5834 -233 0
5835 -5834 233 0
5835 5834 -233 0
-5836 5835 234 0
-5836 -5835 -234 0
5836 -5835 234 0
5836 5835 -234 0
-5837 5836 241 0
-5837 -5836 -241 0
5837 -5836 241 0
5837 5836 -241 0
-5838 5837 242 0
-5838 -5837 -242 0
5838 -5837 242 0
5838 5837 -242 0
-5839 5838 243 0
-5839 -5838 -243 0
5839 -5838 243 0
5839 5838 -243 0
-5840 5839 244 0
-5840 -5839 -244 0
5840 -5839 244 0
5840 5839 -244 0
-5841 5840 245 0
-5841 -5840 -245 0
5841 -5840 245 0
5841 5840 -245 0
-5842 5841 246 0
-5842 -5841 -246 0
5842 -5841 246 0
5842 5841 -246 0
-5843 5842 253 0
-5843 -5842 -253 0
5843 -5842 253 0
5843 5842 -253 0
-5844 5843 255 0
-5844 -5843 -255 0
5844 -5843 255 0
5844 5843 -255 0
-5845 5844 256 0
-5845 -5844 -256 0
5845 -5844 256 0
5845 5844 -256 0
-5846 5845 258 0
-5846 -5845 -258 0
5846 -5845 258 0
5846 5845 -258 0
-5847 5846 265 0
-5847 -5846 -265 0
5847 -5846 265 0
5847 5846 -265 0
-5848 5847 268 0
-5848 -5847 -268 0
5848 -5847 268 0
5848 5847 -268 0
-5801 5848 0
5801 -5848 0
-5850 147 149 0
-5850 -147 -149 0
5850 -147 149 0
5850 147 -149 0
-5851 5850 152 0
-5851 -5850 -152 0
5851 -5850 152 0
5851 5850 -152 0
-5852 5851 153 0
-5852 -5851 -153 0
5852 -5851 153 0
5852 5851 -153 0
-5853 5852 161 0
-5853 -5852 -161 0
5853 -5852 161 0
5853 5852 -161 0
-5854 5853 162 0
-5854 -5853 -162 0
5854 -5853 162 0
5854 5853 -162 0
-5855 5854 164 0
-5855 -5854 -164 0
5855 -5854 164 0
5855 5854 -164 0
-5856 5855 165 0
-5856 -5855 -165 0
5856 -5855 165 0
5856 5855 -165 0
-5857 5856 169 0
-5857 -5856 -169 0
5857 -5856 169 0
5857 5856 -169 0
-5858 5857 172 0
-5858 -5857 -172 0
5858 -5857 172 0
5858 5857 -172 0
-5859 5858 173 0
-5859 -5858 -173 0
5859 -5858 173 0
5859 5858 -173 0
-5860 5859 174 0
-5860 -5859 -174 0
5860 -5859 174 0
5860 5859 -174 0
-5861 5860 176 0
-5861 -5860 -176 0
5861 -5860 176 0
5861 5860 -176 0
-5862 5861 177 0
-5862 -5861 -177 0
5862 -5861 177 0
5862 5861 -177 0
-5863 5862 181 0
-5863 -5862 -181 0
5863 -5862 181 0
5863 5862 -181 0
-5864 5863 182 0
-5864 -5863 -182 0
5864 -5863 182 0
5864 5863 -182 0
-5865 5864 184 0
-5865 -5864 -184 0
5865 -5864 184 0
5865 5864 -184 0
-5866 5865 186 0
-5866 -5865 -186 0
5866 -5865 186 0
5866 5865 -186 0
-5867 5866 188 0
-5867 -5866 -188 0
5867 -5866 188 0
5867 5866 -188 0
-5868 5867 189 0
-5868 -5867 -189 0
5868 -5867 189 0
5868 5867 -189 0
-5869 5868 193 0
-5869 -5868 -193 0
5869 -5868 193 0
5869 5868 -193 0
-5870 5869 194 0
-5870 -5869 -194 0
5870 -5869 194 0
5870 5869 -194 0
-5871 5870 195 0
-5871 -5870 -195 0
5871 -5870 195 0
5871 5870 -195 0
-5872 5871 196 0
-5872 -5871 -196 0
5872 -5871 196 0
5872 5871 -196 0
-5873 5872 200 0
-5873 -5872 -200 0
5873 -5872 200 0
5873 5872 -200 0
-5874 5873 201 0
-5874 -5873 -201 0
5874 -5873 201 0
5874 5873 -201 0
-5875 5874 206 0
-5875 -5874 -206 0
5875 -5874 206 0
5875 5874 -206 0
-5876 5875 207 0
-5876 -5875 -207 0
5876 -5875 207 0
5876 5875 -207 0
-5877 5876 212 0
-5877 -5876 -212 0
5877 -5876 212 0
5877 5876 -212 0
-5878 5877 213 0
-5878 -5877 -213 0
5878 -5877 213 0
5878 5877 -213 0
-5879 5878 219 0
-5879 -5878 -219 0
5879 -5878 219 0
5879 5878 -219 0
-5880 5879 222 0
-5880 -5879 -222 0
5880 -5879 222 0
5880 5879 -222 0
-5881 5880 229 0
-5881 -5880 -229 0
5881 -5880 229 0
5881 5880 -229 0
-5882 5881 231 0
-5882 -5881 -231 0
5882 -5881 231 0
5882 5881 -231 0
-5883 5882 232 0
-5883 -5882 -232 0
5883 -5882 232 0
5883 5882 -232 0
-5884 5883 234 0
-5884 -5883 -234 0
5884 -5883 234 0
5884 5883 -234 0
-5885 5884 241 0
-5885 -5884 -241 0
5885 -5884 241 0
5885 5884 -241 0
-5886 5885 242 0
-5886 -5885 -242 0
5886 -5885 242 0
5886 5885 -242 0
-5887 5886 243 0
-5887 -5886 -243 0
5887 -5886 243 0
5887 5886 -243 0
-5888 5887 244 0
-5888 -5887 -244 0
5888 -5887 244 0
5888 5887 -244 0
-5889 5888 245 0
-5889 -5888 -245 0
5889 -5888 245 0
5889 5888 -245 0
-5890 5889 246 0
-5890 -5889 -246 0
5890 -5889 246 0
5890 5889 -246 0
-5891 5890 253 0
-5891 -5890 -253 0
5891 -5890 253 0
5891 5890 -253 0
-5892 5891 254 0
-5892 -5891 -254 0
5892 -5891 254 0
5892 5891 -254 0
-5893 5892 256 0
-5893 -5892 -256 0
5893 -5892 256 0
5893 5892 -256 0
-5894 5893 257 0
-5894 -5893 -257 0
5894 -5893 257 0
5894 5893 -257 0
-5895 5894 266 0
-5895 -5894 -266 0
5895 -5894 266 0
5895 5894 -266 0
-5896 5895 269 0
-5896 -5895 -269 0
5896 -5895 269 0
5896 5895 -269 0
-5849 5896 0
5849 -5896 0
-5898 145 147 0
-5898 -145 -147 0
5898 -145 147 0
5898 145 -147 0
-5899 5898 148 0
-5899 -5898 -148 0
5899 -5898 148 0
5899 5898 -148 0
-5900 5899 149 0
-5900 -5899 -149 0
5900 -5899 149 0
5900 5899 -149 0
-5901 5900 151 0
-5901 -5900 -151 0
5901 -5900 151 0
5901 5900 -151 0
-5902 5901 153 0
-5902 -5901 -153 0
5902 -5901 153 0
5902 5901 -153 0
-5903 5902 154 0
-5903 -5902 -154 0
5903 -5902 154 0
5903 5902 -154 0
-5904 5903 155 0
-5904 -5903 -155 0
5904 -5903 155 0
5904 5903 -155 0
-5905 5904 157 0
-5905 -5904 -157 0
5905 -5904 157 0
5905 5904 -157 0
-5906 5905 159 0
-5906 -5905 -159 0
5906 -5905 159 0
5906 5905 -159 0
-5907 5906 160 0
-5907 -5906 -160 0
5907 -5906 160 0
5907 5906 -160 0
-5908 5907 162 0
-5908 -5907 -162 0
5908 -5907 162 0
5908 5907 -162 0
-5909 5908 163 0
-5909 -5908 -163 0
5909 -5908 163 0
5909 5908 -163 0
-5910 5909 165 0
-5910 -5909 -165 0
5910 -5909 165 0
5910 5909 -165 0
-5911 5910 166 0
-5911 -5910 -166 0
5911 -5910 166 0
5911 5910 -166 0
-5912 5911 168 0
-5912 -5911 -168 0
5912 -5911 168 0
5912 5911 -168 0
-5913 5912 171 0
-5913 -5912 -171 0
5913 -5912 171 0
5913 5912 -171 0
-5914 5913 172 0
-5914 -5913 -172 0
5914 -5913 172 0
5914 5913 -172 0
-5915 5914 177 0
-5915 -5914 -177 0
5915 -5914 177 0
5915 5914 -177 0
-5916 5915 178 0
-5916 -5915 -178 0
5916 -5915 178 0
5916 5915 -178 0
-5917 5916 181 0
-5917 -5916 -181 0
5917 -5916 181 0
5917 5916 -181 0
-5918 5917 182 0
-5918 -5917 -182 0
5918 -5917 182 0
5918 5917 -182 0
-5919 5918 183 0
-5919 -5918 -183 0
5919 -5918 183 0
5919 5918 -183 0
-5920 5919 184 0
-5920 -5919 -184 0
5920 -5919 184 0
5920 5919 -184 0
-5921 5920 187 0
-5921 -5920 -187 0
5921 -5920 187 0
5921 5920 -187 0
-5922 5921 188 0
-5922 -5921 -188 0
5922 -5921 188 0
5922 5921 -188 0
-5923 5922 189 0
-5923 -5922 -189 0
5923 -5922 189 0
5923 5922 -189 0
-5924 5923 190 0
-5924 -5923 -190 0
5924 -5923 190 0
5924 5923 -190 0
-5925 5924 193 0
-5925 -5924 -193 0
5925 -5924 193 0
5925 5924 -193 0
-5926 5925 196 0
-5926 -5925 -196 0
5926 -5925 196 0
5926 5925 -196 0
-5927 5926 199 0
-5927 -5926 -199 0
5927 -5926 199 0
5927 5926 -199 0
-5928 5927 202 0
-5928 -5927 -202 0
5928 -5927 202 0
5928 5927 -202 0
-5929 5928 205 0
-5929 -5928 -205 0
5929 -5928 205 0
5929 5928 -205 0
-5930 5929 207 0
-5930 -5929 -207 0
5930 -5929 207 0
5930 5929 -207 0
-5931 5930 211 0
-5931 -5930 -211 0
5931 -5930 211 0
5931 5930 -211 0
-5932 5931 213 0
-5932 -5931 -213 0
5932 -5931 213 0
5932 5931 -213 0
-5933 5932 218 0
-5933 -5932 -218 0
5933 -5932 218 0
5933 5932 -218 0
-5934 5933 219 0
-5934 -5933 -219 0
5934 -5933 219 0
5934 5933 -219 0
-5935 5934 224 0
-5935 -5934 -224 0
5935 -5934 224 0
5935 5934 -224 0
-5936 5935 225 0
-5936 -5935 -225 0
5936 -5935 225 0
5936 5935 -225 0
-5937 5936 230 0
-5937 -5936 -230 0
5937 -5936 230 0
5937 5936 -230 0
-5938 5937 232 0
-5938 -5937 -232 0
5938 -5937 232 0
5938 5937 -232 0
-5939 5938 236 0
-5939 -5938 -236 0
5939 -5938 236 0
5939 5938 -236 0
-5940 5939 238 0
-5940 -5939 -238 0
5940 -5939 238 0
5940 5939 -238 0
-5941 5940 242 0
-5941 -5940 -242 0
5941 -5940 242 0
5941 5940 -242 0
-5942 5941 245 0
-5942 -5941 -245 0
5942 -5941 245 0
5942 5941 -245 0
-5943 5942 248 0
-5943 -5942 -248 0
5943 -5942 248 0
5943 5942 -248 0
-5944 5943 251 0
-5944 -5943 -251 0
5944 -5943 251 0
5944 5943 -251 0
-5945 5944 254 0
-5945 -5944 -254 0
5945 -5944 254 0
5945 5944 -254 0
-5946 5945 258 0
-5946 -5945 -258 0
5946 -5945 258 0
5946 5945 -258 0
-5947 5946 260 0
-5947 -5946 -260 0
5947 -5946 260 0
5947 5946 -260 0
-5948 5947 264 0
-5948 -5947 -264 0
5948 -5947 264 0
5948 5947 -264 0
-5949 5948 265 0
-5949 -5948 -265 0
5949 -5948 265 0
5949 5948 -265 0
-5950 5949 266 0
-5950 -5949 -266 0
5950 -5949 266 0
5950 5949 -266 0
-5951 5950 271 0
-5951 -5950 -271 0
5951 -5950 271 0
5951 5950 -271 0
-5952 5951 272 0
-5952 -5951 -272 0
5952 -5951 272 0
5952 5951 -272 0
-5897 5952 0
5897 -5952 0
-5954 145 146 0
-5954 -145 -146 0
5954 -145 146 0
5954 145 -146 0
-5955 5954 147 0
-5955 -5954 -147 0
5955 -5954 147 0
5955 5954 -147 0
-5956 5955 150 0
-5956 -5955 -150 0
5956 -5955 150 0
5956 5955 -150 0
-5957 5956 151 0
-5957 -5956 -151 0
5957 -5956 151 0
5957 5956 -151 0
-5958 5957 152 0
-5958 -5957 -152 0
5958 -5957 152 0
5958 5957 -152 0
-5959 5958 153 0
-5959 -5958 -153 0
5959 -5958 153 0
5959 5958 -153 0
-5960 5959 156 0
-5960 -5959 -156 0
5960 -5959 156 0
5960 5959 -156 0
-5961 5960 158 0
-5961 -5960 -158 0
5961 -5960 158 0
5961 5960 -158 0
-5962 5961 159 0
-5962 -5961 -159 0
5962 -5961 159 0
5962 5961 -159 0
-5963 5962 161 0
-5963 -5962 -161 0
5963 -5962 161 0
5963 5962 -161 0
-5964 5963 162 0
-5964 -5963 -162 0
5964 -5963 162 0
5964 5963 -162 0
-5965 5964 164 0
-5965 -5964 -164 0
5965 -5964 164 0
5965 5964 -164 0
-5966 5965 165 0
-5966 -5965 -165 0
5966 -5965 165 0
5966 5965 -165 0
-5967 5966 167 0
-5967 -5966 -167 0
5967 -5966 167 0
5967 5966 -167 0
-5968 5967 168 0
-5968 -5967 -168 0
5968 -5967 168 0
5968 5967 -168 0
-5969 5968 171 0
-5969 -5968 -171 0
5969 -5968 171 0
5969 5968 -171 0
-5970 5969 173 0
-5970 -5969 -173 0
5970 -5969 173 0
5970 5969 -173 0
-5971 5970 177 0
-5971 -5970 -177 0
5971 -5970 177 0
5971 5970 -177 0
-5972 5971 179 0
-5972 -5971 -179 0
5972 -5971 179 0
5972 5971 -179 0
-5973 5972 181 0
-5973 -5972 -181 0
5973 -5972 181 0
5973 5972 -181 0
-5974 5973 185 0
-5974 -5973 -185 0
5974 -5973 185 0
5974 5973 -185 0
-5975 5974 187 0
-5975 -5974 -187 0
5975 -5974 187 0
5975 5974 -187 0
-5976 5975 191 0
-5976 -5975 -191 0
5976 -5975 191 0
5976 5975 -191 0
-5977 5976 193 0
-5977 -5976 -193 0
5977 -5976 193 0
5977 5976 -193 0
-5978 5977 194 0
-5978 -5977 -194 0
5978 -5977 194 0
5978 5977 -194 0
-5979 5978 196 0
-5979 -5978 -196 0
5979 -5978 196 0
5979 5978 -196 0
-5980 5979 197 0
-5980 -5979 -197 0
5980 -5979 197 0
5980 5979 -197 0
-5981 5980 199 0
-5981 -5980 -199 0
5981 -5980 199 0
5981 5980 -199 0
-5982 5981 200 0
-5982 -5981 -200 0
5982 -5981 200 0
5982 5981 -200 0
-5983 5982 202 0
-5983 -5982 -202 0
5983 -5982 202 0
5983 5982 -202 0
-5984 5983 203 0
-5984 -5983 -203 0
5984 -5983 203 0
5984 5983 -203 0
-5985 5984 205 0
-5985 -5984 -205 0
5985 -5984 205 0
5985 5984 -205 0
-5986 5985 206 0
-5986 -5985 -206 0
5986 -5985 206 0
5986 5985 -206 0
-5987 5986 207 0
-5987 -5986 -207 0
5987 -5986 207 0
5987 5986 -207 0
-5988 5987 208 0
-5988 -5987 -208 0
5988 -5987 208 0
5988 5987 -208 0
-5989 5988 211 0
-5989 -5988 -211 0
5989 -5988 211 0
5989 5988 -211 0
-5990 5989 212 0
-5990 -5989 -212 0
5990 -5989 212 0
5990 5989 -212 0
-5991 5990 213 0
-5991 -5990 -213 0
5991 -5990 213 0
5991 5990 -213 0
-5992 5991 214 0
-5992 -5991 -214 0
5992 -5991 214 0
5992 5991 -214 0
-5993 5992 218 0
-5993 -5992 -218 0
5993 -5992 218 0
5993 5992 -218 0
-5994 5993 220 0
-5994 -5993 -220 0
5994 -5993 220 0
5994 5993 -220 0
-5995 5994 224 0
-5995 -5994 -224 0
5995 -5994 224 0
5995 5994 -224 0
-5996 5995 226 0
-5996 -5995 -226 0
5996 -5995 226 0
5996 5995 -226 0
-5997 5996 230 0
-5997 -5996 -230 0
5997 -5996 230 0
5997 5996 -230 0
-5998 5997 231 0
-5998 -5997 -231 0
5998 -5997 231 0
5998 5997 -231 0
-5999 5998 232 0
-5999 -5998 -232 0
5999 -5998 232 0
5999 5998 -232 0
-6000 5999 233 0
-6000 -5999 -233 0
6000 -5999 233 0
6000 5999 -233 0
-6001 6000 236 0
-6001 -6000 -236 0
6001 -6000 236 0
6001 6000 -236 0
-6002 6001 237 0
-6002 -6001 -237 0
6002 -6001 237 0
6002 6001 -237 0
-6003 6002 238 0
-6003 -6002 -238 0
6003 -6002 238 0
6003 6002 -238 0
-6004 6003 239 0
-6004 -6003 -239 0
6004 -6003 239 0
6004 6003 -239 0
-6005 6004 242 0
-6005 -6004 -242 0
6005 -6004 242 0
6005 6004 -242 0
-6006 6005 243 0
-6006 -6005 -243 0
6006 -6005 243 0
6006 6005 -243 0
-6007 6006 245 0
-6007 -6006 -245 0
6007 -6006 245 0
6007 6006 -245 0
-6008 6007 246 0
-6008 -6007 -246 0
6008 -6007 246 0
6008 6007 -246 0
-6009 6008 248 0
-6009 -6008 -248 0
6009 -6008 248 0
6009 6008 -248 0
-6010 6009 249 0
-6010 -6009 -249 0
6010 -6009 249 0
6010 6009 -249 0
-6011 6010 251 0
-6011 -6010 -251 0
6011 -6010 251 0
6011 6010 -251 0
-6012 6011 252 0
-6012 -6011 -252 0
6012 -6011 252 0
6012 6011 -252 0
-6013 6012 253 0
-6013 -6012 -253 0
6013 -6012 253 0
6013 6012 -253 0
-6014 6013 254 0
-6014 -6013 -254 0
6014 -6013 254 0
6014 6013 -254 0
-6015 6014 255 0
-6015 -6014 -255 0
6015 -6014 255 0
6015 6014 -255 0
-6016 6015 258 0
-6016 -6015 -258 0
6016 -6015 258 0
6016 6015 -258 0
-6017 6016 259 0
-6017 -6016 -259 0
6017 -6016 259 0
6017 6016 -259 0
-6018 6017 260 0
-6018 -6017 -260 0
6018 -6017 260 0
6018 6017 -260 0
-6019 6018 261 0
-6019 -6018 -261 0
6019 -6018 261 0
6019 6018 -261 0
-6020 6019 264 0
-6020 -6019 -264 0
6020 -6019 264 0
6020 6019 -264 0
-6021 6020 265 0
-6021 -6020 -265 0
6021 -6020 265 0
6021 6020 -265 0
-6022 6021 267 0
-6022 -6021 -267 0
6022 -6021 267 0
6022 6021 -267 0
-6023 6022 271 0
-6023 -6022 -271 0
6023 -6022 271 0
6023 6022 -271 0
-6024 6023 273 0
-6024 -6023 -273 0
6024 -6023 273 0
6024 6023 -273 0
-5953 6024 0
5953 -6024 0
-6026 3 6 0
-6026 -3 -6 0
6026 -3 6 0
6026 3 -6 0
-6027 6026 13 0
-6027 -6026 -13 0
6027 -6026 13 0
6027 6026 -13 0
-6028 6027 16 0
-6028 -6027 -16 0
6028 -6027 16 0
6028 6027 -16 0
-6029 6028 145 0
-6029 -6028 -145 0
6029 -6028 145 0
6029 6028 -145 0
-6030 6029 147 0
-6030 -6029 -147 0
6030 -6029 147 0
6030 6029 -147 0
-6031 6030 148 0
-6031 -6030 -148 0
6031 -6030 148 0
6031 6030 -148 0
-6032 6031 151 0
-6032 -6031 -151 0
6032 -6031 151 0
6032 6031 -151 0
-6033 6032 153 0
-6033 -6032 -153 0
6033 -6032 153 0
6033 6032 -153 0
-6034 6033 155 0
-6034 -6033 -155 0
6034 -6033 155 0
6034 6033 -155 0
-6035 6034 156 0
-6035 -6034 -156 0
6035 -6034 156 0
6035 6034 -156 0
-6036 6035 159 0
-6036 -6035 -159 0
6036 -6035 159 0
6036 6035 -159 0
-6037 6036 160 0
-6037 -6036 -160 0
6037 -6036 160 0
6037 6036 -160 0
-6038 6037 162 0
-6038 -6037 -162 0
6038 -6037 162 0
6038 6037 -162 0
-6039 6038 163 0
-6039 -6038 -163 0
6039 -6038 163 0
6039 6038 -163 0
-6040 6039 165 0
-6040 -6039 -165 0
6040 -6039 165 0
6040 6039 -165 0
-6041 6040 168 0
-6041 -6040 -168 0
6041 -6040 168 0
6041 6040 -168 0
-6042 6041 169 0
-6042 -6041 -169 0
6042 -6041 169 0
6042 6041 -169 0
-6043 6042 171 0
-6043 -6042 -171 0
6043 -6042 171 0
6043 6042 -171 0
-6044 6043 172 0
-6044 -6043 -172 0
6044 -6043 172 0
6044 6043 -172 0
-6045 6044 173 0
-6045 -6044 -173 0
6045 -6044 173 0
6045 6044 -173 0
-6046 6045 174 0
-6046 -6045 -174 0
6046 -6045 174 0
6046 6045 -174 0
-6047 6046 175 0
-6047 -6046 -175 0
6047 -6046 175 0
6047 6046 -175 0
-6048 6047 176 0
-6048 -6047 -176 0
6048 -6047 176 0
6048 6047 -176 0
-6049 6048 177 0
-6049 -6048 -177 0
6049 -6048 177 0
6049 6048 -177 0
-6050 6049 179 0
-6050 -6049 -179 0
6050 -6049 179 0
6050 6049 -179 0
-6051 6050 181 0
-6051 -6050 -181 0
6051 -6050 181 0
6051 6050 -181 0
-6052 6051 184 0
-6052 -6051 -184 0
6052 -6051 184 0
6052 6051 -184 0
-6053 6052 186 0
-6053 -6052 -186 0
6053 -6052 186 0
6053 6052 -186 0
-6054 6053 189 0
-6054 -6053 -189 0
6054 -6053 189 0
6054 6053 -189 0
-6055 6054 193 0
-6055 -6054 -193 0
6055 -6054 193 0
6055 6054 -193 0
-6056 6055 195 0
-6056 -6055 -195 0
6056 -6055 195 0
6056 6055 -195 0
-6057 6056 198 0
-6057 -6056 -198 0
6057 -6056 198 0
6057 6056 -198 0
-6058 6057 199 0
-6058 -6057 -199 0
6058 -6057 199 0
6058 6057 -199 0
-6059 6058 200 0
-6059 -6058 -200 0
6059 -6058 200 0
6059 6058 -200 0
-6060 6059 202 0
-6060 -6059 -202 0
6060 -6059 202 0
6060 6059 -202 0
-6061 6060 204 0
-6061 -6060 -204 0
6061 -6060 204 0
6061 6060 -204 0
-6062 6061 205 0
-6062 -6061 -205 0
6062 -6061 205 0
6062 6061 -205 0
-6063 6062 206 0
-6063 -6062 -206 0
6063 -6062 206 0
6063 6062 -206 0
-6064 6063 207 0
-6064 -6063 -207 0
6064 -6063 207 0
6064 6063 -207 0
-6065 6064 208 0
-6065 -6064 -208 0
6065 -6064 208 0
6065 6064 -208 0
-6066 6065 210 0
-6066 -6065 -210 0
6066 -6065 210 0
6066 6065 -210 0
-6067 6066 212 0
-6067 -6066 -212 0
6067 -6066 212 0
6067 6066 -212 0
-6068 6067 217 0
-6068 -6067 -217 0
6068 -6067 217 0
6068 6067 -217 0
-6069 6068 218 0
-6069 -6068 -218 0
6069 -6068 218 0
6069 6068 -218 0
-6070 6069 221 0
-6070 -6069 -221 0
6070 -6069 221 0
6070 6069 -221 0
-6071 6070 222 0
-6071 -6070 -222 0
6071 -6070 222 0
6071 6070 -222 0
-6072 6071 223 0
-6072 -6071 -223 0
6072 -6071 223 0
6072 6071 -223 0
-6073 6072 224 0
-6073 -6072 -224 0
6073 -6072 224 0
6073 6072 -224 0
-6074 6073 226 0
-6074 -6073 -226 0
6074 -6073 226 0
6074 6073 -226 0
-6075 6074 230 0
-6075 -6074 -230 0
6075 -6074 230 0
6075 6074 -230 0
-6076 6075 231 0
-6076 -6075 -231 0
6076 -6075 231 0
6076 6075 -231 0
-6077 6076 236 0
-6077 -6076 -236 0
6077 -6076 236 0
6077 6076 -236 0
-6078 6077 237 0
-6078 -6077 -237 0
6078 -6077 237 0
6078 6077 -237 0
-6079 6078 243 0
-6079 -6078 -243 0
6079 -6078 243 0
6079 6078 -243 0
-6080 6079 246 0
-6080 -6079 -246 0
6080 -6079 246 0
6080 6079 -246 0
-6081 6080 248 0
-6081 -6080 -248 0
6081 -6080 248 0
6081 6080 -248 0
-6082 6081 249 0
-6082 -6081 -249 0
6082 -6081 249 0
6082 6081 -249 0
-6083 6082 250 0
-6083 -6082 -250 0
6083 -6082 250 0
6083 6082 -250 0
-6084 6083 255 0
-6084 -6083 -255 0
6084 -6083 255 0
6084 6083 -255 0
-6085 6084 256 0
-6085 -6084 -256 0
6085 -6084 256 0
6085 6084 -256 0
-6086 6085 261 0
-6086 -6085 -261 0
6086 -6085 261 0
6086 6085 -261 0
-6087 6086 262 0
-6087 -6086 -262 0
6087 -6086 262 0
6087 6086 -262 0
-6088 6087 266 0
-6088 -6087 -266 0
6088 -6087 266 0
6088 6087 -266 0
-6089 6088 267 0
-6089 -6088 -267 0
6089 -6088 267 0
6089 6088 -267 0
-6090 6089 271 0
-6090 -6089 -271 0
6090 -6089 271 0
6090 6089 -271 0
-6025 6090 0
6025 -6090 0
-6092 1 4 0
-6092 -1 -4 0
6092 -1 4 0
6092 1 -4 0
-6093 6092 14 0
-6093 -6092 -14 0
6093 -6092 14 0
6093 6092 -14 0
-6094 6093 17 0
-6094 -6093 -17 0
6094 -6093 17 0
6094 6093 -17 0
-6095 6094 145 0
-6095 -6094 -145 0
6095 -6094 145 0
6095 6094 -145 0
-6096 6095 147 0
-6096 -6095 -147 0
6096 -6095 147 0
6096 6095 -147 0
-6097 6096 148 0
-6097 -6096 -148 0
6097 -6096 148 0
6097 6096 -148 0
-6098 6097 151 0
-6098 -6097 -151 0
6098 -6097 151 0
6098 6097 -151 0
-6099 6098 153 0
-6099 -6098 -153 0
6099 -6098 153 0
6099 6098 -153 0
-6100 6099 155 0
-6100 -6099 -155 0
6100 -6099 155 0
6100 6099 -155 0
-6101 6100 156 0
-6101 -6100 -156 0
6101 -6100 156 0
6101 6100 -156 0
-6102 6101 159 0
-6102 -6101 -159 0
6102 -6101 159 0
6102 6101 -159 0
-6103 6102 160 0
-6103 -6102 -160 0
6103 -6102 160 0
6103 6102 -160 0
-6104 6103 162 0
-6104 -6103 -162 0
6104 -6103 162 0
6104 6103 -162 0
-6105 6104 163 0
-6105 -6104 -163 0
6105 -6104 163 0
6105 6104 -163 0
-6106 6105 165 0
-6106 -6105 -165 0
6106 -6105 165 0
6106 6105 -165 0
-6107 6106 168 0
-6107 -6106 -168 0
6107 -6106 168 0
6107 6106 -168 0
-6108 6107 169 0
-6108 -6107 -169 0
6108 -6107 169 0
6108 6107 -169 0
-6109 6108 170 0
-6109 -6108 -170 0
6109 -6108 170 0
6109 6108 -170 0
-6110 6109 172 0
-6110 -6109 -172 0
6110 -6109 172 0
6110 6109 -172 0
-6111 6110 175 0
-6111 -6110 -175 0
6111 -6110 175 0
6111 6110 -175 0
-6112 6111 180 0
-6112 -6111 -180 0
6112 -6111 180 0
6112 6111 -180 0
-6113 6112 181 0
-6113 -6112 -181 0
6113 -6112 181 0
6113 6112 -181 0
-6114 6113 184 0
-6114 -6113 -184 0
6114 -6113 184 0
6114 6113 -184 0
-6115 6114 186 0
-6115 -6114 -186 0
6115 -6114 186 0
6115 6114 -186 0
-6116 6115 189 0
-6116 -6115 -189 0
6116 -6115 189 0
6116 6115 -189 0
-6117 6116 193 0
-6117 -6116 -193 0
6117 -6116 193 0
6117 6116 -193 0
-6118 6117 195 0
-6118 -6117 -195 0
6118 -6117 195 0
6118 6117 -195 0
-6119 6118 198 0
-6119 -6118 -198 0
6119 -6118 198 0
6119 6118 -198 0
-6120 6119 199 0
-6120 -6119 -199 0
6120 -6119 199 0
6120 6119 -199 0
-6121 6120 201 0
-6121 -6120 -201 0
6121 -6120 201 0
6121 6120 -201 0
-6122 6121 202 0
-6122 -6121 -202 0
6122 -6121 202 0
6122 6121 -202 0
-6123 6122 203 0
-6123 -6122 -203 0
6123 -6122 203 0
6123 6122 -203 0
-6124 6123 205 0
-6124 -6123 -205 0
6124 -6123 205 0
6124 6123 -205 0
-6125 6124 208 0
-6125 -6124 -208 0
6125 -6124 208 0
6125 6124 -208 0
-6126 6125 209 0
-6126 -6125 -209 0
6126 -6125 209 0
6126 6125 -209 0
-6127 6126 212 0
-6127 -6126 -212 0
6127 -6126 212 0
6127 6126 -212 0
-6128 6127 217 0
-6128 -6127 -217 0
6128 -6127 217 0
6128 6127 -217 0
-6129 6128 218 0
-6129 -6128 -218 0
6129 -6128 218 0
6129 6128 -218 0
-6130 6129 221 0
-6130 -6129 -221 0
6130 -6129 221 0
6130 6129 -221 0
-6131 6130 222 0
-6131 -6130 -222 0
6131 -6130 222 0
6131 6130 -222 0
-6132 6131 227 0
-6132 -6131 -227 0
6132 -6131 227 0
6132 6131 -227 0
-6133 6132 233 0
-6133 -6132 -233 0
6133 -6132 233 0
6133 6132 -233 0
-6134 6133 234 0
-6134 -6133 -234 0
6134 -6133 234 0
6134 6133 -234 0
-6135 6134 236 0
-6135 -6134 -236 0
6135 -6134 236 0
6135 6134 -236 0
-6136 6135 237 0
-6136 -6135 -237 0
6136 -6135 237 0
6136 6135 -237 0
-6137 6136 243 0
-6137 -6136 -243 0
6137 -6136 243 0
6137 6136 -243 0
-6138 6137 246 0
-6138 -6137 -246 0
6138 -6137 246 0
6138 6137 -246 0
-6139 6138 248 0
-6139 -6138 -248 0
6139 -6138 248 0
6139 6138 -248 0
-6140 6139 249 0
-6140 -6139 -249 0
6140 -6139 249 0
6140 6139 -249 0
-6141 6140 250 0
-6141 -6140 -250 0
6141 -6140 250 0
6141 6140 -250 0
-6142 6141 253 0
-6142 -6141 -253 0
6142 -6141 253 0
6142 6141 -253 0
-6143 6142 254 0
-6143 -6142 -254 0
6143 -6142 254 0
6143 6142 -254 0
-6144 6143 255 0
-6144 -6143 -255 0
6144 -6143 255 0
6144 6143 -255 0
-6145 6144 257 0
-6145 -6144 -257 0
6145 -6144 257 0
6145 6144 -257 0
-6146 6145 260 0
-6146 -6145 -260 0
6146 -6145 260 0
6146 6145 -260 0
-6147 6146 262 0
-6147 -6146 -262 0
6147 -6146 262 0
6147 6146 -262 0
-6148 6147 263 0
-6148 -6147 -263 0
6148 -6147 263 0
6148 6147 -263 0
-6149 6148 264 0
-6149 -6148 -264 0
6149 -6148 264 0
6149 6148 -264 0
-6150 6149 266 0
-6150 -6149 -266 0
6150 -6149 266 0
6150 6149 -266 0
-6151 6150 267 0
-6151 -6150 -267 0
6151 -6150 267 0
6151 6150 -267 0
-6152 6151 271 0
-6152 -6151 -271 0
6152 -6151 271 0
6152 6151 -271 0
-6091 6152 0
6091 -6152 0
-6154 1 6 0
-6154 -1 -6 0
6154 -1 6 0
6154 1 -6 0
-6155 6154 7 0
-6155 -6154 -7 0
6155 -6154 7 0
6155 6154 -7 0
-6156 6155 12 0
-6156 -6155 -12 0
6156 -6155 12 0
6156 6155 -12 0
-6157 6156 13 0
-6157 -6156 -13 0
6157 -6156 13 0
6157 6156 -13 0
-6158 6157 14 0
-6158 -6157 -14 0
6158 -6157 14 0
6158 6157 -14 0
-6159 6158 19 0
-6159 -6158 -19 0
6159 -6158 19 0
6159 6158 -19 0
-6160 6159 20 0
-6160 -6159 -20 0
6160 -6159 20 0
6160 6159 -20 0
-6161 6160 146 0
-6161 -6160 -146 0
6161 -6160 146 0
6161 6160 -146 0
-6162 6161 149 0
-6162 -6161 -149 0
6162 -6161 149 0
6162 6161 -149 0
-6163 6162 150 0
-6163 -6162 -150 0
6163 -6162 150 0
6163 6162 -150 0
-6164 6163 151 0
-6164 -6163 -151 0
6164 -6163 151 0
6164 6163 -151 0
-6165 6164 154 0
-6165 -6164 -154 0
6165 -6164 154 0
6165 6164 -154 0
-6166 6165 156 0
-6166 -6165 -156 0
6166 -6165 156 0
6166 6165 -156 0
-6167 6166 158 0
-6167 -6166 -158 0
6167 -6166 158 0
6167 6166 -158 0
-6168 6167 162 0
-6168 -6167 -162 0
6168 -6167 162 0
6168 6167 -162 0
-6169 6168 163 0
-6169 -6168 -163 0
6169 -6168 163 0
6169 6168 -163 0
-6170 6169 166 0
-6170 -6169 -166 0
6170 -6169 166 0
6170 6169 -166 0
-6171 6170 167 0
-6171 -6170 -167 0
6171 -6170 167 0
6171 6170 -167 0
-6172 6171 168 0
-6172 -6171 -168 0
6172 -6171 168 0
6172 6171 -168 0
-6173 6172 174 0
-6173 -6172 -174 0
6173 -6172 174 0
6173 6172 -174 0
-6174 6173 175 0
-6174 -6173 -175 0
6174 -6173 175 0
6174 6173 -175 0
-6175 6174 178 0
-6175 -6174 -178 0
6175 -6174 178 0
6175 6174 -178 0
-6176 6175 179 0
-6176 -6175 -179 0
6176 -6175 179 0
6176 6175 -179 0
-6177 6176 184 0
-6177 -6176 -184 0
6177 -6176 184 0
6177 6176 -184 0
-6178 6177 186 0
-6178 -6177 -186 0
6178 -6177 186 0
6178 6177 -186 0
-6179 6178 190 0
-6179 -6178 -190 0
6179 -6178 190 0
6179 6178 -190 0
-6180 6179 191 0
-6180 -6179 -191 0
6180 -6179 191 0
6180 6179 -191 0
-6181 6180 194 0
-6181 -6180 -194 0
6181 -6180 194 0
6181 6180 -194 0
-6182 6181 195 0
-6182 -6181 -195 0
6182 -6181 195 0
6182 6181 -195 0
-6183 6182 196 0
-6183 -6182 -196 0
6183 -6182 196 0
6183 6182 -196 0
-6184 6183 197 0
-6184 -6183 -197 0
6184 -6183 197 0
6184 6183 -197 0
-6185 6184 198 0
-6185 -6184 -198 0
6185 -6184 198 0
6185 6184 -198 0
-6186 6185 200 0
-6186 -6185 -200 0
6186 -6185 200 0
6186 6185 -200 0
-6187 6186 201 0
-6187 -6186 -201 0
6187 -6186 201 0
6187 6186 -201 0
-6188 6187 202 0
-6188 -6187 -202 0
6188 -6187 202 0
6188 6187 -202 0
-6189 6188 206 0
-6189 -6188 -206 0
6189 -6188 206 0
6189 6188 -206 0
-6190 6189 208 0
-6190 -6189 -208 0
6190 -6189 208 0
6190 6189 -208 0
-6191 6190 209 0
-6191 -6190 -209 0
6191 -6190 209 0
6191 6190 -209 0
-6192 6191 210 0
-6192 -6191 -210 0
6192 -6191 210 0
6192 6191 -210 0
-6193 6192 211 0
-6193 -6192 -211 0
6193 -6192 211 0
6193 6192 -211 0
-6194 6193 212 0
-6194 -6193 -212 0
6194 -6193 212 0
6194 6193 -212 0
-6195 6194 218 0
-6195 -6194 -218 0
6195 -6194 218 0
6195 6194 -218 0
-6196 6195 226 0
-6196 -6195 -226 0
6196 -6195 226 0
6196 6195 -226 0
-6197 6196 230 0
-6197 -6196 -230 0
6197 -6196 230 0
6197 6196 -230 0
-6198 6197 231 0
-6198 -6197 -231 0
6198 -6197 231 0
6198 6197 -231 0
-6199 6198 232 0
-6199 -6198 -232 0
6199 -6198 232 0
6199 6198 -232 0
-6200 6199 234 0
-6200 -6199 -234 0
6200 -6199 234 0
6200 6199 -234 0
-6201 6200 241 0
-6201 -6200 -241 0
6201 -6200 241 0
6201 6200 -241 0
-6202 6201 242 0
-6202 -6201 -242 0
6202 -6201 242 0
6202 6201 -242 0
-6203 6202 243 0
-6203 -6202 -243 0
6203 -6202 243 0
6203 6202 -243 0
-6204 6203 250 0
-6204 -6203 -250 0
6204 -6203 250 0
6204 6203 -250 0
-6205 6204 251 0
-6205 -6204 -251 0
6205 -6204 251 0
6205 6204 -251 0
-6206 6205 252 0
-6206 -6205 -252 0
6206 -6205 252 0
6206 6205 -252 0
-6207 6206 254 0
-6207 -6206 -254 0
6207 -6206 254 0
6207 6206 -254 0
-6208 6207 255 0
-6208 -6207 -255 0
6208 -6207 255 0
6208 6207 -255 0
-6209 6208 259 0
-6209 -6208 -259 0
6209 -6208 259 0
6209 6208 -259 0
-6210 6209 261 0
-6210 -6209 -261 0
6210 -6209 261 0
6210 6209 -261 0
-6211 6210 262 0
-6211 -6210 -262 0
6211 -6210 262 0
6211 6210 -262 0
-6212 6211 264 0
-6212 -6211 -264 0
6212 -6211 264 0
6212 6211 -264 0
-6213 6212 265 0
-6213 -6212 -265 0
6213 -6212 265 0
6213 6212 -265 0
-6214 6213 266 0
-6214 -6213 -266 0
6214 -6213 266 0
6214 6213 -266 0
-6215 6214 267 0
-6215 -6214 -267 0
6215 -6214 267 0
6215 6214 -267 0
-6216 6215 271 0
-6216 -6215 -271 0
6216 -6215 271 0
6216 6215 -271 0
-6153 6216 0
6153 -6216 0
-6218 2 6 0
-6218 -2 -6 0
6218 -2 6 0
6218 2 -6 0
-6219 6218 8 0
-6219 -6218 -8 0
6219 -6218 8 0
6219 6218 -8 0
-6220 6219 12 0
-6220 -6219 -12 0
6220 -6219 12 0
6220 6219 -12 0
-6221 6220 13 0
-6221 -6220 -13 0
6221 -6220 13 0
6221 6220 -13 0
-6222 6221 15 0
-6222 -6221 -15 0
6222 -6221 15 0
6222 6221 -15 0
-6223 6222 19 0
-6223 -6222 -19 0
6223 -6222 19 0
6223 6222 -19 0
-6224 6223 21 0
-6224 -6223 -21 0
6224 -6223 21 0
6224 6223 -21 0
-6225 6224 153 0
-6225 -6224 -153 0
6225 -6224 153 0
6225 6224 -153 0
-6226 6225 156 0
-6226 -6225 -156 0
6226 -6225 156 0
6226 6225 -156 0
-6227 6226 158 0
-6227 -6226 -158 0
6227 -6226 158 0
6227 6226 -158 0
-6228 6227 161 0
-6228 -6227 -161 0
6228 -6227 161 0
6228 6227 -161 0
-6229 6228 165 0
-6229 -6228 -165 0
6229 -6228 165 0
6229 6228 -165 0
-6230 6229 168 0
-6230 -6229 -168 0
6230 -6229 168 0
6230 6229 -168 0
-6231 6230 169 0
-6231 -6230 -169 0
6231 -6230 169 0
6231 6230 -169 0
-6232 6231 173 0
-6232 -6231 -173 0
6232 -6231 173 0
6232 6231 -173 0
-6233 6232 177 0
-6233 -6232 -177 0
6233 -6232 177 0
6233 6232 -177 0
-6234 6233 180 0
-6234 -6233 -180 0
6234 -6233 180 0
6234 6233 -180 0
-6235 6234 181 0
-6235 -6234 -181 0
6235 -6234 181 0
6235 6234 -181 0
-6236 6235 182 0
-6236 -6235 -182 0
6236 -6235 182 0
6236 6235 -182 0
-6237 6236 189 0
-6237 -6236 -189 0
6237 -6236 189 0
6237 6236 -189 0
-6238 6237 192 0
-6238 -6237 -192 0
6238 -6237 192 0
6238 6237 -192 0
-6239 6238 193 0
-6239 -6238 -193 0
6239 -6238 193 0
6239 6238 -193 0
-6240 6239 195 0
-6240 -6239 -195 0
6240 -6239 195 0
6240 6239 -195 0
-6241 6240 196 0
-6241 -6240 -196 0
6241 -6240 196 0
6241 6240 -196 0
-6242 6241 198 0
-6242 -6241 -198 0
6242 -6241 198 0
6242 6241 -198 0
-6243 6242 202 0
-6243 -6242 -202 0
6243 -6242 202 0
6243 6242 -202 0
-6244 6243 203 0
-6244 -6243 -203 0
6244 -6243 203 0
6244 6243 -203 0
-6245 6244 205 0
-6245 -6244 -205 0
6245 -6244 205 0
6245 6244 -205 0
-6246 6245 208 0
-6246 -6245 -208 0
6246 -6245 208 0
6246 6245 -208 0
-6247 6246 211 0
-6247 -6246 -211 0
6247 -6246 211 0
6247 6246 -211 0
-6248 6247 212 0
-6248 -6247 -212 0
6248 -6247 212 0
6248 6247 -212 0
-6249 6248 218 0
-6249 -6248 -218 0
6249 -6248 218 0
6249 6248 -218 0
-6250 6249 221 0
-6250 -6249 -221 0
6250 -6249 221 0
6250 6249 -221 0
-6251 6250 224 0
-6251 -6250 -224 0
6251 -6250 224 0
6251 6250 -224 0
-6252 6251 225 0
-6252 -6251 -225 0
6252 -6251 225 0
6252 6251 -225 0
-6253 6252 226 0
-6253 -6252 -226 0
6253 -6252 226 0
6253 6252 -226 0
-6254 6253 227 0
-6254 -6253 -227 0
6254 -6253 227 0
6254 6253 -227 0
-6255 6254 229 0
-6255 -6254 -229 0
6255 -6254 229 0
6255 6254 -229 0
-6256 6255 230 0
-6256 -6255 -230 0
6256 -6255 230 0
6256 6255 -230 0
-6257 6256 231 0
-6257 -6256 -231 0
6257 -6256 231 0
6257 6256 -231 0
-6258 6257 232 0
-6258 -6257 -232 0
6258 -6257 232 0
6258 6257 -232 0
-6259 6258 236 0
-6259 -6258 -236 0
6259 -6258 236 0
6259 6258 -236 0
-6260 6259 238 0
-6260 -6259 -238 0
6260 -6259 238 0
6260 6259 -238 0
-6261 6260 243 0
-6261 -6260 -243 0
6261 -6260 243 0
6261 6260 -243 0
-6262 6261 246 0
-6262 -6261 -246 0
6262 -6261 246 0
6262 6261 -246 0
-6263 6262 247 0
-6263 -6262 -247 0
6263 -6262 247 0
6263 6262 -247 0
-6264 6263 248 0
-6264 -6263 -248 0
6264 -6263 248 0
6264 6263 -248 0
-6265 6264 250 0
-6265 -6264 -250 0
6265 -6264 250 0
6265 6264 -250 0
-6266 6265 251 0
-6266 -6265 -251 0
6266 -6265 251 0
6266 6265 -251 0
-6267 6266 253 0
-6267 -6266 -253 0
6267 -6266 253 0
6267 6266 -253 0
-6268 6267 255 0
-6268 -6267 -255 0
6268 -6267 255 0
6268 6267 -255 0
-6269 6268 261 0
-6269 -6268 -261 0
6269 -6268 261 0
6269 6268 -261 0
-6270 6269 263 0
-6270 -6269 -263 0
6270 -6269 263 0
6270 6269 -263 0
-6271 6270 265 0
-6271 -6270 -265 0
6271 -6270 265 0
6271 6270 -265 0
-6272 6271 266 0
-6272 -6271 -266 0
6272 -6271 266 0
6272 6271 -266 0
-6217 6272 0
6217 -6272 0
5801 5849 5897 5953 6025 6091 6153 6217 0
289 0
-289 6273 0
-6273 6274 0
-290 -6273 6275 0
-6275 6276 0
-291 -6275 6277 0
-6277 6278 0
-292 -6277 6279 0
-6279 6280 0
-293 -6279 6281 0
-6281 6282 0
-294 -6281 6283 0
-6283 6284 0
-295 -6283 6285 0
-6285 6286 0
-296 -6285 6287 0
-6287 6288 0
-297 -6287 6289 0
-6289 6290 0
-298 -6289 6291 0
-6291 6292 0
-299 -6291 6293 0
-6293 6294 0
-300 -6293 0
-290 6274 0
-6274 6295 0
-291 -6274 6276 0
-6276 6296 0
-292 -6276 6278 0
-6278 6297 0
-293 -6278 6280 0
-6280 6298 0
-294 -6280 6282 0
-6282 6299 0
-295 -6282 6284 0
-6284 6300 0
-296 -6284 6286 0
-6286 6301 0
-297 -6286 6288 0
-6288 6302 0
-298 -6288 6290 0
-6290 6303 0
-299 -6290 6292 0
-6292 6304 0
-300 -6292 6294 0
-6294 6305 0
-301 -6294 0
-291 6295 0
-6295 6306 0
-292 -6295 6296 0
-6296 6307 0
-293 -6296 6297 0
-6297 6308 0
-294 -6297 6298 0
-6298 6309 0
-295 -6298 6299 0
-6299 6310 0
-296 -6299 6300 0
-6300 6311 0
-297 -6300 6301 0
-6301 6312 0
-298 -6301 6302 0
-6302 6313 0
-299 -6302 6303 0
-6303 6314 0
-300 -6303 6304 0
-6304 6315 0
-301 -6304 6305 0
-6305 6316 0
-302 -6305 0
-292 6306 0
-6306 6317 0
-293 -6306 6307 0
-6307 6318 0
-294 -6307 6308 0
-6308 6319 0
-295 -6308 6309 0
-6309 6320 0
-296 -6309 6310 0
-6310 6321 0
-297 -6310 6311 0
-6311 6322 0
-298 -6311 6312 0
-6312 6323 0
-299 -6312 6313 0
-6313 6324 0
-300 -6313 6314 0
-6314 6325 0
-301 -6314 6315 0
-6315 6326 0
-302 -6315 6316 0
-6316 6327 0
-303 -6316 0
-293 6317 0
-6317 6328 0
-294 -6317 6318 0
-6318 6329 0
-295 -6318 6319 0
-6319 6330 0
-296 -6319 6320 0
-6320 6331 0
-297 -6320 6321 0
-6321 6332 0
-298 -6321 6322 0
-6322 6333 0
-299 -6322 6323 0
-6323 6334 0
-300 -6323 6324 0
-6324 6335 0
-301 -6324 6325 0
-6325 6336 0
-302 -6325 6326 0
-6326 6337 0
-303 -6326 6327 0
-6327 6338 0
-304 -6327 0
-294 6328 0
-6328 6339 0
-295 -6328 6329 0
-6329 6340 0
-296 -6329 6330 0
-6330 6341 0
-297 -6330 6331 0
-6331 6342 0
-298 -6331 6332 0
-6332 6343 0
-299 -6332 6333 0
-6333 6344 0
-300 -6333 6334 0
-6334 6345 0
-301 -6334 6335 0
-6335 6346 0
-302 -6335 6336 0
-6336 6347 0
-303 -6336 6337 0
-6337 6348 0
-304 -6337 6338 0
-6338 6349 0
-305 -6338 0
-295 6339 0
-6339 6350 0
-296 -6339 6340 0
-6340 6351 0
-297 -6340 6341 0
-6341 6352 0
-298 -6341 6342 0
-6342 6353 0
-299 -6342 6343 0
-6343 6354 0
-300 -6343 6344 0
-6344 6355 0
-301 -6344 6345 0
-6345 6356 0
-302 -6345 6346 0
-6346 6357 0
-303 -6346 6347 0
-6347 6358 0
-304 -6347 6348 0
-6348 6359 0
-305 -6348 6349 0
-6349 6360 0
-306 -6349 0
-296 6350 0
-6350 6361 0
-297 -6350 6351 0
-6351 6362 0
-298 -6351 6352 0
-6352 6363 0
-299 -6352 6353 0
-6353 6364 0
-300 -6353 6354 0
-6354 6365 0
-301 -6354 6355 0
-6355 6366 0
-302 -6355 6356 0
-6356 6367 0
-303 -6356 6357 0
-6357 6368 0
-304 -6357 6358 0
-6358 6369 0
-305 -6358 6359 0
-6359 6370 0
-306 -6359 6360 0
-6360 6371 0
-307 -6360 0
-297 6361 0
-6361 6372 0
-298 -6361 6362 0
-6362 6373 0
-299 -6362 6363 0
-6363 6374 0
-300 -6363 6364 0
-6364 6375 0
-301 -6364 6365 0
-6365 6376 0
-302 -6365 6366 0
-6366 6377 0
-303 -6366 6367 0
-6367 6378 0
-304 -6367 6368 0
-6368 6379 0
-305 -6368 6369 0
-6369 6380 0
-306 -6369 6370 0
-6370 6381 0
-307 -6370 6371 0
-6371 6382 0
-308 -6371 0
-298 6372 0
-6372 6383 0
-299 -6372 6373 0
-6373 6384 0
-300 -6373 6374 0
-6374 6385 0
-301 -6374 6375 0
-6375 6386 0
-302 -6375 6376 0
-6376 6387 0
-303 -6376 6377 0
-6377 6388 0
-304 -6377 6378 0
-6378 6389 0
-305 -6378 6379 0
-6379 6390 0
-306 -6379 6380 0
-6380 6391 0
-307 -6380 6381 0
-6381 6392 0
-308 -6381 6382 0
-6382 6393 0
-309 -6382 0
-299 6383 0
-6383 6394 0
-300 -6383 6384 0
-6384 6395 0
-301 -6384 6385 0
-6385 6396 0
-302 -6385 6386 0
-6386 6397 0
-303 -6386 6387 0
-6387 6398 0
-304 -6387 6388 0
-6388 6399 0
-305 -6388 6389 0
-6389 6400 0
-306 -6389 6390 0
-6390 6401 0
-307 -6390 6391 0
-6391 6402 0
-308 -6391 6392 0
-6392 6403 0
-309 -6392 6393 0
-6393 6404 0
-310 -6393 0
-300 6394 0
-6394 6405 0
-301 -6394 6395 0
-6395 6406 0
-302 -6395 6396 0
-6396 6407 0
-303 -6396 6397 0
-6397 6408 0
-304 -6397 6398 0
-6398 6409 0
-305 -6398 6399 0
-6399 6410 0
-306 -6399 6400 0
-6400 6411 0
-307 -6400 6401 0
-6401 6412 0
-308 -6401 6402 0
-6402 6413 0
-309 -6402 6403 0
-6403 6414 0
-310 -6403 6404 0
-6404 6415 0
-311 -6404 0
-301 6405 0
-6405 6416 0
-302 -6405 6406 0
-6406 6417 0
-303 -6406 6407 0
-6407 6418 0
-304 -6407 6408 0
-6408 6419 0
-305 -6408 6409 0
-6409 6420 0
-306 -6409 6410 0
-6410 6421 0
-307 -6410 6411 0
-6411 6422 0
-308 -6411 6412 0
-6412 6423 0
-309 -6412 6413 0
-6413 6424 0
-310 -6413 6414 0
-6414 6425 0
-311 -6414 6415 0
-6415 6426 0
-312 -6415 0
-302 6416 0
-6416 6427 0
-303 -6416 6417 0
-6417 6428 0
-304 -6417 6418 0
-6418 6429 0
-305 -6418 6419 0
-6419 6430 0
-306 -6419 6420 0
-6420 6431 0
-307 -6420 6421 0
-6421 6432 0
-308 -6421 6422 0
-6422 6433 0
-309 -6422 6423 0
-6423 6434 0
-310 -6423 6424 0
-6424 6435 0
-311 -6424 6425 0
-6425 6436 0
-312 -6425 6426 0
-6426 6437 0
-313 -6426 0
-303 6427 0
-6427 6438 0
-304 -6427 6428 0
-6428 6439 0
-305 -6428 6429 0
-6429 6440 0
-306 -6429 6430 0
-6430 6441 0
-307 -6430 6431 0
-6431 6442 0
-308 -6431 6432 0
-6432 6443 0
-309 -6432 6433 0
-6433 6444 0
-310 -6433 6434 0
-6434 6445 0
-311 -6434 6435 0
-6435 6446 0
-312 -6435 6436 0
-6436 6447 0
-313 -6436 6437 0
-6437 6448 0
-314 -6437 0
-304 6438 0
-6438 6449 0
-305 -6438 6439 0
-6439 6450 0
-306 -6439 6440 0
-6440 6451 0
-307 -6440 6441 0
-6441 6452 0
-308 -6441 6442 0
-6442 6453 0
-309 -6442 6443 0
-6443 6454 0
-310 -6443 6444 0
-6444 6455 0
-311 -6444 6445 0
-6445 6456 0
-312 -6445 6446 0
-6446 6457 0
-313 -6446 6447 0
-6447 6458 0
-314 -6447 6448 0
-6448 6459 0
-315 -6448 0
-305 6449 0
-6449 6460 0
-306 -6449 6450 0
-6450 6461 0
-307 -6450 6451 0
-6451 6462 0
-308 -6451 6452 0
-6452 6463 0
-309 -6452 6453 0
-6453 6464 0
-310 -6453 6454 0
-6454 6465 0
-311 -6454 6455 0
-6455 6466 0
-312 -6455 6456 0
-6456 6467 0
-313 -6456 6457 0
-6457 6468 0
-314 -6457 6458 0
-6458 6469 0
-315 -6458 6459 0
-6459 6470 0
-316 -6459 0
-306 6460 0
-6460 6471 0
-307 -6460 6461 0
-6461 6472 0
-308 -6461 6462 0
-6462 6473 0
-309 -6462 6463 0
-6463 6474 0
-310 -6463 6464 0
-6464 6475 0
-311 -6464 6465 0
-6465 6476 0
-312 -6465 6466 0
-6466 6477 0
-313 -6466 6467 0
-6467 6478 0
-314 -6467 6468 0
-6468 6479 0
-315 -6468 6469 0
-6469 6480 0
-316 -6469 6470 0
-6470 6481 0
-317 -6470 0
-307 6471 0
-6471 6482 0
-308 -6471 6472 0
-6472 6483 0
-309 -6472 6473 0
-6473 6484 0
-310 -6473 6474 0
-6474 6485 0
-311 -6474 6475 0
-6475 6486 0
-312 -6475 6476 0
-6476 6487 0
-313 -6476 6477 0
-6477 6488 0
-314 -6477 6478 0
-6478 6489 0
-315 -6478 6479 0
-6479 6490 0
-316 -6479 6480 0
-6480 6491 0
-317 -6480 6481 0
-6481 6492 0
-318 -6481 0
-308 6482 0
-6482 6493 0
-309 -6482 6483 0
-6483 6494 0
-310 -6483 6484 0
-6484 6495 0
-311 -6484 6485 0
-6485 6496 0
-312 -6485 6486 0
-6486 6497 0
-313 -6486 6487 0
-6487 6498 0
-314 -6487 6488 0
-6488 6499 0
-315 -6488 6489 0
-6489 6500 0
-316 -6489 6490 0
-6490 6501 0
-317 -6490 6491 0
-6491 6502 0
-318 -6491 6492 0
-6492 6503 0
-319 -6492 0
-309 6493 0
-6493 6504 0
-310 -6493 6494 0
-6494 6505 0
-311 -6494 6495 0
-6495 6506 0
-312 -6495 6496 0
-6496 6507 0
-313 -6496 6497 0
-6497 6508 0
-314 -6497 6498 0
-6498 6509 0
-315 -6498 6499 0
-6499 6510 0
-316 -6499 6500 0
-6500 6511 0
-317 -6500 6501 0
-6501 6512 0
-318 -6501 6502 0
-6502 6513 0
-319 -6502 6503 0
-6503 6514 0
-320 -6503 0
-310 6504 0
-6504 6515 0
-311 -6504 6505 0
-6505 6516 0
-312 -6505 6506 0
-6506 6517 0
-313 -6506 6507 0
-6507 6518 0
-314 -6507 6508 0
-6508 6519 0
-315 -6508 6509 0
-6509 6520 0
-316 -6509 6510 0
-6510 6521 0
-317 -6510 6511 0
-6511 6522 0
-318 -6511 6512 0
-6512 6523 0
-319 -6512 6513 0
-6513 6524 0
-320 -6513 6514 0
-6514 6525 0
-321 -6514 0
-311 6515 0
-6515 6526 0
-312 -6515 6516 0
-6516 6527 0
-313 -6516 6517 0
-6517 6528 0
-314 -6517 6518 0
-6518 6529 0
-315 -6518 6519 0
-6519 6530 0
-316 -6519 6520 0
-6520 6531 0
-317 -6520 6521 0
-6521 6532 0
-318 -6521 6522 0
-6522 6533 0
-319 -6522 6523 0
-6523 6534 0
-320 -6523 6524 0
-6524 6535 0
-321 -6524 6525 0
-6525 6536 0
-322 -6525 0
-312 6526 0
-6526 6537 0
-313 -6526 6527 0
-6527 6538 0
-314 -6527 6528 0
-6528 6539 0
-315 -6528 6529 0
-6529 6540 0
-316 -6529 6530 0
-6530 6541 0
-317 -6530 6531 0
-6531 6542 0
-318 -6531 6532 0
-6532 6543 0
-319 -6532 6533 0
-6533 6544 0
-320 -6533 6534 0
-6534 6545 0
-321 -6534 6535 0
-6535 6546 0
-322 -6535 6536 0
-6536 6547 0
-323 -6536 0
-313 6537 0
-6537 6548 0
-314 -6537 6538 0
-6538 6549 0
-315 -6538 6539 0
-6539 6550 0
-316 -6539 6540 0
-6540 6551 0
-317 -6540 6541 0
-6541 6552 0
-318 -6541 6542 0
-6542 6553 0
-319 -6542 6543 0
-6543 6554 0
-320 -6543 6544 0
-6544 6555 0
-321 -6544 6545 0
-6545 6556 0
-322 -6545 6546 0
-6546 6557 0
-323 -6546 6547 0
-6547 6558 0
-324 -6547 0
-314 6548 0
-6548 6559 0
-315 -6548 6549 0
-6549 6560 0
-316 -6549 6550 0
-6550 6561 0
-317 -6550 6551 0
-6551 6562 0
-318 -6551 6552 0
-6552 6563 0
-319 -6552 6553 0
-6553 6564 0
-320 -6553 6554 0
-6554 6565 0
-321 -6554 6555 0
-6555 6566 0
-322 -6555 6556 0
-6556 6567 0
-323 -6556 6557 0
-6557 6568 0
-324 -6557 6558 0
-6558 6569 0
-325 -6558 0
-315 6559 0
-6559 6570 0
-316 -6559 6560 0
-6560 6571 0
-317 -6560 6561 0
-6561 6572 0
-318 -6561 6562 0
-6562 6573 0
-319 -6562 6563 0
-6563 6574 0
-320 -6563 6564 0
-6564 6575 0
-321 -6564 6565 0
-6565 6576 0
-322 -6565 6566 0
-6566 6577 0
-323 -6566 6567 0
-6567 6578 0
-324 -6567 6568 0
-6568 6579 0
-325 -6568 6569 0
-6569 6580 0
-326 -6569 0
-316 6570 0
-6570 6581 0
-317 -6570 6571 0
-6571 6582 0
-318 -6571 6572 0
-6572 6583 0
-319 -6572 6573 0
-6573 6584 0
-320 -6573 6574 0
-6574 6585 0
-321 -6574 6575 0
-6575 6586 0
-322 -6575 6576 0
-6576 6587 0
-323 -6576 6577 0
-6577 6588 0
-324 -6577 6578 0
-6578 6589 0
-325 -6578 6579 0
-6579 6590 0
-326 -6579 6580 0
-6580 6591 0
-327 -6580 0
-317 6581 0
-6581 6592 0
-318 -6581 6582 0
-6582 6593 0
-319 -6582 6583 0
-6583 6594 0
-320 -6583 6584 0
-6584 6595 0
-321 -6584 6585 0
-6585 6596 0
-322 -6585 6586 0
-6586 6597 0
-323 -6586 6587 0
-6587 6598 0
-324 -6587 6588 0
-6588 6599 0
-325 -6588 6589 0
-6589 6600 0
-326 -6589 6590 0
-6590 6601 0
-327 -6590 6591 0
-6591 6602 0
-328 -6591 0
-318 6592 0
-6592 6603 0
-319 -6592 6593 0
-6593 6604 0
-320 -6593 6594 0
-6594 6605 0
-321 -6594 6595 0
-6595 6606 0
-322 -6595 6596 0
-6596 6607 0
-323 -6596 6597 0
-6597 6608 0
-324 -6597 6598 0
-6598 6609 0
-325 -6598 6599 0
-6599 6610 0
-326 -6599 6600 0
-6600 6611 0
-327 -6600 6601 0
-6601 6612 0
-328 -6601 6602 0
-6602 6613 0
-329 -6602 0
-319 6603 0
-6603 6614 0
-320 -6603 6604 0
-6604 6615 0
-321 -6604 6605 0
-6605 6616 0
-322 -6605 6606 0
-6606 6617 0
-323 -6606 6607 0
-6607 6618 0
-324 -6607 6608 0
-6608 6619 0
-325 -6608 6609 0
-6609 6620 0
-326 -6609 6610 0
-6610 6621 0
-327 -6610 6611 0
-6611 6622 0
-328 -6611 6612 0
-6612 6623 0
-329 -6612 6613 0
-6613 6624 0
-330 -6613 0
-320 6614 0
-6614 6625 0
-321 -6614 6615 0
-6615 6626 0
-322 -6615 6616 0
-6616 6627 0
-323 -6616 6617 0
-6617 6628 0
-324 -6617 6618 0
-6618 6629 0
-325 -6618 6619 0
-6619 6630 0
-326 -6619 6620 0
-6620 6631 0
-327 -6620 6621 0
-6621 6632 0
-328 -6621 6622 0
-6622 6633 0
-329 -6622 6623 0
-6623 6634 0
-330 -6623 6624 0
-6624 6635 0
-331 -6624 0
-321 6625 0
-6625 6636 0
-322 -6625 6626 0
-6626 6637 0
-323 -6626 6627 0
-6627 6638 0
-324 -6627 6628 0
-6628 6639 0
-325 -6628 6629 0
-6629 6640 0
-326 -6629 6630 0
-6630 6641 0
-327 -6630 6631 0
-6631 6642 0
-328 -6631 6632 0
-6632 6643 0
-329 -6632 6633 0
-6633 6644 0
-330 -6633 6634 0
-6634 6645 0
-331 -6634 6635 0
-6635 6646 0
-332 -6635 0
-322 6636 0
-6636 6647 0
-323 -6636 6637 0
-6637 6648 0
-324 -6637 6638 0
-6638 6649 0
-325 -6638 6639 0
-6639 6650 0
-326 -6639 6640 0
-6640 6651 0
-327 -6640 6641 0
-6641 6652 0
-328 -6641 6642 0
-6642 6653 0
-329 -6642 6643 0
-6643 6654 0
-330 -6643 6644 0
-6644 6655 0
-331 -6644 6645 0
-6645 6656 0
-332 -6645 6646 0
-6646 6657 0
-333 -6646 0
-323 6647 0
-6647 6658 0
-324 -6647 6648 0
-6648 6659 0
-325 -6648 6649 0
-6649 6660 0
-326 -6649 6650 0
-6650 6661 0
-327 -6650 6651 0
-6651 6662 0
-328 -6651 6652 0
-6652 6663 0
-329 -6652 6653 0
-6653 6664 0
-330 -6653 6654 0
-6654 6665 0
-331 -6654 6655 0
-6655 6666 0
-332 -6655 6656 0
-6656 6667 0
-333 -6656 6657 0
-6657 6668 0
-334 -6657 0
-324 6658 0
-6658 6669 0
-325 -6658 6659 0
-6659 6670 0
-326 -6659 6660 0
-6660 6671 0
-327 -6660 6661 0
-6661 6672 0
-328 -6661 6662 0
-6662 6673 0
-329 -6662 6663 0
-6663 6674 0
-330 -6663 6664 0
-6664 6675 0
-331 -6664 6665 0
-6665 6676 0
-332 -6665 6666 0
-6666 6677 0
-333 -6666 6667 0
-6667 6678 0
-334 -6667 6668 0
-6668 6679 0
-335 -6668 0
-325 6669 0
-6669 6680 0
-326 -6669 6670 0
-6670 6681 0
-327 -6670 6671 0
-6671 6682 0
-328 -6671 6672 0
-6672 6683 0
-329 -6672 6673 0
-6673 6684 0
-330 -6673 6674 0
-6674 6685 0
-331 -6674 6675 0
-6675 6686 0
-332 -6675 6676 0
-6676 6687 0
-333 -6676 6677 0
-6677 6688 0
-334 -6677 6678 0
-6678 6689 0
-335 -6678 6679 0
-6679 6690 0
-336 -6679 0
-326 6680 0
-6680 6691 0
-327 -6680 6681 0
-6681 6692 0
-328 -6681 6682 0
-6682 6693 0
-329 -6682 6683 0
-6683 6694 0
-330 -6683 6684 0
-6684 6695 0
-331 -6684 6685 0
-6685 6696 0
-332 -6685 6686 0
-6686 6697 0
-333 -6686 6687 0
-6687 6698 0
-334 -6687 6688 0
-6688 6699 0
-335 -6688 6689 0
-6689 6700 0
-336 -6689 6690 0
-6690 6701 0
-337 -6690 0
-327 6691 0
-6691 6702 0
-328 -6691 6692 0
-6692 6703 0
-329 -6692 6693 0
-6693 6704 0
-330 -6693 6694 0
-6694 6705 0
-331 -6694 6695 0
-6695 6706 0
-332 -6695 6696 0
-6696 6707 0
-333 -6696 6697 0
-6697 6708 0
-334 -6697 6698 0
-6698 6709 0
-335 -6698 6699 0
-6699 6710 0
-336 -6699 6700 0
-6700 6711 0
-337 -6700 6701 0
-6701 6712 0
-338 -6701 0
-328 6702 0
-6702 6713 0
-329 -6702 6703 0
-6703 6714 0
-330 -6703 6704 0
-6704 6715 0
-331 -6704 6705 0
-6705 6716 0
-332 -6705 6706 0
-6706 6717 0
-333 -6706 6707 0
-6707 6718 0
-334 -6707 6708 0
-6708 6719 0
-335 -6708 6709 0
-6709 6720 0
-336 -6709 6710 0
-6710 6721 0
-337 -6710 6711 0
-6711 6722 0
-338 -6711 6712 0
-6712 6723 0
-339 -6712 0
-329 6713 0
-6713 6724 0
-330 -6713 6714 0
-6714 6725 0
-331 -6714 6715 0
-6715 6726 0
-332 -6715 6716 0
-6716 6727 0
-333 -6716 6717 0
-6717 6728 0
-334 -6717 6718 0
-6718 6729 0
-335 -6718 6719 0
-6719 6730 0
-336 -6719 6720 0
-6720 6731 0
-337 -6720 6721 0
-6721 6732 0
-338 -6721 6722 0
-6722 6733 0
-339 -6722 6723 0
-6723 6734 0
-340 -6723 0
-330 6724 0
-6724 6735 0
-331 -6724 6725 0
-6725 6736 0
-332 -6725 6726 0
-6726 6737 0
-333 -6726 6727 0
-6727 6738 0
-334 -6727 6728 0
-6728 6739 0
-335 -6728 6729 0
-6729 6740 0
-336 -6729 6730 0
-6730 6741 0
-337 -6730 6731 0
-6731 6742 0
-338 -6731 6732 0
-6732 6743 0
-339 -6732 6733 0
-6733 6744 0
-340 -6733 6734 0
-6734 6745 0
-341 -6734 0
-331 6735 0
-6735 6746 0
-332 -6735 6736 0
-6736 6747 0
-333 -6736 6737 0
-6737 6748 0
-334 -6737 6738 0
-6738 6749 0
-335 -6738 6739 0
-6739 6750 0
-336 -6739 6740 0
-6740 6751 0
-337 -6740 6741 0
-6741 6752 0
-338 -6741 6742 0
-6742 6753 0
-339 -6742 6743 0
-6743 6754 0
-340 -6743 6744 0
-6744 6755 0
-341 -6744 6745 0
-6745 6756 0
-342 -6745 0
-332 6746 0
-6746 6757 0
-333 -6746 6747 0
-6747 6758 0
-334 -6747 6748 0
-6748 6759 0
-335 -6748 6749 0
-6749 6760 0
-336 -6749 6750 0
-6750 6761 0
-337 -6750 6751 0
-6751 6762 0
-338 -6751 6752 0
-6752 6763 0
-339 -6752 6753 0
-6753 6764 0
-340 -6753 6754 0
-6754 6765 0
-341 -6754 6755 0
-6755 6766 0
-342 -6755 6756 0
-6756 6767 0
-343 -6756 0
-333 6757 0
-6757 6768 0
-334 -6757 6758 0
-6758 6769 0
-335 -6758 6759 0
-6759 6770 0
-336 -6759 6760 0
-6760 6771 0
-337 -6760 6761 0
-6761 6772 0
-338 -6761 6762 0
-6762 6773 0
-339 -6762 6763 0
-6763 6774 0
-340 -6763 6764 0
-6764 6775 0
-341 -6764 6765 0
-6765 6776 0
-342 -6765 6766 0
-6766 6777 0
-343 -6766 6767 0
-6767 6778 0
-344 -6767 0
-334 6768 0
-6768 6779 0
-335 -6768 6769 0
-6769 6780 0
-336 -6769 6770 0
-6770 6781 0
-337 -6770 6771 0
-6771 6782 0
-338 -6771 6772 0
-6772 6783 0
-339 -6772 6773 0
-6773 6784 0
-340 -6773 6774 0
-6774 6785 0
-341 -6774 6775 0
-6775 6786 0
-342 -6775 6776 0
-6776 6787 0
-343 -6776 6777 0
-6777 6788 0
-344 -6777 6778 0
-6778 6789 0
-345 -6778 0
-335 6779 0
-6779 6790 0
-336 -6779 6780 0
-6780 6791 0
-337 -6780 6781 0
-6781 6792 0
-338 -6781 6782 0
-6782 6793 0
-339 -6782 6783 0
-6783 6794 0
-340 -6783 6784 0
-6784 6795 0
-341 -6784 6785 0
-6785 6796 0
-342 -6785 6786 0
-6786 6797 0
-343 -6786 6787 0
-6787 6798 0
-344 -6787 6788 0
-6788 6799 0
-345 -6788 6789 0
-6789 6800 0
-346 -6789 0
-336 6790 0
-6790 6801 0
-337 -6790 6791 0
-6791 6802 0
-338 -6791 6792 0
-6792 6803 0
-339 -6792 6793 0
-6793 6804 0
-340 -6793 6794 0
-6794 6805 0
-341 -6794 6795 0
-6795 6806 0
-342 -6795 6796 0
-6796 6807 0
-343 -6796 6797 0
-6797 6808 0
-344 -6797 6798 0
-6798 6809 0
-345 -6798 6799 0
-6799 6810 0
-346 -6799 6800 0
-6800 6811 0
-347 -6800 0
-337 6801 0
-6801 6812 0
-338 -6801 6802 0
-6802 6813 0
-339 -6802 6803 0
-6803 6814 0
-340 -6803 6804 0
-6804 6815 0
-341 -6804 6805 0
-6805 6816 0
-342 -6805 6806 0
-6806 6817 0
-343 -6806 6807 0
-6807 6818 0
-344 -6807 6808 0
-6808 6819 0
-345 -6808 6809 0
-6809 6820 0
-346 -6809 6810 0
-6810 6821 0
-347 -6810 6811 0
-6811 6822 0
-348 -6811 0
-338 6812 0
-6812 6823 0
-339 -6812 6813 0
-6813 6824 0
-340 -6813 6814 0
-6814 6825 0
-341 -6814 6815 0
-6815 6826 0
-342 -6815 6816 0
-6816 6827 0
-343 -6816 6817 0
-6817 6828 0
-344 -6817 6818 0
-6818 6829 0
-345 -6818 6819 0
-6819 6830 0
-346 -6819 6820 0
-6820 6831 0
-347 -6820 6821 0
-6821 6832 0
-348 -6821 6822 0
-6822 6833 0
-349 -6822 0
-339 6823 0
-6823 6834 0
-340 -6823 6824 0
-6824 6835 0
-341 -6824 6825 0
-6825 6836 0
-342 -6825 6826 0
-6826 6837 0
-343 -6826 6827 0
-6827 6838 0
-344 -6827 6828 0
-6828 6839 0
-345 -6828 6829 0
-6829 6840 0
-346 -6829 6830 0
-6830 6841 0
-347 -6830 6831 0
-6831 6842 0
-348 -6831 6832 0
-6832 6843 0
-349 -6832 6833 0
-6833 6844 0
-350 -6833 0
-340 6834 0
-6834 6845 0
-341 -6834 6835 0
-6835 6846 0
-342 -6835 6836 0
-6836 6847 0
-343 -6836 6837 0
-6837 6848 0
-344 -6837 6838 0
-6838 6849 0
-345 -6838 6839 0
-6839 6850 0
-346 -6839 6840 0
-6840 6851 0
-347 -6840 6841 0
-6841 6852 0
-348 -6841 6842 0
-6842 6853 0
-349 -6842 6843 0
-6843 6854 0
-350 -6843 6844 0
-6844 6855 0
-351 -6844 0
-341 6845 0
-6845 6856 0
-342 -6845 6846 0
-6846 6857 0
-343 -6846 6847 0
-6847 6858 0
-344 -6847 6848 0
-6848 6859 0
-345 -6848 6849 0
-6849 6860 0
-346 -6849 6850 0
-6850 6861 0
-347 -6850 6851 0
-6851 6862 0
-348 -6851 6852 0
-6852 6863 0
-349 -6852 6853 0
-6853 6864 0
-350 -6853 6854 0
-6854 6865 0
-351 -6854 6855 0
-6855 6866 0
-352 -6855 0
-342 6856 0
-6856 6867 0
-343 -6856 6857 0
-6857 6868 0
-344 -6857 6858 0
-6858 6869 0
-345 -6858 6859 0
-6859 6870 0
-346 -6859 6860 0
-6860 6871 0
-347 -6860 6861 0
-6861 6872 0
-348 -6861 6862 0
-6862 6873 0
-349 -6862 6863 0
-6863 6874 0
-350 -6863 6864 0
-6864 6875 0
-351 -6864 6865 0
-6865 6876 0
-352 -6865 6866 0
-6866 6877 0
-353 -6866 0
-343 6867 0
-6867 6878 0
-344 -6867 6868 0
-6868 6879 0
-345 -6868 6869 0
-6869 6880 0
-346 -6869 6870 0
-6870 6881 0
-347 -6870 6871 0
-6871 6882 0
-348 -6871 6872 0
-6872 6883 0
-349 -6872 6873 0
-6873 6884 0
-350 -6873 6874 0
-6874 6885 0
-351 -6874 6875 0
-6875 6886 0
-352 -6875 6876 0
-6876 6887 0
-353 -6876 6877 0
-6877 6888 0
-354 -6877 0
-344 6878 0
-6878 6889 0
-345 -6878 6879 0
-6879 6890 0
-346 -6879 6880 0
-6880 6891 0
-347 -6880 6881 0
-6881 6892 0
-348 -6881 6882 0
-6882 6893 0
-349 -6882 6883 0
-6883 6894 0
-350 -6883 6884 0
-6884 6895 0
-351 -6884 6885 0
-6885 6896 0
-352 -6885 6886 0
-6886 6897 0
-353 -6886 6887 0
-6887 6898 0
-354 -6887 6888 0
-6888 6899 0
-355 -6888 0
-345 6889 0
-6889 6900 0
-346 -6889 6890 0
-6890 6901 0
-347 -6890 6891 0
-6891 6902 0
-348 -6891 6892 0
-6892 6903 0
-349 -6892 6893 0
-6893 6904 0
-350 -6893 6894 0
-6894 6905 0
-351 -6894 6895 0
-6895 6906 0
-352 -6895 6896 0
-6896 6907 0
-353 -6896 6897 0
-6897 6908 0
-354 -6897 6898 0
-6898 6909 0
-355 -6898 6899 0
-6899 6910 0
-356 -6899 0
-346 6900 0
-6900 6911 0
-347 -6900 6901 0
-6901 6912 0
-348 -6901 6902 0
-6902 6913 0
-349 -6902 6903 0
-6903 6914 0
-350 -6903 6904 0
-6904 6915 0
-351 -6904 6905 0
-6905 6916 0
-352 -6905 6906 0
-6906 6917 0
-353 -6906 6907 0
-6907 6918 0
-354 -6907 6908 0
-6908 6919 0
-355 -6908 6909 0
-6909 6920 0
-356 -6909 6910 0
-6910 6921 0
-357 -6910 0
-347 6911 0
-6911 6922 0
-348 -6911 6912 0
-6912 6923 0
-349 -6912 6913 0
-6913 6924 0
-350 -6913 6914 0
-6914 6925 0
-351 -6914 6915 0
-6915 6926 0
-352 -6915 6916 0
-6916 6927 0
-353 -6916 6917 0
-6917 6928 0
-354 -6917 6918 0
-6918 6929 0
-355 -6918 6919 0
-6919 6930 0
-356 -6919 6920 0
-6920 6931 0
-357 -6920 6921 0
-6921 6932 0
-358 -6921 0
-348 6922 0
-6922 6933 0
-349 -6922 6923 0
-6923 6934 0
-350 -6923 6924 0
-6924 6935 0
-351 -6924 6925 0
-6925 6936 0
-352 -6925 6926 0
-6926 6937 0
-353 -6926 6927 0
-6927 6938 0
-354 -6927 6928 0
-6928 6939 0
-355 -6928 6929 0
-6929 6940 0
-356 -6929 6930 0
-6930 6941 0
-357 -6930 6931 0
-6931 6942 0
-358 -6931 6932 0
-6932 6943 0
-359 -6932 0
-349 6933 0
-6933 6944 0
-350 -6933 6934 0
-6934 6945 0
-351 -6934 6935 0
-6935 6946 0
-352 -6935 6936 0
-6936 6947 0
-353 -6936 6937 0
-6937 6948 0
-354 -6937 6938 0
-6938 6949 0
-355 -6938 6939 0
-6939 6950 0
-356 -6939 6940 0
-6940 6951 0
-357 -6940 6941 0
-6941 6952 0
-358 -6941 6942 0
-6942 6953 0
-359 -6942 6943 0
-6943 6954 0
-360 -6943 0
-350 6944 0
-6944 6955 0
-351 -6944 6945 0
-6945 6956 0
-352 -6945 6946 0
-6946 6957 0
-353 -6946 6947 0
-6947 6958 0
-354 -6947 6948 0
-6948 6959 0
-355 -6948 6949 0
-6949 6960 0
-356 -6949 6950 0
-6950 6961 0
-357 -6950 6951 0
-6951 6962 0
-358 -6951 6952 0
-6952 6963 0
-359 -6952 6953 0
-6953 6964 0
-360 -6953 6954 0
-6954 6965 0
-361 -6954 0
-351 6955 0
-6955 6966 0
-352 -6955 6956 0
-6956 6967 0
-353 -6956 6957 0
-6957 6968 0
-354 -6957 6958 0
-6958 6969 0
-355 -6958 6959 0
-6959 6970 0
-356 -6959 6960 0
-6960 6971 0
-357 -6960 6961 0
-6961 6972 0
-358 -6961 6962 0
-6962 6973 0
-359 -6962 6963 0
-6963 6974 0
-360 -6963 6964 0
-6964 6975 0
-361 -6964 6965 0
-6965 6976 0
-362 -6965 0
-352 6966 0
-6966 6977 0
-353 -6966 6967 0
-6967 6978 0
-354 -6967 6968 0
-6968 6979 0
-355 -6968 6969 0
-6969 6980 0
-356 -6969 6970 0
-6970 6981 0
-357 -6970 6971 0
-6971 6982 0
-358 -6971 6972 0
-6972 6983 0
-359 -6972 6973 0
-6973 6984 0
-360 -6973 6974 0
-6974 6985 0
-361 -6974 6975 0
-6975 6986 0
-362 -6975 6976 0
-6976 6987 0
-363 -6976 0
-353 6977 0
-6977 6988 0
-354 -6977 6978 0
-6978 6989 0
-355 -6978 6979 0
-6979 6990 0
-356 -6979 6980 0
-6980 6991 0
-357 -6980 6981 0
-6981 6992 0
-358 -6981 6982 0
-6982 6993 0
-359 -6982 6983 0
-6983 6994 0
-360 -6983 6984 0
-6984 6995 0
-361 -6984 6985 0
-6985 6996 0
-362 -6985 6986 0
-6986 6997 0
-363 -6986 6987 0
-6987 6998 0
-364 -6987 0
-354 6988 0
-6988 6999 0
-355 -6988 6989 0
-6989 7000 0
-356 -6989 6990 0
-6990 7001 0
-357 -6990 6991 0
-6991 7002 0
-358 -6991 6992 0
-6992 7003 0
-359 -6992 6993 0
-6993 7004 0
-360 -6993 6994 0
-6994 7005 0
-361 -6994 6995 0
-6995 7006 0
-362 -6995 6996 0
-6996 7007 0
-363 -6996 6997 0
-6997 7008 0
-364 -6997 6998 0
-6998 7009 0
-365 -6998 0
-355 6999 0
-6999 7010 0
-356 -6999 7000 0
-7000 7011 0
-357 -7000 7001 0
-7001 7012 0
-358 -7001 7002 0
-7002 7013 0
-359 -7002 7003 0
-7003 7014 0
-360 -7003 7004 0
-7004 7015 0
-361 -7004 7005 0
-7005 7016 0
-362 -7005 7006 0
-7006 7017 0
-363 -7006 7007 0
-7007 7018 0
-364 -7007 7008 0
-7008 7019 0
-365 -7008 7009 0
-7009 7020 0
-366 -7009 0
-356 7010 0
-7010 7021 0
-357 -7010 7011 0
-7011 7022 0
-358 -7011 7012 0
-7012 7023 0
-359 -7012 7013 0
-7013 7024 0
-360 -7013 7014 0
-7014 7025 0
-361 -7014 7015 0
-7015 7026 0
-362 -7015 7016 0
-7016 7027 0
-363 -7016 7017 0
-7017 7028 0
-364 -7017 7018 0
-7018 7029 0
-365 -7018 7019 0
-7019 7030 0
-366 -7019 7020 0
-7020 7031 0
-367 -7020 0
-357 7021 0
-7021 7032 0
-358 -7021 7022 0
-7022 7033 0
-359 -7022 7023 0
-7023 7034 0
-360 -7023 7024 0
-7024 7035 0
-361 -7024 7025 0
-7025 7036 0
-362 -7025 7026 0
-7026 7037 0
-363 -7026 7027 0
-7027 7038 0
-364 -7027 7028 0
-7028 7039 0
-365 -7028 7029 0
-7029 7040 0
-366 -7029 7030 0
-7030 7041 0
-367 -7030 7031 0
-7031 7042 0
-368 -7031 0
-358 7032 0
-7032 7043 0
-359 -7032 7033 0
-7033 7044 0
-360 -7033 7034 0
-7034 7045 0
-361 -7034 7035 0
-7035 7046 0
-362 -7035 7036 0
-7036 7047 0
-363 -7036 7037 0
-7037 7048 0
-364 -7037 7038 0
-7038 7049 0
-365 -7038 7039 0
-7039 7050 0
-366 -7039 7040 0
-7040 7051 0
-367 -7040 7041 0
-7041 7052 0
-368 -7041 7042 0
-7042 7053 0
-369 -7042 0
-359 7043 0
-7043 7054 0
-360 -7043 7044 0
-7044 7055 0
-361 -7044 7045 0
-7045 7056 0
-362 -7045 7046 0
-7046 7057 0
-363 -7046 7047 0
-7047 7058 0
-364 -7047 7048 0
-7048 7059 0
-365 -7048 7049 0
-7049 7060 0
-366 -7049 7050 0
-7050 7061 0
-367 -7050 7051 0
-7051 7062 0
-368 -7051 7052 0
-7052 7063 0
-369 -7052 7053 0
-7053 7064 0
-370 -7053 0
-360 7054 0
-7054 7065 0
-361 -7054 7055 0
-7055 7066 0
-362 -7055 7056 0
-7056 7067 0
-363 -7056 7057 0
-7057 7068 0
-364 -7057 7058 0
-7058 7069 0
-365 -7058 7059 0
-7059 7070 0
-366 -7059 7060 0
-7060 7071 0
-367 -7060 7061 0
-7061 7072 0
-368 -7061 7062 0
-7062 7073 0
-369 -7062 7063 0
-7063 7074 0
-370 -7063 7064 0
-7064 7075 0
-371 -7064 0
-361 7065 0
-7065 7076 0
-362 -7065 7066 0
-7066 7077 0
-363 -7066 7067 0
-7067 7078 0
-364 -7067 7068 0
-7068 7079 0
-365 -7068 7069 0
-7069 7080 0
-366 -7069 7070 0
-7070 7081 0
-367 -7070 7071 0
-7071 7082 0
-368 -7071 7072 0
-7072 7083 0
-369 -7072 7073 0
-7073 7084 0
-370 -7073 7074 0
-7074 7085 0
-371 -7074 7075 0
-7075 7086 0
-372 -7075 0
-362 7076 0
-7076 7087 0
-363 -7076 7077 0
-7077 7088 0
-364 -7077 7078 0
-7078 7089 0
-365 -7078 7079 0
-7079 7090 0
-366 -7079 7080 0
-7080 7091 0
-367 -7080 7081 0
-7081 7092 0
-368 -7081 7082 0
-7082 7093 0
-369 -7082 7083 0
-7083 7094 0
-370 -7083 7084 0
-7084 7095 0
-371 -7084 7085 0
-7085 7096 0
-372 -7085 7086 0
-7086 7097 0
-373 -7086 0
-363 7087 0
-7087 7098 0
-364 -7087 7088 0
-7088 7099 0
-365 -7088 7089 0
-7089 7100 0
-366 -7089 7090 0
-7090 7101 0
-367 -7090 7091 0
-7091 7102 0
-368 -7091 7092 0
-7092 7103 0
-369 -7092 7093 0
-7093 7104 0
-370 -7093 7094 0
-7094 7105 0
-371 -7094 7095 0
-7095 7106 0
-372 -7095 7096 0
-7096 7107 0
-373 -7096 7097 0
-7097 7108 0
-374 -7097 0
-364 7098 0
-7098 7109 0
-365 -7098 7099 0
-7099 7110 0
-366 -7099 7100 0
-7100 7111 0
-367 -7100 7101 0
-7101 7112 0
-368 -7101 7102 0
-7102 7113 0
-369 -7102 7103 0
-7103 7114 0
-370 -7103 7104 0
-7104 7115 0
-371 -7104 7105 0
-7105 7116 0
-372 -7105 7106 0
-7106 7117 0
-373 -7106 7107 0
-7107 7118 0
-374 -7107 7108 0
-7108 7119 0
-375 -7108 0
-365 7109 0
-7109 7120 0
-366 -7109 7110 0
-7110 7121 0
-367 -7110 7111 0
-7111 7122 0
-368 -7111 7112 0
-7112 7123 0
-369 -7112 7113 0
-7113 7124 0
-370 -7113 7114 0
-7114 7125 0
-371 -7114 7115 0
-7115 7126 0
-372 -7115 7116 0
-7116 7127 0
-373 -7116 7117 0
-7117 7128 0
-374 -7117 7118 0
-7118 7129 0
-375 -7118 7119 0
-7119 7130 0
-376 -7119 0
-366 7120 0
-7120 7131 0
-367 -7120 7121 0
-7121 7132 0
-368 -7121 7122 0
-7122 7133 0
-369 -7122 7123 0
-7123 7134 0
-370 -7123 7124 0
-7124 7135 0
-371 -7124 7125 0
-7125 7136 0
-372 -7125 7126 0
-7126 7137 0
-373 -7126 7127 0
-7127 7138 0
-374 -7127 7128 0
-7128 7139 0
-375 -7128 7129 0
-7129 7140 0
-376 -7129 7130 0
-7130 7141 0
-377 -7130 0
-367 7131 0
-7131 7142 0
-368 -7131 7132 0
-7132 7143 0
-369 -7132 7133 0
-7133 7144 0
-370 -7133 7134 0
-7134 7145 0
-371 -7134 7135 0
-7135 7146 0
-372 -7135 7136 0
-7136 7147 0
-373 -7136 7137 0
-7137 7148 0
-374 -7137 7138 0
-7138 7149 0
-375 -7138 7139 0
-7139 7150 0
-376 -7139 7140 0
-7140 7151 0
-377 -7140 7141 0
-7141 7152 0
-378 -7141 0
-368 7142 0
-7142 7153 0
-369 -7142 7143 0
-7143 7154 0
-370 -7143 7144 0
-7144 7155 0
-371 -7144 7145 0
-7145 7156 0
-372 -7145 7146 0
-7146 7157 0
-373 -7146 7147 0
-7147 7158 0
-374 -7147 7148 0
-7148 7159 0
-375 -7148 7149 0
-7149 7160 0
-376 -7149 7150 0
-7150 7161 0
-377 -7150 7151 0
-7151 7162 0
-378 -7151 7152 0
-7152 7163 0
-379 -7152 0
-369 7153 0
-7153 7164 0
-370 -7153 7154 0
-7154 7165 0
-371 -7154 7155 0
-7155 7166 0
-372 -7155 7156 0
-7156 7167 0
-373 -7156 7157 0
-7157 7168 0
-374 -7157 7158 0
-7158 7169 0
-375 -7158 7159 0
-7159 7170 0
-376 -7159 7160 0
-7160 7171 0
-377 -7160 7161 0
-7161 7172 0
-378 -7161 7162 0
-7162 7173 0
-379 -7162 7163 0
-7163 7174 0
-380 -7163 0
-370 7164 0
-7164 7175 0
-371 -7164 7165 0
-7165 7176 0
-372 -7165 7166 0
-7166 7177 0
-373 -7166 7167 0
-7167 7178 0
-374 -7167 7168 0
-7168 7179 0
-375 -7168 7169 0
-7169 7180 0
-376 -7169 7170 0
-7170 7181 0
-377 -7170 7171 0
-7171 7182 0
-378 -7171 7172 0
-7172 7183 0
-379 -7172 7173 0
-7173 7184 0
-380 -7173 7174 0
-7174 7185 0
-381 -7174 0
-371 7175 0
-7175 7186 0
-372 -7175 7176 0
-7176 7187 0
-373 -7176 7177 0
-7177 7188 0
-374 -7177 7178 0
-7178 7189 0
-375 -7178 7179 0
-7179 7190 0
-376 -7179 7180 0
-7180 7191 0
-377 -7180 7181 0
-7181 7192 0
-378 -7181 7182 0
-7182 7193 0
-379 -7182 7183 0
-7183 7194 0
-380 -7183 7184 0
-7184 7195 0
-381 -7184 7185 0
-7185 7196 0
-382 -7185 0
-372 7186 0
-7186 7197 0
-373 -7186 7187 0
-7187 7198 0
-374 -7187 7188 0
-7188 7199 0
-375 -7188 7189 0
-7189 7200 0
-376 -7189 7190 0
-7190 7201 0
-377 -7190 7191 0
-7191 7202 0
-378 -7191 7192 0
-7192 7203 0
-379 -7192 7193 0
-7193 7204 0
-380 -7193 7194 0
-7194 7205 0
-381 -7194 7195 0
-7195 7206 0
-382 -7195 7196 0
-7196 7207 0
-383 -7196 0
-373 7197 0
-7197 7208 0
-374 -7197 7198 0
-7198 7209 0
-375 -7198 7199 0
-7199 7210 0
-376 -7199 7200 0
-7200 7211 0
-377 -7200 7201 0
-7201 7212 0
-378 -7201 7202 0
-7202 7213 0
-379 -7202 7203 0
-7203 7214 0
-380 -7203 7204 0
-7204 7215 0
-381 -7204 7205 0
-7205 7216 0
-382 -7205 7206 0
-7206 7217 0
-383 -7206 7207 0
-7207 7218 0
-384 -7207 0
-374 7208 0
-7208 7219 0
-375 -7208 7209 0
-7209 7220 0
-376 -7209 7210 0
-7210 7221 0
-377 -7210 7211 0
-7211 7222 0
-378 -7211 7212 0
-7212 7223 0
-379 -7212 7213 0
-7213 7224 0
-380 -7213 7214 0
-7214 7225 0
-381 -7214 7215 0
-7215 7226 0
-382 -7215 7216 0
-7216 7227 0
-383 -7216 7217 0
-7217 7228 0
-384 -7217 7218 0
-7218 7229 0
-385 -7218 0
-375 7219 0
-7219 7230 0
-376 -7219 7220 0
-7220 7231 0
-377 -7220 7221 0
-7221 7232 0
-378 -7221 7222 0
-7222 7233 0
-379 -7222 7223 0
-7223 7234 0
-380 -7223 7224 0
-7224 7235 0
-381 -7224 7225 0
-7225 7236 0
-382 -7225 7226 0
-7226 7237 0
-383 -7226 7227 0
-7227 7238 0
-384 -7227 7228 0
-7228 7239 0
-385 -7228 7229 0
-7229 7240 0
-386 -7229 0
-376 7230 0
-7230 7241 0
-377 -7230 7231 0
-7231 7242 0
-378 -7231 7232 0
-7232 7243 0
-379 -7232 7233 0
-7233 7244 0
-380 -7233 7234 0
-7234 7245 0
-381 -7234 7235 0
-7235 7246 0
-382 -7235 7236 0
-7236 7247 0
-383 -7236 7237 0
-7237 7248 0
-384 -7237 7238 0
-7238 7249 0
-385 -7238 7239 0
-7239 7250 0
-386 -7239 7240 0
-7240 7251 0
-387 -7240 0
-377 7241 0
-7241 7252 0
-378 -7241 7242 0
-7242 7253 0
-379 -7242 7243 0
-7243 7254 0
-380 -7243 7244 0
-7244 7255 0
-381 -7244 7245 0
-7245 7256 0
-382 -7245 7246 0
-7246 7257 0
-383 -7246 7247 0
-7247 7258 0
-384 -7247 7248 0
-7248 7259 0
-385 -7248 7249 0
-7249 7260 0
-386 -7249 7250 0
-7250 7261 0
-387 -7250 7251 0
-7251 7262 0
-388 -7251 0
-378 7252 0
-7252 7263 0
-379 -7252 7253 0
-7253 7264 0
-380 -7253 7254 0
-7254 7265 0
-381 -7254 7255 0
-7255 7266 0
-382 -7255 7256 0
-7256 7267 0
-383 -7256 7257 0
-7257 7268 0
-384 -7257 7258 0
-7258 7269 0
-385 -7258 7259 0
-7259 7270 0
-386 -7259 7260 0
-7260 7271 0
-387 -7260 7261 0
-7261 7272 0
-388 -7261 7262 0
-7262 7273 0
-389 -7262 0
-379 7263 0
-7263 7274 0
-380 -7263 7264 0
-7264 7275 0
-381 -7264 7265 0
-7265 7276 0
-382 -7265 7266 0
-7266 7277 0
-383 -7266 7267 0
-7267 7278 0
-384 -7267 7268 0
-7268 7279 0
-385 -7268 7269 0
-7269 7280 0
-386 -7269 7270 0
-7270 7281 0
-387 -7270 7271 0
-7271 7282 0
-388 -7271 7272 0
-7272 7283 0
-389 -7272 7273 0
-7273 7284 0
-390 -7273 0
-380 7274 0
-7274 7285 0
-381 -7274 7275 0
-7275 7286 0
-382 -7275 7276 0
-7276 7287 0
-383 -7276 7277 0
-7277 7288 0
-384 -7277 7278 0
-7278 7289 0
-385 -7278 7279 0
-7279 7290 0
-386 -7279 7280 0
-7280 7291 0
-387 -7280 7281 0
-7281 7292 0
-388 -7281 7282 0
-7282 7293 0
-389 -7282 7283 0
-7283 7294 0
-390 -7283 7284 0
-7284 7295 0
-391 -7284 0
-381 7285 0
-7285 7296 0
-382 -7285 7286 0
-7286 7297 0
-383 -7286 7287 0
-7287 7298 0
-384 -7287 7288 0
-7288 7299 0
-385 -7288 7289 0
-7289 7300 0
-386 -7289 7290 0
-7290 7301 0
-387 -7290 7291 0
-7291 7302 0
-388 -7291 7292 0
-7292 7303 0
-389 -7292 7293 0
-7293 7304 0
-390 -7293 7294 0
-7294 7305 0
-391 -7294 7295 0
-7295 7306 0
-392 -7295 0
-382 7296 0
-7296 7307 0
-383 -7296 7297 0
-7297 7308 0
-384 -7297 7298 0
-7298 7309 0
-385 -7298 7299 0
-7299 7310 0
-386 -7299 7300 0
-7300 7311 0
-387 -7300 7301 0
-7301 7312 0
-388 -7301 7302 0
-7302 7313 0
-389 -7302 7303 0
-7303 7314 0
-390 -7303 7304 0
-7304 7315 0
-391 -7304 7305 0
-7305 7316 0
-392 -7305 7306 0
-7306 7317 0
-393 -7306 0
-383 7307 0
-7307 7318 0
-384 -7307 7308 0
-7308 7319 0
-385 -7308 7309 0
-7309 7320 0
-386 -7309 7310 0
-7310 7321 0
-387 -7310 7311 0
-7311 7322 0
-388 -7311 7312 0
-7312 7323 0
-389 -7312 7313 0
-7313 7324 0
-390 -7313 7314 0
-7314 7325 0
-391 -7314 7315 0
-7315 7326 0
-392 -7315 7316 0
-7316 7327 0
-393 -7316 7317 0
-7317 7328 0
-394 -7317 0
-384 7318 0
-7318 7329 0
-385 -7318 7319 0
-7319 7330 0
-386 -7319 7320 0
-7320 7331 0
-387 -7320 7321 0
-7321 7332 0
-388 -7321 7322 0
-7322 7333 0
-389 -7322 7323 0
-7323 7334 0
-390 -7323 7324 0
-7324 7335 0
-391 -7324 7325 0
-7325 7336 0
-392 -7325 7326 0
-7326 7337 0
-393 -7326 7327 0
-7327 7338 0
-394 -7327 7328 0
-7328 7339 0
-395 -7328 0
-385 7329 0
-7329 7340 0
-386 -7329 7330 0
-7330 7341 0
-387 -7330 7331 0
-7331 7342 0
-388 -7331 7332 0
-7332 7343 0
-389 -7332 7333 0
-7333 7344 0
-390 -7333 7334 0
-7334 7345 0
-391 -7334 7335 0
-7335 7346 0
-392 -7335 7336 0
-7336 7347 0
-393 -7336 7337 0
-7337 7348 0
-394 -7337 7338 0
-7338 7349 0
-395 -7338 7339 0
-7339 7350 0
-396 -7339 0
-386 7340 0
-7340 7351 0
-387 -7340 7341 0
-7341 7352 0
-388 -7341 7342 0
-7342 7353 0
-389 -7342 7343 0
-7343 7354 0
-390 -7343 7344 0
-7344 7355 0
-391 -7344 7345 0
-7345 7356 0
-392 -7345 7346 0
-7346 7357 0
-393 -7346 7347 0
-7347 7358 0
-394 -7347 7348 0
-7348 7359 0
-395 -7348 7349 0
-7349 7360 0
-396 -7349 7350 0
-7350 7361 0
-397 -7350 0
-387 7351 0
-7351 7362 0
-388 -7351 7352 0
-7352 7363 0
-389 -7352 7353 0
-7353 7364 0
-390 -7353 7354 0
-7354 7365 0
-391 -7354 7355 0
-7355 7366 0
-392 -7355 7356 0
-7356 7367 0
-393 -7356 7357 0
-7357 7368 0
-394 -7357 7358 0
-7358 7369 0
-395 -7358 7359 0
-7359 7370 0
-396 -7359 7360 0
-7360 7371 0
-397 -7360 7361 0
-7361 7372 0
-398 -7361 0
-388 7362 0
-7362 7373 0
-389 -7362 7363 0
-7363 7374 0
-390 -7363 7364 0
-7364 7375 0
-391 -7364 7365 0
-7365 7376 0
-392 -7365 7366 0
-7366 7377 0
-393 -7366 7367 0
-7367 7378 0
-394 -7367 7368 0
-7368 7379 0
-395 -7368 7369 0
-7369 7380 0
-396 -7369 7370 0
-7370 7381 0
-397 -7370 7371 0
-7371 7382 0
-398 -7371 7372 0
-7372 7383 0
-399 -7372 0
-389 7373 0
-7373 7384 0
-390 -7373 7374 0
-7374 7385 0
-391 -7374 7375 0
-7375 7386 0
-392 -7375 7376 0
-7376 7387 0
-393 -7376 7377 0
-7377 7388 0
-394 -7377 7378 0
-7378 7389 0
-395 -7378 7379 0
-7379 7390 0
-396 -7379 7380 0
-7380 7391 0
-397 -7380 7381 0
-7381 7392 0
-398 -7381 7382 0
-7382 7393 0
-399 -7382 7383 0
-7383 7394 0
-400 -7383 0
-390 7384 0
-7384 7395 0
-391 -7384 7385 0
-7385 7396 0
-392 -7385 7386 0
-7386 7397 0
-393 -7386 7387 0
-7387 7398 0
-394 -7387 7388 0
-7388 7399 0
-395 -7388 7389 0
-7389 7400 0
-396 -7389 7390 0
-7390 7401 0
-397 -7390 7391 0
-7391 7402 0
-398 -7391 7392 0
-7392 7403 0
-399 -7392 7393 0
-7393 7404 0
-400 -7393 7394 0
-7394 7405 0
-401 -7394 0
-391 7395 0
-7395 7406 0
-392 -7395 7396 0
-7396 7407 0
-393 -7396 7397 0
-7397 7408 0
-394 -7397 7398 0
-7398 7409 0
-395 -7398 7399 0
-7399 7410 0
-396 -7399 7400 0
-7400 7411 0
-397 -7400 7401 0
-7401 7412 0
-398 -7401 7402 0
-7402 7413 0
-399 -7402 7403 0
-7403 7414 0
-400 -7403 7404 0
-7404 7415 0
-401 -7404 7405 0
-7405 7416 0
-402 -7405 0
-392 7406 0
-7406 7417 0
-393 -7406 7407 0
-7407 7418 0
-394 -7407 7408 0
-7408 7419 0
-395 -7408 7409 0
-7409 7420 0
-396 -7409 7410 0
-7410 7421 0
-397 -7410 7411 0
-7411 7422 0
-398 -7411 7412 0
-7412 7423 0
-399 -7412 7413 0
-7413 7424 0
-400 -7413 7414 0
-7414 7425 0
-401 -7414 7415 0
-7415 7426 0
-402 -7415 7416 0
-7416 7427 0
-403 -7416 0
-393 7417 0
-7417 7428 0
-394 -7417 7418 0
-7418 7429 0
-395 -7418 7419 0
-7419 7430 0
-396 -7419 7420 0
-7420 7431 0
-397 -7420 7421 0
-7421 7432 0
-398 -7421 7422 0
-7422 7433 0
-399 -7422 7423 0
-7423 7434 0
-400 -7423 7424 0
-7424 7435 0
-401 -7424 7425 0
-7425 7436 0
-402 -7425 7426 0
-7426 7437 0
-403 -7426 7427 0
-7427 7438 0
-404 -7427 0
-394 7428 0
-7428 7439 0
-395 -7428 7429 0
-7429 7440 0
-396 -7429 7430 0
-7430 7441 0
-397 -7430 7431 0
-7431 7442 0
-398 -7431 7432 0
-7432 7443 0
-399 -7432 7433 0
-7433 7444 0
-400 -7433 7434 0
-7434 7445 0
-401 -7434 7435 0
-7435 7446 0
-402 -7435 7436 0
-7436 7447 0
-403 -7436 7437 0
-7437 7448 0
-404 -7437 7438 0
-7438 7449 0
-405 -7438 0
-395 7439 0
-7439 7450 0
-396 -7439 7440 0
-7440 7451 0
-397 -7440 7441 0
-7441 7452 0
-398 -7441 7442 0
-7442 7453 0
-399 -7442 7443 0
-7443 7454 0
-400 -7443 7444 0
-7444 7455 0
-401 -7444 7445 0
-7445 7456 0
-402 -7445 7446 0
-7446 7457 0
-403 -7446 7447 0
-7447 7458 0
-404 -7447 7448 0
-7448 7459 0
-405 -7448 7449 0
-7449 7460 0
-406 -7449 0
-396 7450 0
-7450 7461 0
-397 -7450 7451 0
-7451 7462 0
-398 -7451 7452 0
-7452 7463 0
-399 -7452 7453 0
-7453 7464 0
-400 -7453 7454 0
-7454 7465 0
-401 -7454 7455 0
-7455 7466 0
-402 -7455 7456 0
-7456 7467 0
-403 -7456 7457 0
-7457 7468 0
-404 -7457 7458 0
-7458 7469 0
-405 -7458 7459 0
-7459 7470 0
-406 -7459 7460 0
-7460 7471 0
-407 -7460 0
-397 7461 0
-7461 7472 0
-398 -7461 7462 0
-7462 7473 0
-399 -7462 7463 0
-7463 7474 0
-400 -7463 7464 0
-7464 7475 0
-401 -7464 7465 0
-7465 7476 0
-402 -7465 7466 0
-7466 7477 0
-403 -7466 7467 0
-7467 7478 0
-404 -7467 7468 0
-7468 7479 0
-405 -7468 7469 0
-7469 7480 0
-406 -7469 7470 0
-7470 7481 0
-407 -7470 7471 0
-7471 7482 0
-408 -7471 0
-398 7472 0
-7472 7483 0
-399 -7472 7473 0
-7473 7484 0
-400 -7473 7474 0
-7474 7485 0
-401 -7474 7475 0
-7475 7486 0
-402 -7475 7476 0
-7476 7487 0
-403 -7476 7477 0
-7477 7488 0
-404 -7477 7478 0
-7478 7489 0
-405 -7478 7479 0
-7479 7490 0
-406 -7479 7480 0
-7480 7491 0
-407 -7480 7481 0
-7481 7492 0
-408 -7481 7482 0
-7482 7493 0
-409 -7482 0
-399 7483 0
-7483 7494 0
-400 -7483 7484 0
-7484 7495 0
-401 -7484 7485 0
-7485 7496 0
-402 -7485 7486 0
-7486 7497 0
-403 -7486 7487 0
-7487 7498 0
-404 -7487 7488 0
-7488 7499 0
-405 -7488 7489 0
-7489 7500 0
-406 -7489 7490 0
-7490 7501 0
-407 -7490 7491 0
-7491 7502 0
-408 -7491 7492 0
-7492 7503 0
-409 -7492 7493 0
-7493 7504 0
-410 -7493 0
-400 7494 0
-7494 7505 0
-401 -7494 7495 0
-7495 7506 0
-402 -7495 7496 0
-7496 7507 0
-403 -7496 7497 0
-7497 7508 0
-404 -7497 7498 0
-7498 7509 0
-405 -7498 7499 0
-7499 7510 0
-406 -7499 7500 0
-7500 7511 0
-407 -7500 7501 0
-7501 7512 0
-408 -7501 7502 0
-7502 7513 0
-409 -7502 7503 0
-7503 7514 0
-410 -7503 7504 0
-7504 7515 0
-411 -7504 0
-401 7505 0
-7505 7516 0
-402 -7505 7506 0
-7506 7517 0
-403 -7506 7507 0
-7507 7518 0
-404 -7507 7508 0
-7508 7519 0
-405 -7508 7509 0
-7509 7520 0
-406 -7509 7510 0
-7510 7521 0
-407 -7510 7511 0
-7511 7522 0
-408 -7511 7512 0
-7512 7523 0
-409 -7512 7513 0
-7513 7524 0
-410 -7513 7514 0
-7514 7525 0
-411 -7514 7515 0
-7515 7526 0
-412 -7515 0
-402 7516 0
-7516 7527 0
-403 -7516 7517 0
-7517 7528 0
-404 -7517 7518 0
-7518 7529 0
-405 -7518 7519 0
-7519 7530 0
-406 -7519 7520 0
-7520 7531 0
-407 -7520 7521 0
-7521 7532 0
-408 -7521 7522 0
-7522 7533 0
-409 -7522 7523 0
-7523 7534 0
-410 -7523 7524 0
-7524 7535 0
-411 -7524 7525 0
-7525 7536 0
-412 -7525 7526 0
-7526 7537 0
-413 -7526 0
-403 7527 0
-7527 7538 0
-404 -7527 7528 0
-7528 7539 0
-405 -7528 7529 0
-7529 7540 0
-406 -7529 7530 0
-7530 7541 0
-407 -7530 7531 0
-7531 7542 0
-408 -7531 7532 0
-7532 7543 0
-409 -7532 7533 0
-7533 7544 0
-410 -7533 7534 0
-7534 7545 0
-411 -7534 7535 0
-7535 7546 0
-412 -7535 7536 0
-7536 7547 0
-413 -7536 7537 0
-7537 7548 0
-414 -7537 0
-404 7538 0
-7538 7549 0
-405 -7538 7539 0
-7539 7550 0
-406 -7539 7540 0
-7540 7551 0
-407 -7540 7541 0
-7541 7552 0
-408 -7541 7542 0
-7542 7553 0
-409 -7542 7543 0
-7543 7554 0
-410 -7543 7544 0
-7544 7555 0
-411 -7544 7545 0
-7545 7556 0
-412 -7545 7546 0
-7546 7557 0
-413 -7546 7547 0
-7547 7558 0
-414 -7547 7548 0
-7548 7559 0
-415 -7548 0
-405 7549 0
-7549 7560 0
-406 -7549 7550 0
-7550 7561 0
-407 -7550 7551 0
-7551 7562 0
-408 -7551 7552 0
-7552 7563 0
-409 -7552 7553 0
-7553 7564 0
-410 -7553 7554 0
-7554 7565 0
-411 -7554 7555 0
-7555 7566 0
-412 -7555 7556 0
-7556 7567 0
-413 -7556 7557 0
-7557 7568 0
-414 -7557 7558 0
-7558 7569 0
-415 -7558 7559 0
-7559 7570 0
-416 -7559 0
-406 7560 0
-7560 7571 0
-407 -7560 7561 0
-7561 7572 0
-408 -7561 7562 0
-7562 7573 0
-409 -7562 7563 0
-7563 7574 0
-410 -7563 7564 0
-7564 7575 0
-411 -7564 7565 0
-7565 7576 0
-412 -7565 7566 0
-7566 7577 0
-413 -7566 7567 0
-7567 7578 0
-414 -7567 7568 0
-7568 7579 0
-415 -7568 7569 0
-7569 7580 0
-416 -7569 7570 0
-7570 7581 0
-417 -7570 0
-407 7571 0
-7571 7582 0
-408 -7571 7572 0
-7572 7583 0
-409 -7572 7573 0
-7573 7584 0
-410 -7573 7574 0
-7574 7585 0
-411 -7574 7575 0
-7575 7586 0
-412 -7575 7576 0
-7576 7587 0
-413 -7576 7577 0
-7577 7588 0
-414 -7577 7578 0
-7578 7589 0
-415 -7578 7579 0
-7579 7590 0
-416 -7579 7580 0
-7580 7591 0
-417 -7580 7581 0
-7581 7592 0
-418 -7581 0
-408 7582 0
-7582 7593 0
-409 -7582 7583 0
-7583 7594 0
-410 -7583 7584 0
-7584 7595 0
-411 -7584 7585 0
-7585 7596 0
-412 -7585 7586 0
-7586 7597 0
-413 -7586 7587 0
-7587 7598 0
-414 -7587 7588 0
-7588 7599 0
-415 -7588 7589 0
-7589 7600 0
-416 -7589 7590 0
-7590 7601 0
-417 -7590 7591 0
-7591 7602 0
-418 -7591 7592 0
-7592 7603 0
-419 -7592 0
-409 7593 0
-7593 7604 0
-410 -7593 7594 0
-7594 7605 0
-411 -7594 7595 0
-7595 7606 0
-412 -7595 7596 0
-7596 7607 0
-413 -7596 7597 0
-7597 7608 0
-414 -7597 7598 0
-7598 7609 0
-415 -7598 7599 0
-7599 7610 0
-416 -7599 7600 0
-7600 7611 0
-417 -7600 7601 0
-7601 7612 0
-418 -7601 7602 0
-7602 7613 0
-419 -7602 7603 0
-7603 7614 0
-420 -7603 0
-410 7604 0
-7604 7615 0
-411 -7604 7605 0
-7605 7616 0
-412 -7605 7606 0
-7606 7617 0
-413 -7606 7607 0
-7607 7618 0
-414 -7607 7608 0
-7608 7619 0
-415 -7608 7609 0
-7609 7620 0
-416 -7609 7610 0
-7610 7621 0
-417 -7610 7611 0
-7611 7622 0
-418 -7611 7612 0
-7612 7623 0
-419 -7612 7613 0
-7613 7624 0
-420 -7613 7614 0
-7614 7625 0
-421 -7614 0
-411 7615 0
-7615 7626 0
-412 -7615 7616 0
-7616 7627 0
-413 -7616 7617 0
-7617 7628 0
-414 -7617 7618 0
-7618 7629 0
-415 -7618 7619 0
-7619 7630 0
-416 -7619 7620 0
-7620 7631 0
-417 -7620 7621 0
-7621 7632 0
-418 -7621 7622 0
-7622 7633 0
-419 -7622 7623 0
-7623 7634 0
-420 -7623 7624 0
-7624 7635 0
-421 -7624 7625 0
-7625 7636 0
-422 -7625 0
-412 7626 0
-7626 7637 0
-413 -7626 7627 0
-7627 7638 0
-414 -7627 7628 0
-7628 7639 0
-415 -7628 7629 0
-7629 7640 0
-416 -7629 7630 0
-7630 7641 0
-417 -7630 7631 0
-7631 7642 0
-418 -7631 7632 0
-7632 7643 0
-419 -7632 7633 0
-7633 7644 0
-420 -7633 7634 0
-7634 7645 0
-421 -7634 7635 0
-7635 7646 0
-422 -7635 7636 0
-7636 7647 0
-423 -7636 0
-413 7637 0
-7637 7648 0
-414 -7637 7638 0
-7638 7649 0
-415 -7638 7639 0
-7639 7650 0
-416 -7639 7640 0
-7640 7651 0
-417 -7640 7641 0
-7641 7652 0
-418 -7641 7642 0
-7642 7653 0
-419 -7642 7643 0
-7643 7654 0
-420 -7643 7644 0
-7644 7655 0
-421 -7644 7645 0
-7645 7656 0
-422 -7645 7646 0
-7646 7657 0
-423 -7646 7647 0
-7647 7658 0
-424 -7647 0
-414 7648 0
-7648 7659 0
-415 -7648 7649 0
-7649 7660 0
-416 -7649 7650 0
-7650 7661 0
-417 -7650 7651 0
-7651 7662 0
-418 -7651 7652 0
-7652 7663 0
-419 -7652 7653 0
-7653 7664 0
-420 -7653 7654 0
-7654 7665 0
-421 -7654 7655 0
-7655 7666 0
-422 -7655 7656 0
-7656 7667 0
-423 -7656 7657 0
-7657 7668 0
-424 -7657 7658 0
-7658 7669 0
-425 -7658 0
-415 7659 0
-7659 7670 0
-416 -7659 7660 0
-7660 7671 0
-417 -7660 7661 0
-7661 7672 0
-418 -7661 7662 0
-7662 7673 0
-419 -7662 7663 0
-7663 7674 0
-420 -7663 7664 0
-7664 7675 0
-421 -7664 7665 0
-7665 7676 0
-422 -7665 7666 0
-7666 7677 0
-423 -7666 7667 0
-7667 7678 0
-424 -7667 7668 0
-7668 7679 0
-425 -7668 7669 0
-7669 7680 0
-426 -7669 0
-416 7670 0
-7670 7681 0
-417 -7670 7671 0
-7671 7682 0
-418 -7671 7672 0
-7672 7683 0
-419 -7672 7673 0
-7673 7684 0
-420 -7673 7674 0
-7674 7685 0
-421 -7674 7675 0
-7675 7686 0
-422 -7675 7676 0
-7676 7687 0
-423 -7676 7677 0
-7677 7688 0
-424 -7677 7678 0
-7678 7689 0
-425 -7678 7679 0
-7679 7690 0
-426 -7679 7680 0
-7680 7691 0
-427 -7680 0
-417 7681 0
-7681 7692 0
-418 -7681 7682 0
-7682 7693 0
-419 -7682 7683 0
-7683 7694 0
-420 -7683 7684 0
-7684 7695 0
-421 -7684 7685 0
-7685 7696 0
-422 -7685 7686 0
-7686 7697 0
-423 -7686 7687 0
-7687 7698 0
-424 -7687 7688 0
-7688 7699 0
-425 -7688 7689 0
-7689 7700 0
-426 -7689 7690 0
-7690 7701 0
-427 -7690 7691 0
-7691 7702 0
-428 -7691 0
-418 7692 0
-7692 7703 0
-419 -7692 7693 0
-7693 7704 0
-420 -7693 7694 0
-7694 7705 0
-421 -7694 7695 0
-7695 7706 0
-422 -7695 7696 0
-7696 7707 0
-423 -7696 7697 0
-7697 7708 0
-424 -7697 7698 0
-7698 7709 0
-425 -7698 7699 0
-7699 7710 0
-426 -7699 7700 0
-7700 7711 0
-427 -7700 7701 0
-7701 7712 0
-428 -7701 7702 0
-7702 7713 0
-429 -7702 0
-419 7703 0
-7703 7714 0
-420 -7703 7704 0
-7704 7715 0
-421 -7704 7705 0
-7705 7716 0
-422 -7705 7706 0
-7706 7717 0
-423 -7706 7707 0
-7707 7718 0
-424 -7707 7708 0
-7708 7719 0
-425 -7708 7709 0
-7709 7720 0
-426 -7709 7710 0
-7710 7721 0
-427 -7710 7711 0
-7711 7722 0
-428 -7711 7712 0
-7712 7723 0
-429 -7712 7713 0
-7713 7724 0
-430 -7713 0
-420 7714 0
-7714 7725 0
-421 -7714 7715 0
-7715 7726 0
-422 -7715 7716 0
-7716 7727 0
-423 -7716 7717 0
-7717 7728 0
-424 -7717 7718 0
-7718 7729 0
-425 -7718 7719 0
-7719 7730 0
-426 -7719 7720 0
-7720 7731 0
-427 -7720 7721 0
-7721 7732 0
-428 -7721 7722 0
-7722 7733 0
-429 -7722 7723 0
-7723 7734 0
-430 -7723 7724 0
-7724 7735 0
-431 -7724 0
-421 7725 0
-422 -7725 7726 0
-423 -7726 7727 0
-424 -7727 7728 0
-425 -7728 7729 0
-426 -7729 7730 0
-427 -7730 7731 0
-428 -7731 7732 0
-429 -7732 7733 0
-430 -7733 7734 0
-431 -7734 7735 0
-432 -7735 0
