p cnf 5431 19160
-1 217 0
-109 217 0
-217 1 109 0
-2 218 0
-110 218 0
-218 2 110 0
-3 219 0
-111 219 0
-219 3 111 0
-4 220 0
-112 220 0
-220 4 112 0
-5 221 0
-113 221 0
-221 5 113 0
-6 222 0
-114 222 0
-222 6 114 0
-7 223 0
-115 223 0
-223 7 115 0
-8 224 0
-116 224 0
-224 8 116 0
-9 225 0
-117 225 0
-225 9 117 0
-10 226 0
-118 226 0
-226 10 118 0
-11 227 0
-119 227 0
-227 11 119 0
-12 228 0
-120 228 0
-228 12 120 0
-13 229 0
-121 229 0
-229 13 121 0
-14 230 0
-122 230 0
-230 14 122 0
-15 231 0
-123 231 0
-231 15 123 0
-16 232 0
-124 232 0
-232 16 124 0
-17 233 0
-125 233 0
-233 17 125 0
-18 234 0
-126 234 0
-234 18 126 0
-19 235 0
-127 235 0
-235 19 127 0
-20 236 0
-128 236 0
-236 20 128 0
-21 237 0
-129 237 0
-237 21 129 0
-22 238 0
-130 238 0
-238 22 130 0
-23 239 0
-131 239 0
-239 23 131 0
-24 240 0
-132 240 0
-240 24 132 0
-25 241 0
-133 241 0
-241 25 133 0
-26 242 0
-134 242 0
-242 26 134 0
-27 243 0
-135 243 0
-243 27 135 0
-28 244 0
-136 244 0
-244 28 136 0
-29 245 0
-137 245 0
-245 29 137 0
-30 246 0
-138 246 0
-246 30 138 0
-31 247 0
-139 247 0
-247 31 139 0
-32 248 0
-140 248 0
-248 32 140 0
-33 249 0
-141 249 0
-249 33 141 0
-34 250 0
-142 250 0
-250 34 142 0
-35 251 0
-143 251 0
-251 35 143 0
-36 252 0
-144 252 0
-252 36 144 0
-37 253 0
-145 253 0
-253 37 145 0
-38 254 0
-146 254 0
-254 38 146 0
-39 255 0
-147 255 0
-255 39 147 0
-40 256 0
-148 256 0
-256 40 148 0
-41 257 0
-149 257 0
-257 41 149 0
-42 258 0
-150 258 0
-258 42 150 0
-43 259 0
-151 259 0
-259 43 151 0
-44 260 0
-152 260 0
-260 44 152 0
-45 261 0
-153 261 0
-261 45 153 0
-46 262 0
-154 262 0
-262 46 154 0
-47 263 0
-155 263 0
-263 47 155 0
-48 264 0
-156 264 0
-264 48 156 0
-49 265 0
-157 265 0
-265 49 157 0
-50 266 0
-158 266 0
-266 50 158 0
-51 267 0
-159 267 0
-267 51 159 0
-52 268 0
-160 268 0
-268 52 160 0
-53 269 0
-161 269 0
-269 53 161 0
-54 270 0
-162 270 0
-270 54 162 0
-55 271 0
-163 271 0
-271 55 163 0
-56 272 0
-164 272 0
-272 56 164 0
-57 273 0
-165 273 0
-273 57 165 0
-58 274 0
-166 274 0
-274 58 166 0
-59 275 0
-167 275 0
-275 59 167 0
-60 276 0
-168 276 0
-276 60 168 0
-61 277 0
-169 277 0
-277 61 169 0
-62 278 0
-170 278 0
-278 62 170 0
-63 279 0
-171 279 0
-279 63 171 0
-64 280 0
-172 280 0
-280 64 172 0
-65 281 0
-173 281 0
-281 65 173 0
-66 282 0
-174 282 0
-282 66 174 0
-67 283 0
-175 283 0
-283 67 175 0
-68 284 0
-176 284 0
-284 68 176 0
-69 285 0
-177 285 0
-285 69 177 0
-70 286 0
-178 286 0
-286 70 178 0
-71 287 0
-179 287 0
-287 71 179 0
-72 288 0
-180 288 0
-288 72 180 0
-73 289 0
-181 289 0
-289 73 181 0
-74 290 0
-182 290 0
-290 74 182 0
-75 291 0
-183 291 0
-291 75 183 0
-76 292 0
-184 292 0
-292 76 184 0
-77 293 0
-185 293 0
-293 77 185 0
-78 294 0
-186 294 0
-294 78 186 0
-79 295 0
-187 295 0
-295 79 187 0
-80 296 0
-188 296 0
-296 80 188 0
-81 297 0
-189 297 0
-297 81 189 0
-82 298 0
-190 298 0
-298 82 190 0
-83 299 0
-191 299 0
-299 83 191 0
-84 300 0
-192 300 0
-300 84 192 0
-85 301 0
-193 301 0
-301 85 193 0
-86 302 0
-194 302 0
-302 86 194 0
-87 303 0
-195 303 0
-303 87 195 0
-88 304 0
-196 304 0
-304 88 196 0
-89 305 0
-197 305 0
-305 89 197 0
-90 306 0
-198 306 0
-306 90 198 0
-91 307 0
-199 307 0
-307 91 199 0
-92 308 0
-200 308 0
-308 92 200 0
-93 309 0
-201 309 0
-309 93 201 0
-94 310 0
-202 310 0
-310 94 202 0
-95 311 0
-203 311 0
-311 95 203 0
-96 312 0
-204 312 0
-312 96 204 0
-97 313 0
-205 313 0
-313 97 205 0
-98 314 0
-206 314 0
-314 98 206 0
-99 315 0
-207 315 0
-315 99 207 0
-100 316 0
-208 316 0
-316 100 208 0
-101 317 0
-209 317 0
-317 101 209 0
-102 318 0
-210 318 0
-318 102 210 0
-103 319 0
-211 319 0
-319 103 211 0
-104 320 0
-212 320 0
-320 104 212 0
-105 321 0
-213 321 0
-321 105 213 0
-106 322 0
-214 322 0
-322 106 214 0
-107 323 0
-215 323 0
-323 107 215 0
-108 324 0
-216 324 0
-324 108 216 0
-325 54 63 0
-325 -54 -63 0
325 -54 63 0
325 54 -63 0
-326 325 66 0
-326 -325 -66 0
326 -325 66 0
326 325 -66 0
-327 326 67 0
-327 -326 -67 0
327 -326 67 0
327 326 -67 0
-328 327 68 0
-328 -327 -68 0
328 -327 68 0
328 327 -68 0
-329 328 71 0
-329 -328 -71 0
329 -328 71 0
329 328 -71 0
-330 329 75 0
-330 -329 -75 0
330 -329 75 0
330 329 -75 0
-331 330 77 0
-331 -330 -77 0
331 -330 77 0
331 330 -77 0
-332 331 85 0
-332 -331 -85 0
332 -331 85 0
332 331 -85 0
-333 332 87 0
-333 -332 -87 0
333 -332 87 0
333 332 -87 0
-334 333 88 0
-334 -333 -88 0
334 -333 88 0
334 333 -88 0
-335 334 91 0
-335 -334 -91 0
335 -334 91 0
335 334 -91 0
-336 335 92 0
-336 -335 -92 0
336 -335 92 0
336 335 -92 0
-337 336 95 0
-337 -336 -95 0
337 -336 95 0
337 336 -95 0
-338 337 96 0
-338 -337 -96 0
338 -337 96 0
338 337 -96 0
-339 338 98 0
-339 -338 -98 0
339 -338 98 0
339 338 -98 0
-340 339 99 0
-340 -339 -99 0
340 -339 99 0
340 339 -99 0
-341 340 100 0
-341 -340 -100 0
341 -340 100 0
341 340 -100 0
-342 341 103 0
-342 -341 -103 0
342 -341 103 0
342 341 -103 0
-343 342 104 0
-343 -342 -104 0
343 -342 104 0
343 342 -104 0
-344 343 105 0
-344 -343 -105 0
344 -343 105 0
344 343 -105 0
-345 344 106 0
-345 -344 -106 0
345 -344 106 0
345 344 -106 0
-346 345 107 0
-346 -345 -107 0
346 -345 107 0
346 345 -107 0
-347 346 108 0
-347 -346 -108 0
347 -346 108 0
347 346 -108 0
-348 347 109 0
-348 -347 -109 0
348 -347 109 0
348 347 -109 0
-349 348 162 0
-349 -348 -162 0
349 -348 162 0
349 348 -162 0
-350 349 163 0
-350 -349 -163 0
350 -349 163 0
350 349 -163 0
-351 350 166 0
-351 -350 -166 0
351 -350 166 0
351 350 -166 0
-352 351 168 0
-352 -351 -168 0
352 -351 168 0
352 351 -168 0
-353 352 169 0
-353 -352 -169 0
353 -352 169 0
353 352 -169 0
-354 353 170 0
-354 -353 -170 0
354 -353 170 0
354 353 -170 0
-355 354 173 0
-355 -354 -173 0
355 -354 173 0
355 354 -173 0
-356 355 174 0
-356 -355 -174 0
356 -355 174 0
356 355 -174 0
-357 356 176 0
-357 -356 -176 0
357 -356 176 0
357 356 -176 0
-358 357 181 0
-358 -357 -181 0
358 -357 181 0
358 357 -181 0
-359 358 185 0
-359 -358 -185 0
359 -358 185 0
359 358 -185 0
-360 359 188 0
-360 -359 -188 0
360 -359 188 0
360 359 -188 0
-361 360 189 0
-361 -360 -189 0
361 -360 189 0
361 360 -189 0
-362 361 191 0
-362 -361 -191 0
362 -361 191 0
362 361 -191 0
-363 362 192 0
-363 -362 -192 0
363 -362 192 0
363 362 -192 0
-364 363 194 0
-364 -363 -194 0
364 -363 194 0
364 363 -194 0
-365 364 197 0
-365 -364 -197 0
365 -364 197 0
365 364 -197 0
-366 365 198 0
-366 -365 -198 0
366 -365 198 0
366 365 -198 0
-367 366 203 0
-367 -366 -203 0
367 -366 203 0
367 366 -203 0
-368 367 205 0
-368 -367 -205 0
368 -367 205 0
368 367 -205 0
-369 368 207 0
-369 -368 -207 0
369 -368 207 0
369 368 -207 0
-370 369 208 0
-370 -369 -208 0
370 -369 208 0
370 369 -208 0
-371 370 209 0
-371 -370 -209 0
371 -370 209 0
371 370 -209 0
-372 371 210 0
-372 -371 -210 0
372 -371 210 0
372 371 -210 0
-373 372 214 0
-373 -372 -214 0
373 -372 214 0
373 372 -214 0
-374 373 215 0
-374 -373 -215 0
374 -373 215 0
374 373 -215 0
-375 374 216 0
-375 -374 -216 0
375 -374 216 0
375 374 -216 0
-375 0
-376 53 58 0
-376 -53 -58 0
376 -53 58 0
376 53 -58 0
-377 376 62 0
-377 -376 -62 0
377 -376 62 0
377 376 -62 0
-378 377 63 0
-378 -377 -63 0
378 -377 63 0
378 377 -63 0
-379 378 66 0
-379 -378 -66 0
379 -378 66 0
379 378 -66 0
-380 379 67 0
-380 -379 -67 0
380 -379 67 0
380 379 -67 0
-381 380 69 0
-381 -380 -69 0
381 -380 69 0
381 380 -69 0
-382 381 72 0
-382 -381 -72 0
382 -381 72 0
382 381 -72 0
-383 382 76 0
-383 -382 -76 0
383 -382 76 0
383 382 -76 0
-384 383 77 0
-384 -383 -77 0
384 -383 77 0
384 383 -77 0
-385 384 80 0
-385 -384 -80 0
385 -384 80 0
385 384 -80 0
-386 385 81 0
-386 -385 -81 0
386 -385 81 0
386 385 -81 0
-387 386 82 0
-387 -386 -82 0
387 -386 82 0
387 386 -82 0
-388 387 83 0
-388 -387 -83 0
388 -387 83 0
388 387 -83 0
-389 388 86 0
-389 -388 -86 0
389 -388 86 0
389 388 -86 0
-390 389 91 0
-390 -389 -91 0
390 -389 91 0
390 389 -91 0
-391 390 94 0
-391 -390 -94 0
391 -390 94 0
391 390 -94 0
-392 391 95 0
-392 -391 -95 0
392 -391 95 0
392 391 -95 0
-393 392 96 0
-393 -392 -96 0
393 -392 96 0
393 392 -96 0
-394 393 97 0
-394 -393 -97 0
394 -393 97 0
394 393 -97 0
-395 394 98 0
-395 -394 -98 0
395 -394 98 0
395 394 -98 0
-396 395 100 0
-396 -395 -100 0
396 -395 100 0
396 395 -100 0
-397 396 101 0
-397 -396 -101 0
397 -396 101 0
397 396 -101 0
-398 397 102 0
-398 -397 -102 0
398 -397 102 0
398 397 -102 0
-399 398 104 0
-399 -398 -104 0
399 -398 104 0
399 398 -104 0
-400 399 106 0
-400 -399 -106 0
400 -399 106 0
400 399 -106 0
-401 400 108 0
-401 -400 -108 0
401 -400 108 0
401 400 -108 0
-402 401 110 0
-402 -401 -110 0
402 -401 110 0
402 401 -110 0
-403 402 161 0
-403 -402 -161 0
403 -402 161 0
403 402 -161 0
-404 403 162 0
-404 -403 -162 0
404 -403 162 0
404 403 -162 0
-405 404 165 0
-405 -404 -165 0
405 -404 165 0
405 404 -165 0
-406 405 166 0
-406 -405 -166 0
406 -405 166 0
406 405 -166 0
-407 406 168 0
-407 -406 -168 0
407 -406 168 0
407 406 -168 0
-408 407 169 0
-408 -407 -169 0
408 -407 169 0
408 407 -169 0
-409 408 171 0
-409 -408 -171 0
409 -408 171 0
409 408 -171 0
-410 409 173 0
-410 -409 -173 0
410 -409 173 0
410 409 -173 0
-411 410 174 0
-411 -410 -174 0
411 -410 174 0
411 410 -174 0
-412 411 175 0
-412 -411 -175 0
412 -411 175 0
412 411 -175 0
-413 412 176 0
-413 -412 -176 0
413 -412 176 0
413 412 -176 0
-414 413 177 0
-414 -413 -177 0
414 -413 177 0
414 413 -177 0
-415 414 180 0
-415 -414 -180 0
415 -414 180 0
415 414 -180 0
-416 415 182 0
-416 -415 -182 0
416 -415 182 0
416 415 -182 0
-417 416 183 0
-417 -416 -183 0
417 -416 183 0
417 416 -183 0
-418 417 184 0
-418 -417 -184 0
418 -417 184 0
418 417 -184 0
-419 418 185 0
-419 -418 -185 0
419 -418 185 0
419 418 -185 0
-420 419 186 0
-420 -419 -186 0
420 -419 186 0
420 419 -186 0
-421 420 187 0
-421 -420 -187 0
421 -420 187 0
421 420 -187 0
-422 421 189 0
-422 -421 -189 0
422 -421 189 0
422 421 -189 0
-423 422 191 0
-423 -422 -191 0
423 -422 191 0
423 422 -191 0
-424 423 194 0
-424 -423 -194 0
424 -423 194 0
424 423 -194 0
-425 424 196 0
-425 -424 -196 0
425 -424 196 0
425 424 -196 0
-426 425 197 0
-426 -425 -197 0
426 -425 197 0
426 425 -197 0
-427 426 199 0
-427 -426 -199 0
427 -426 199 0
427 426 -199 0
-428 427 200 0
-428 -427 -200 0
428 -427 200 0
428 427 -200 0
-429 428 201 0
-429 -428 -201 0
429 -428 201 0
429 428 -201 0
-430 429 204 0
-430 -429 -204 0
430 -429 204 0
430 429 -204 0
-431 430 205 0
-431 -430 -205 0
431 -430 205 0
431 430 -205 0
-432 431 207 0
-432 -431 -207 0
432 -431 207 0
432 431 -207 0
-433 432 208 0
-433 -432 -208 0
433 -432 208 0
433 432 -208 0
-434 433 211 0
-434 -433 -211 0
434 -433 211 0
434 433 -211 0
-435 434 214 0
-435 -434 -214 0
435 -434 214 0
435 434 -214 0
-435 0
-436 58 59 0
-436 -58 -59 0
436 -58 59 0
436 58 -59 0
-437 436 62 0
-437 -436 -62 0
437 -436 62 0
437 436 -62 0
-438 437 66 0
-438 -437 -66 0
438 -437 66 0
438 437 -66 0
-439 438 70 0
-439 -438 -70 0
439 -438 70 0
439 438 -70 0
-440 439 79 0
-440 -439 -79 0
440 -439 79 0
440 439 -79 0
-441 440 81 0
-441 -440 -81 0
441 -440 81 0
441 440 -81 0
-442 441 82 0
-442 -441 -82 0
442 -441 82 0
442 441 -82 0
-443 442 83 0
-443 -442 -83 0
443 -442 83 0
443 442 -83 0
-444 443 85 0
-444 -443 -85 0
444 -443 85 0
444 443 -85 0
-445 444 88 0
-445 -444 -88 0
445 -444 88 0
445 444 -88 0
-446 445 91 0
-446 -445 -91 0
446 -445 91 0
446 445 -91 0
-447 446 94 0
-447 -446 -94 0
447 -446 94 0
447 446 -94 0
-448 447 97 0
-448 -447 -97 0
448 -447 97 0
448 447 -97 0
-449 448 98 0
-449 -448 -98 0
449 -448 98 0
449 448 -98 0
-450 449 101 0
-450 -449 -101 0
450 -449 101 0
450 449 -101 0
-451 450 102 0
-451 -450 -102 0
451 -450 102 0
451 450 -102 0
-452 451 103 0
-452 -451 -103 0
452 -451 103 0
452 451 -103 0
-453 452 107 0
-453 -452 -107 0
453 -452 107 0
453 452 -107 0
-454 453 108 0
-454 -453 -108 0
454 -453 108 0
454 453 -108 0
-455 454 111 0
-455 -454 -111 0
455 -454 111 0
455 454 -111 0
-456 455 161 0
-456 -455 -161 0
456 -455 161 0
456 455 -161 0
-457 456 164 0
-457 -456 -164 0
457 -456 164 0
457 456 -164 0
-458 457 165 0
-458 -457 -165 0
458 -457 165 0
458 457 -165 0
-459 458 168 0
-459 -458 -168 0
459 -458 168 0
459 458 -168 0
-460 459 169 0
-460 -459 -169 0
460 -459 169 0
460 459 -169 0
-461 460 172 0
-461 -460 -172 0
461 -460 172 0
461 460 -172 0
-462 461 173 0
-462 -461 -173 0
462 -461 173 0
462 461 -173 0
-463 462 174 0
-463 -462 -174 0
463 -462 174 0
463 462 -174 0
-464 463 177 0
-464 -463 -177 0
464 -463 177 0
464 463 -177 0
-465 464 178 0
-465 -464 -178 0
465 -464 178 0
465 464 -178 0
-466 465 180 0
-466 -465 -180 0
466 -465 180 0
466 465 -180 0
-467 466 181 0
-467 -466 -181 0
467 -466 181 0
467 466 -181 0
-468 467 186 0
-468 -467 -186 0
468 -467 186 0
468 467 -186 0
-469 468 188 0
-469 -468 -188 0
469 -468 188 0
469 468 -188 0
-470 469 191 0
-470 -469 -191 0
470 -469 191 0
470 469 -191 0
-471 470 193 0
-471 -470 -193 0
471 -470 193 0
471 470 -193 0
-472 471 194 0
-472 -471 -194 0
472 -471 194 0
472 471 -194 0
-473 472 196 0
-473 -472 -196 0
473 -472 196 0
473 472 -196 0
-474 473 202 0
-474 -473 -202 0
474 -473 202 0
474 473 -202 0
-475 474 207 0
-475 -474 -207 0
475 -474 207 0
475 474 -207 0
-476 475 208 0
-476 -475 -208 0
476 -475 208 0
476 475 -208 0
-477 476 210 0
-477 -476 -210 0
477 -476 210 0
477 476 -210 0
-478 477 212 0
-478 -477 -212 0
478 -477 212 0
478 477 -212 0
-479 478 214 0
-479 -478 -214 0
479 -478 214 0
479 478 -214 0
-480 479 216 0
-480 -479 -216 0
480 -479 216 0
480 479 -216 0
-480 0
-481 59 60 0
-481 -59 -60 0
481 -59 60 0
481 59 -60 0
-482 481 61 0
-482 -481 -61 0
482 -481 61 0
482 481 -61 0
-483 482 63 0
-483 -482 -63 0
483 -482 63 0
483 482 -63 0
-484 483 71 0
-484 -483 -71 0
484 -483 71 0
484 483 -71 0
-485 484 80 0
-485 -484 -80 0
485 -484 80 0
485 484 -80 0
-486 485 82 0
-486 -485 -82 0
486 -485 82 0
486 485 -82 0
-487 486 83 0
-487 -486 -83 0
487 -486 83 0
487 486 -83 0
-488 487 84 0
-488 -487 -84 0
488 -487 84 0
488 487 -84 0
-489 488 86 0
-489 -488 -86 0
489 -488 86 0
489 488 -86 0
-490 489 89 0
-490 -489 -89 0
490 -489 89 0
490 489 -89 0
-491 490 92 0
-491 -490 -92 0
491 -490 92 0
491 490 -92 0
-492 491 95 0
-492 -491 -95 0
492 -491 95 0
492 491 -95 0
-493 492 97 0
-493 -492 -97 0
493 -492 97 0
493 492 -97 0
-494 493 98 0
-494 -493 -98 0
494 -493 98 0
494 493 -98 0
-495 494 99 0
-495 -494 -99 0
495 -494 99 0
495 494 -99 0
-496 495 102 0
-496 -495 -102 0
496 -495 102 0
496 495 -102 0
-497 496 103 0
-497 -496 -103 0
497 -496 103 0
497 496 -103 0
-498 497 104 0
-498 -497 -104 0
498 -497 104 0
498 497 -104 0
-499 498 108 0
-499 -498 -108 0
499 -498 108 0
499 498 -108 0
-500 499 112 0
-500 -499 -112 0
500 -499 112 0
500 499 -112 0
-501 500 162 0
-501 -500 -162 0
501 -500 162 0
501 500 -162 0
-502 501 163 0
-502 -501 -163 0
502 -501 163 0
502 501 -163 0
-503 502 165 0
-503 -502 -165 0
503 -502 165 0
503 502 -165 0
-504 503 166 0
-504 -503 -166 0
504 -503 166 0
504 503 -166 0
-505 504 169 0
-505 -504 -169 0
505 -504 169 0
505 504 -169 0
-506 505 170 0
-506 -505 -170 0
506 -505 170 0
506 505 -170 0
-507 506 173 0
-507 -506 -173 0
507 -506 173 0
507 506 -173 0
-508 507 174 0
-508 -507 -174 0
508 -507 174 0
508 507 -174 0
-509 508 175 0
-509 -508 -175 0
509 -508 175 0
509 508 -175 0
-510 509 178 0
-510 -509 -178 0
510 -509 178 0
510 509 -178 0
-511 510 179 0
-511 -510 -179 0
511 -510 179 0
511 510 -179 0
-512 511 181 0
-512 -511 -181 0
512 -511 181 0
512 511 -181 0
-513 512 182 0
-513 -512 -182 0
513 -512 182 0
513 512 -182 0
-514 513 189 0
-514 -513 -189 0
514 -513 189 0
514 513 -189 0
-515 514 192 0
-515 -514 -192 0
515 -514 192 0
515 514 -192 0
-516 515 194 0
-516 -515 -194 0
516 -515 194 0
516 515 -194 0
-517 516 195 0
-517 -516 -195 0
517 -516 195 0
517 516 -195 0
-518 517 197 0
-518 -517 -197 0
518 -517 197 0
518 517 -197 0
-519 518 203 0
-519 -518 -203 0
519 -518 203 0
519 518 -203 0
-520 519 205 0
-520 -519 -205 0
520 -519 205 0
520 519 -205 0
-521 520 208 0
-521 -520 -208 0
521 -520 208 0
521 520 -208 0
-522 521 209 0
-522 -521 -209 0
522 -521 209 0
522 521 -209 0
-523 522 211 0
-523 -522 -211 0
523 -522 211 0
523 522 -211 0
-524 523 213 0
-524 -523 -213 0
524 -523 213 0
524 523 -213 0
-525 524 215 0
-525 -524 -215 0
525 -524 215 0
525 524 -215 0
-525 0
-526 54 57 0
-526 -54 -57 0
526 -54 57 0
526 54 -57 0
-527 526 62 0
-527 -526 -62 0
527 -526 62 0
527 526 -62 0
-528 527 63 0
-528 -527 -63 0
528 -527 63 0
528 527 -63 0
-529 528 64 0
-529 -528 -64 0
529 -528 64 0
529 528 -64 0
-530 529 65 0
-530 -529 -65 0
530 -529 65 0
530 529 -65 0
-531 530 66 0
-531 -530 -66 0
531 -530 66 0
531 530 -66 0
-532 531 67 0
-532 -531 -67 0
532 -531 67 0
532 531 -67 0
-533 532 69 0
-533 -532 -69 0
533 -532 69 0
533 532 -69 0
-534 533 71 0
-534 -533 -71 0
534 -533 71 0
534 533 -71 0
-535 534 73 0
-535 -534 -73 0
535 -534 73 0
535 534 -73 0
-536 535 75 0
-536 -535 -75 0
536 -535 75 0
536 535 -75 0
-537 536 76 0
-537 -536 -76 0
537 -536 76 0
537 536 -76 0
-538 537 77 0
-538 -537 -77 0
538 -537 77 0
538 537 -77 0
-539 538 79 0
-539 -538 -79 0
539 -538 79 0
539 538 -79 0
-540 539 80 0
-540 -539 -80 0
540 -539 80 0
540 539 -80 0
-541 540 81 0
-541 -540 -81 0
541 -540 81 0
541 540 -81 0
-542 541 82 0
-542 -541 -82 0
542 -541 82 0
542 541 -82 0
-543 542 85 0
-543 -542 -85 0
543 -542 85 0
543 542 -85 0
-544 543 86 0
-544 -543 -86 0
544 -543 86 0
544 543 -86 0
-545 544 87 0
-545 -544 -87 0
545 -544 87 0
545 544 -87 0
-546 545 88 0
-546 -545 -88 0
546 -545 88 0
546 545 -88 0
-547 546 89 0
-547 -546 -89 0
547 -546 89 0
547 546 -89 0
-548 547 91 0
-548 -547 -91 0
548 -547 91 0
548 547 -91 0
-549 548 92 0
-549 -548 -92 0
549 -548 92 0
549 548 -92 0
-550 549 95 0
-550 -549 -95 0
550 -549 95 0
550 549 -95 0
-551 550 96 0
-551 -550 -96 0
551 -550 96 0
551 550 -96 0
-552 551 101 0
-552 -551 -101 0
552 -551 101 0
552 551 -101 0
-553 552 103 0
-553 -552 -103 0
553 -552 103 0
553 552 -103 0
-554 553 105 0
-554 -553 -105 0
554 -553 105 0
554 553 -105 0
-555 554 107 0
-555 -554 -107 0
555 -554 107 0
555 554 -107 0
-556 555 113 0
-556 -555 -113 0
556 -555 113 0
556 555 -113 0
-557 556 161 0
-557 -556 -161 0
557 -556 161 0
557 556 -161 0
-558 557 162 0
-558 -557 -162 0
558 -557 162 0
558 557 -162 0
-559 558 163 0
-559 -558 -163 0
559 -558 163 0
559 558 -163 0
-560 559 165 0
-560 -559 -165 0
560 -559 165 0
560 559 -165 0
-561 560 168 0
-561 -560 -168 0
561 -560 168 0
561 560 -168 0
-562 561 169 0
-562 -561 -169 0
562 -561 169 0
562 561 -169 0
-563 562 171 0
-563 -562 -171 0
563 -562 171 0
563 562 -171 0
-564 563 173 0
-564 -563 -173 0
564 -563 173 0
564 563 -173 0
-565 564 174 0
-565 -564 -174 0
565 -564 174 0
565 564 -174 0
-566 565 175 0
-566 -565 -175 0
566 -565 175 0
566 565 -175 0
-567 566 179 0
-567 -566 -179 0
567 -566 179 0
567 566 -179 0
-568 567 182 0
-568 -567 -182 0
568 -567 182 0
568 567 -182 0
-569 568 184 0
-569 -568 -184 0
569 -568 184 0
569 568 -184 0
-570 569 185 0
-570 -569 -185 0
570 -569 185 0
570 569 -185 0
-571 570 187 0
-571 -570 -187 0
571 -570 187 0
571 570 -187 0
-572 571 191 0
-572 -571 -191 0
572 -571 191 0
572 571 -191 0
-573 572 192 0
-573 -572 -192 0
573 -572 192 0
573 572 -192 0
-574 573 193 0
-574 -573 -193 0
574 -573 193 0
574 573 -193 0
-575 574 194 0
-575 -574 -194 0
575 -574 194 0
575 574 -194 0
-576 575 197 0
-576 -575 -197 0
576 -575 197 0
576 575 -197 0
-577 576 199 0
-577 -576 -199 0
577 -576 199 0
577 576 -199 0
-578 577 200 0
-578 -577 -200 0
578 -577 200 0
578 577 -200 0
-579 578 201 0
-579 -578 -201 0
579 -578 201 0
579 578 -201 0
-580 579 204 0
-580 -579 -204 0
580 -579 204 0
580 579 -204 0
-581 580 207 0
-581 -580 -207 0
581 -580 207 0
581 580 -207 0
-582 581 212 0
-582 -581 -212 0
582 -581 212 0
582 581 -212 0
-583 582 215 0
-583 -582 -215 0
583 -582 215 0
583 582 -215 0
-583 0
-584 53 62 0
-584 -53 -62 0
584 -53 62 0
584 53 -62 0
-585 584 65 0
-585 -584 -65 0
585 -584 65 0
585 584 -65 0
-586 585 67 0
-586 -585 -67 0
586 -585 67 0
586 585 -67 0
-587 586 70 0
-587 -586 -70 0
587 -586 70 0
587 586 -70 0
-588 587 72 0
-588 -587 -72 0
588 -587 72 0
588 587 -72 0
-589 588 74 0
-589 -588 -74 0
589 -588 74 0
589 588 -74 0
-590 589 76 0
-590 -589 -76 0
590 -589 76 0
590 589 -76 0
-591 590 86 0
-591 -590 -86 0
591 -590 86 0
591 590 -86 0
-592 591 87 0
-592 -591 -87 0
592 -591 87 0
592 591 -87 0
-593 592 90 0
-593 -592 -90 0
593 -592 90 0
593 592 -90 0
-594 593 91 0
-594 -593 -91 0
594 -593 91 0
594 593 -91 0
-595 594 94 0
-595 -594 -94 0
595 -594 94 0
595 594 -94 0
-596 595 95 0
-596 -595 -95 0
596 -595 95 0
596 595 -95 0
-597 596 96 0
-597 -596 -96 0
597 -596 96 0
597 596 -96 0
-598 597 97 0
-598 -597 -97 0
598 -597 97 0
598 597 -97 0
-599 598 98 0
-599 -598 -98 0
599 -598 98 0
599 598 -98 0
-600 599 99 0
-600 -599 -99 0
600 -599 99 0
600 599 -99 0
-601 600 103 0
-601 -600 -103 0
601 -600 103 0
601 600 -103 0
-602 601 104 0
-602 -601 -104 0
602 -601 104 0
602 601 -104 0
-603 602 105 0
-603 -602 -105 0
603 -602 105 0
603 602 -105 0
-604 603 106 0
-604 -603 -106 0
604 -603 106 0
604 603 -106 0
-605 604 107 0
-605 -604 -107 0
605 -604 107 0
605 604 -107 0
-606 605 108 0
-606 -605 -108 0
606 -605 108 0
606 605 -108 0
-607 606 114 0
-607 -606 -114 0
607 -606 114 0
607 606 -114 0
-608 607 161 0
-608 -607 -161 0
608 -607 161 0
608 607 -161 0
-609 608 165 0
-609 -608 -165 0
609 -608 165 0
609 608 -165 0
-610 609 167 0
-610 -609 -167 0
610 -609 167 0
610 609 -167 0
-611 610 168 0
-611 -610 -168 0
611 -610 168 0
611 610 -168 0
-612 611 169 0
-612 -611 -169 0
612 -611 169 0
612 611 -169 0
-613 612 172 0
-613 -612 -172 0
613 -612 172 0
613 612 -172 0
-614 613 173 0
-614 -613 -173 0
614 -613 173 0
614 613 -173 0
-615 614 174 0
-615 -614 -174 0
615 -614 174 0
615 614 -174 0
-616 615 175 0
-616 -615 -175 0
616 -615 175 0
616 615 -175 0
-617 616 184 0
-617 -616 -184 0
617 -616 184 0
617 616 -184 0
-618 617 186 0
-618 -617 -186 0
618 -617 186 0
618 617 -186 0
-619 618 187 0
-619 -618 -187 0
619 -618 187 0
619 618 -187 0
-620 619 188 0
-620 -619 -188 0
620 -619 188 0
620 619 -188 0
-621 620 190 0
-621 -620 -190 0
621 -620 190 0
621 620 -190 0
-622 621 191 0
-622 -621 -191 0
622 -621 191 0
622 621 -191 0
-623 622 193 0
-623 -622 -193 0
623 -622 193 0
623 622 -193 0
-624 623 196 0
-624 -623 -196 0
624 -623 196 0
624 623 -196 0
-625 624 197 0
-625 -624 -197 0
625 -624 197 0
625 624 -197 0
-626 625 202 0
-626 -625 -202 0
626 -625 202 0
626 625 -202 0
-627 626 206 0
-627 -626 -206 0
627 -626 206 0
627 626 -206 0
-628 627 207 0
-628 -627 -207 0
628 -627 207 0
628 627 -207 0
-629 628 208 0
-629 -628 -208 0
629 -628 208 0
629 628 -208 0
-630 629 209 0
-630 -629 -209 0
630 -629 209 0
630 629 -209 0
-631 630 210 0
-631 -630 -210 0
631 -630 210 0
631 630 -210 0
-632 631 213 0
-632 -631 -213 0
632 -631 213 0
632 631 -213 0
-633 632 214 0
-633 -632 -214 0
633 -632 214 0
633 632 -214 0
-634 633 215 0
-634 -633 -215 0
634 -633 215 0
634 633 -215 0
-634 0
-635 57 63 0
-635 -57 -63 0
635 -57 63 0
635 57 -63 0
-636 635 66 0
-636 -635 -66 0
636 -635 66 0
636 635 -66 0
-637 636 72 0
-637 -636 -72 0
637 -636 72 0
637 636 -72 0
-638 637 74 0
-638 -637 -74 0
638 -637 74 0
638 637 -74 0
-639 638 79 0
-639 -638 -79 0
639 -638 79 0
639 638 -79 0
-640 639 81 0
-640 -639 -81 0
640 -639 81 0
640 639 -81 0
-641 640 82 0
-641 -640 -82 0
641 -640 82 0
641 640 -82 0
-642 641 83 0
-642 -641 -83 0
642 -641 83 0
642 641 -83 0
-643 642 86 0
-643 -642 -86 0
643 -642 86 0
643 642 -86 0
-644 643 87 0
-644 -643 -87 0
644 -643 87 0
644 643 -87 0
-645 644 88 0
-645 -644 -88 0
645 -644 88 0
645 644 -88 0
-646 645 89 0
-646 -645 -89 0
646 -645 89 0
646 645 -89 0
-647 646 91 0
-647 -646 -91 0
647 -646 91 0
647 646 -91 0
-648 647 92 0
-648 -647 -92 0
648 -647 92 0
648 647 -92 0
-649 648 94 0
-649 -648 -94 0
649 -648 94 0
649 648 -94 0
-650 649 95 0
-650 -649 -95 0
650 -649 95 0
650 649 -95 0
-651 650 97 0
-651 -650 -97 0
651 -650 97 0
651 650 -97 0
-652 651 102 0
-652 -651 -102 0
652 -651 102 0
652 651 -102 0
-653 652 103 0
-653 -652 -103 0
653 -652 103 0
653 652 -103 0
-654 653 105 0
-654 -653 -105 0
654 -653 105 0
654 653 -105 0
-655 654 106 0
-655 -654 -106 0
655 -654 106 0
655 654 -106 0
-656 655 115 0
-656 -655 -115 0
656 -655 115 0
656 655 -115 0
-657 656 161 0
-657 -656 -161 0
657 -656 161 0
657 656 -161 0
-658 657 165 0
-658 -657 -165 0
658 -657 165 0
658 657 -165 0
-659 658 166 0
-659 -658 -166 0
659 -658 166 0
659 658 -166 0
-660 659 173 0
-660 -659 -173 0
660 -659 173 0
660 659 -173 0
-661 660 176 0
-661 -660 -176 0
661 -660 176 0
661 660 -176 0
-662 661 179 0
-662 -661 -179 0
662 -661 179 0
662 661 -179 0
-663 662 180 0
-663 -662 -180 0
663 -662 180 0
663 662 -180 0
-664 663 182 0
-664 -663 -182 0
664 -663 182 0
664 663 -182 0
-665 664 184 0
-665 -664 -184 0
665 -664 184 0
665 664 -184 0
-666 665 186 0
-666 -665 -186 0
666 -665 186 0
666 665 -186 0
-667 666 188 0
-667 -666 -188 0
667 -666 188 0
667 666 -188 0
-668 667 190 0
-668 -667 -190 0
668 -667 190 0
668 667 -190 0
-669 668 193 0
-669 -668 -193 0
669 -668 193 0
669 668 -193 0
-670 669 194 0
-670 -669 -194 0
670 -669 194 0
670 669 -194 0
-671 670 195 0
-671 -670 -195 0
671 -670 195 0
671 670 -195 0
-672 671 196 0
-672 -671 -196 0
672 -671 196 0
672 671 -196 0
-673 672 198 0
-673 -672 -198 0
673 -672 198 0
673 672 -198 0
-674 673 200 0
-674 -673 -200 0
674 -673 200 0
674 673 -200 0
-675 674 202 0
-675 -674 -202 0
675 -674 202 0
675 674 -202 0
-676 675 203 0
-676 -675 -203 0
676 -675 203 0
676 675 -203 0
-677 676 204 0
-677 -676 -204 0
677 -676 204 0
677 676 -204 0
-678 677 206 0
-678 -677 -206 0
678 -677 206 0
678 677 -206 0
-679 678 207 0
-679 -678 -207 0
679 -678 207 0
679 678 -207 0
-680 679 208 0
-680 -679 -208 0
680 -679 208 0
680 679 -208 0
-681 680 210 0
-681 -680 -210 0
681 -680 210 0
681 680 -210 0
-682 681 211 0
-682 -681 -211 0
682 -681 211 0
682 681 -211 0
-683 682 216 0
-683 -682 -216 0
683 -682 216 0
683 682 -216 0
-683 0
-684 58 61 0
-684 -58 -61 0
684 -58 61 0
684 58 -61 0
-685 684 64 0
-685 -684 -64 0
685 -684 64 0
685 684 -64 0
-686 685 67 0
-686 -685 -67 0
686 -685 67 0
686 685 -67 0
-687 686 75 0
-687 -686 -75 0
687 -686 75 0
687 686 -75 0
-688 687 80 0
-688 -687 -80 0
688 -687 80 0
688 687 -80 0
-689 688 82 0
-689 -688 -82 0
689 -688 82 0
689 688 -82 0
-690 689 83 0
-690 -689 -83 0
690 -689 83 0
690 689 -83 0
-691 690 84 0
-691 -690 -84 0
691 -690 84 0
691 690 -84 0
-692 691 87 0
-692 -691 -87 0
692 -691 87 0
692 691 -87 0
-693 692 88 0
-693 -692 -88 0
693 -692 88 0
693 692 -88 0
-694 693 89 0
-694 -693 -89 0
694 -693 89 0
694 693 -89 0
-695 694 90 0
-695 -694 -90 0
695 -694 90 0
695 694 -90 0
-696 695 92 0
-696 -695 -92 0
696 -695 92 0
696 695 -92 0
-697 696 93 0
-697 -696 -93 0
697 -696 93 0
697 696 -93 0
-698 697 95 0
-698 -697 -95 0
698 -697 95 0
698 697 -95 0
-699 698 96 0
-699 -698 -96 0
699 -698 96 0
699 698 -96 0
-700 699 97 0
-700 -699 -97 0
700 -699 97 0
700 699 -97 0
-701 700 98 0
-701 -700 -98 0
701 -700 98 0
701 700 -98 0
-702 701 104 0
-702 -701 -104 0
702 -701 104 0
702 701 -104 0
-703 702 106 0
-703 -702 -106 0
703 -702 106 0
703 702 -106 0
-704 703 107 0
-704 -703 -107 0
704 -703 107 0
704 703 -107 0
-705 704 116 0
-705 -704 -116 0
705 -704 116 0
705 704 -116 0
-706 705 162 0
-706 -705 -162 0
706 -705 162 0
706 705 -162 0
-707 706 166 0
-707 -706 -166 0
707 -706 166 0
707 706 -166 0
-708 707 167 0
-708 -707 -167 0
708 -707 167 0
708 707 -167 0
-709 708 174 0
-709 -708 -174 0
709 -708 174 0
709 708 -174 0
-710 709 175 0
-710 -709 -175 0
710 -709 175 0
710 709 -175 0
-711 710 177 0
-711 -710 -177 0
711 -710 177 0
711 710 -177 0
-712 711 180 0
-712 -711 -180 0
712 -711 180 0
712 711 -180 0
-713 712 181 0
-713 -712 -181 0
713 -712 181 0
713 712 -181 0
-714 713 183 0
-714 -713 -183 0
714 -713 183 0
714 713 -183 0
-715 714 185 0
-715 -714 -185 0
715 -714 185 0
715 714 -185 0
-716 715 189 0
-716 -715 -189 0
716 -715 189 0
716 715 -189 0
-717 716 191 0
-717 -716 -191 0
717 -716 191 0
717 716 -191 0
-718 717 193 0
-718 -717 -193 0
718 -717 193 0
718 717 -193 0
-719 718 194 0
-719 -718 -194 0
719 -718 194 0
719 718 -194 0
-720 719 195 0
-720 -719 -195 0
720 -719 195 0
720 719 -195 0
-721 720 196 0
-721 -720 -196 0
721 -720 196 0
721 720 -196 0
-722 721 197 0
-722 -721 -197 0
722 -721 197 0
722 721 -197 0
-723 722 199 0
-723 -722 -199 0
723 -722 199 0
723 722 -199 0
-724 723 201 0
-724 -723 -201 0
724 -723 201 0
724 723 -201 0
-725 724 203 0
-725 -724 -203 0
725 -724 203 0
725 724 -203 0
-726 725 204 0
-726 -725 -204 0
726 -725 204 0
726 725 -204 0
-727 726 205 0
-727 -726 -205 0
727 -726 205 0
727 726 -205 0
-728 727 207 0
-728 -727 -207 0
728 -727 207 0
728 727 -207 0
-729 728 208 0
-729 -728 -208 0
729 -728 208 0
729 728 -208 0
-730 729 209 0
-730 -729 -209 0
730 -729 209 0
730 729 -209 0
-731 730 211 0
-731 -730 -211 0
731 -730 211 0
731 730 -211 0
-732 731 212 0
-732 -731 -212 0
732 -731 212 0
732 731 -212 0
-732 0
-733 54 58 0
-733 -54 -58 0
733 -54 58 0
733 54 -58 0
-734 733 59 0
-734 -733 -59 0
734 -733 59 0
734 733 -59 0
-735 734 61 0
-735 -734 -61 0
735 -734 61 0
735 734 -61 0
-736 735 63 0
-736 -735 -63 0
736 -735 63 0
736 735 -63 0
-737 736 64 0
-737 -736 -64 0
737 -736 64 0
737 736 -64 0
-738 737 65 0
-738 -737 -65 0
738 -737 65 0
738 737 -65 0
-739 738 66 0
-739 -738 -66 0
739 -738 66 0
739 738 -66 0
-740 739 67 0
-740 -739 -67 0
740 -739 67 0
740 739 -67 0
-741 740 76 0
-741 -740 -76 0
741 -740 76 0
741 740 -76 0
-742 741 77 0
-742 -741 -77 0
742 -741 77 0
742 741 -77 0
-743 742 78 0
-743 -742 -78 0
743 -742 78 0
743 742 -78 0
-744 743 81 0
-744 -743 -81 0
744 -743 81 0
744 743 -81 0
-745 744 83 0
-745 -744 -83 0
745 -744 83 0
745 744 -83 0
-746 745 87 0
-746 -745 -87 0
746 -745 87 0
746 745 -87 0
-747 746 89 0
-747 -746 -89 0
747 -746 89 0
747 746 -89 0
-748 747 90 0
-748 -747 -90 0
748 -747 90 0
748 747 -90 0
-749 748 91 0
-749 -748 -91 0
749 -748 91 0
749 748 -91 0
-750 749 92 0
-750 -749 -92 0
750 -749 92 0
750 749 -92 0
-751 750 93 0
-751 -750 -93 0
751 -750 93 0
751 750 -93 0
-752 751 95 0
-752 -751 -95 0
752 -751 95 0
752 751 -95 0
-753 752 98 0
-753 -752 -98 0
753 -752 98 0
753 752 -98 0
-754 753 107 0
-754 -753 -107 0
754 -753 107 0
754 753 -107 0
-755 754 117 0
-755 -754 -117 0
755 -754 117 0
755 754 -117 0
-756 755 161 0
-756 -755 -161 0
756 -755 161 0
756 755 -161 0
-757 756 162 0
-757 -756 -162 0
757 -756 162 0
757 756 -162 0
-758 757 163 0
-758 -757 -163 0
758 -757 163 0
758 757 -163 0
-759 758 164 0
-759 -758 -164 0
759 -758 164 0
759 758 -164 0
-760 759 165 0
-760 -759 -165 0
760 -759 165 0
760 759 -165 0
-761 760 166 0
-761 -760 -166 0
761 -760 166 0
761 760 -166 0
-762 761 169 0
-762 -761 -169 0
762 -761 169 0
762 761 -169 0
-763 762 170 0
-763 -762 -170 0
763 -762 170 0
763 762 -170 0
-764 763 173 0
-764 -763 -173 0
764 -763 173 0
764 763 -173 0
-765 764 178 0
-765 -764 -178 0
765 -764 178 0
765 764 -178 0
-766 765 180 0
-766 -765 -180 0
766 -765 180 0
766 765 -180 0
-767 766 182 0
-767 -766 -182 0
767 -766 182 0
767 766 -182 0
-768 767 183 0
-768 -767 -183 0
768 -767 183 0
768 767 -183 0
-769 768 185 0
-769 -768 -185 0
769 -768 185 0
769 768 -185 0
-770 769 186 0
-770 -769 -186 0
770 -769 186 0
770 769 -186 0
-771 770 191 0
-771 -770 -191 0
771 -770 191 0
771 770 -191 0
-772 771 193 0
-772 -771 -193 0
772 -771 193 0
772 771 -193 0
-773 772 201 0
-773 -772 -201 0
773 -772 201 0
773 772 -201 0
-774 773 202 0
-774 -773 -202 0
774 -773 202 0
774 773 -202 0
-775 774 204 0
-775 -774 -204 0
775 -774 204 0
775 774 -204 0
-776 775 207 0
-776 -775 -207 0
776 -775 207 0
776 775 -207 0
-777 776 208 0
-777 -776 -208 0
777 -776 208 0
777 776 -208 0
-778 777 212 0
-778 -777 -212 0
778 -777 212 0
778 777 -212 0
-779 778 213 0
-779 -778 -213 0
779 -778 213 0
779 778 -213 0
-780 779 214 0
-780 -779 -214 0
780 -779 214 0
780 779 -214 0
-781 780 215 0
-781 -780 -215 0
781 -780 215 0
781 780 -215 0
-782 781 216 0
-782 -781 -216 0
782 -781 216 0
782 781 -216 0
-782 0
-783 53 58 0
-783 -53 -58 0
783 -53 58 0
783 53 -58 0
-784 783 59 0
-784 -783 -59 0
784 -783 59 0
784 783 -59 0
-785 784 60 0
-785 -784 -60 0
785 -784 60 0
785 784 -60 0
-786 785 63 0
-786 -785 -63 0
786 -785 63 0
786 785 -63 0
-787 786 65 0
-787 -786 -65 0
787 -786 65 0
787 786 -65 0
-788 787 67 0
-788 -787 -67 0
788 -787 67 0
788 787 -67 0
-789 788 73 0
-789 -788 -73 0
789 -788 73 0
789 788 -73 0
-790 789 80 0
-790 -789 -80 0
790 -789 80 0
790 789 -80 0
-791 790 81 0
-791 -790 -81 0
791 -790 81 0
791 790 -81 0
-792 791 83 0
-792 -791 -83 0
792 -791 83 0
792 791 -83 0
-793 792 84 0
-793 -792 -84 0
793 -792 84 0
793 792 -84 0
-794 793 85 0
-794 -793 -85 0
794 -793 85 0
794 793 -85 0
-795 794 89 0
-795 -794 -89 0
795 -794 89 0
795 794 -89 0
-796 795 90 0
-796 -795 -90 0
796 -795 90 0
796 795 -90 0
-797 796 95 0
-797 -796 -95 0
797 -796 95 0
797 796 -95 0
-798 797 96 0
-798 -797 -96 0
798 -797 96 0
798 797 -96 0
-799 798 97 0
-799 -798 -97 0
799 -798 97 0
799 798 -97 0
-800 799 98 0
-800 -799 -98 0
800 -799 98 0
800 799 -98 0
-801 800 102 0
-801 -800 -102 0
801 -800 102 0
801 800 -102 0
-802 801 103 0
-802 -801 -103 0
802 -801 103 0
802 801 -103 0
-803 802 105 0
-803 -802 -105 0
803 -802 105 0
803 802 -105 0
-804 803 107 0
-804 -803 -107 0
804 -803 107 0
804 803 -107 0
-805 804 108 0
-805 -804 -108 0
805 -804 108 0
805 804 -108 0
-806 805 118 0
-806 -805 -118 0
806 -805 118 0
806 805 -118 0
-807 806 161 0
-807 -806 -161 0
807 -806 161 0
807 806 -161 0
-808 807 163 0
-808 -807 -163 0
808 -807 163 0
808 807 -163 0
-809 808 168 0
-809 -808 -168 0
809 -808 168 0
809 808 -168 0
-810 809 171 0
-810 -809 -171 0
810 -809 171 0
810 809 -171 0
-811 810 173 0
-811 -810 -173 0
811 -810 173 0
811 810 -173 0
-812 811 174 0
-812 -811 -174 0
812 -811 174 0
812 811 -174 0
-813 812 176 0
-813 -812 -176 0
813 -812 176 0
813 812 -176 0
-814 813 179 0
-814 -813 -179 0
814 -813 179 0
814 813 -179 0
-815 814 180 0
-815 -814 -180 0
815 -814 180 0
815 814 -180 0
-816 815 181 0
-816 -815 -181 0
816 -815 181 0
816 815 -181 0
-817 816 185 0
-817 -816 -185 0
817 -816 185 0
817 816 -185 0
-818 817 186 0
-818 -817 -186 0
818 -817 186 0
818 817 -186 0
-819 818 190 0
-819 -818 -190 0
819 -818 190 0
819 818 -190 0
-820 819 191 0
-820 -819 -191 0
820 -819 191 0
820 819 -191 0
-821 820 193 0
-821 -820 -193 0
821 -820 193 0
821 820 -193 0
-822 821 195 0
-822 -821 -195 0
822 -821 195 0
822 821 -195 0
-823 822 196 0
-823 -822 -196 0
823 -822 196 0
823 822 -196 0
-824 823 197 0
-824 -823 -197 0
824 -823 197 0
824 823 -197 0
-825 824 198 0
-825 -824 -198 0
825 -824 198 0
825 824 -198 0
-826 825 200 0
-826 -825 -200 0
826 -825 200 0
826 825 -200 0
-827 826 201 0
-827 -826 -201 0
827 -826 201 0
827 826 -201 0
-828 827 202 0
-828 -827 -202 0
828 -827 202 0
828 827 -202 0
-829 828 203 0
-829 -828 -203 0
829 -828 203 0
829 828 -203 0
-830 829 206 0
-830 -829 -206 0
830 -829 206 0
830 829 -206 0
-831 830 207 0
-831 -830 -207 0
831 -830 207 0
831 830 -207 0
-832 831 208 0
-832 -831 -208 0
832 -831 208 0
832 831 -208 0
-833 832 210 0
-833 -832 -210 0
833 -832 210 0
833 832 -210 0
-834 833 211 0
-834 -833 -211 0
834 -833 211 0
834 833 -211 0
-835 834 213 0
-835 -834 -213 0
835 -834 213 0
835 834 -213 0
-835 0
-836 54 57 0
-836 -54 -57 0
836 -54 57 0
836 54 -57 0
-837 836 58 0
-837 -836 -58 0
837 -836 58 0
837 836 -58 0
-838 837 59 0
-838 -837 -59 0
838 -837 59 0
838 837 -59 0
-839 838 61 0
-839 -838 -61 0
839 -838 61 0
839 838 -61 0
-840 839 62 0
-840 -839 -62 0
840 -839 62 0
840 839 -62 0
-841 840 65 0
-841 -840 -65 0
841 -840 65 0
841 840 -65 0
-842 841 66 0
-842 -841 -66 0
842 -841 66 0
842 841 -66 0
-843 842 69 0
-843 -842 -69 0
843 -842 69 0
843 842 -69 0
-844 843 71 0
-844 -843 -71 0
844 -843 71 0
844 843 -71 0
-845 844 72 0
-845 -844 -72 0
845 -844 72 0
845 844 -72 0
-846 845 73 0
-846 -845 -73 0
846 -845 73 0
846 845 -73 0
-847 846 74 0
-847 -846 -74 0
847 -846 74 0
847 846 -74 0
-848 847 75 0
-848 -847 -75 0
848 -847 75 0
848 847 -75 0
-849 848 76 0
-849 -848 -76 0
849 -848 76 0
849 848 -76 0
-850 849 78 0
-850 -849 -78 0
850 -849 78 0
850 849 -78 0
-851 850 80 0
-851 -850 -80 0
851 -850 80 0
851 850 -80 0
-852 851 81 0
-852 -851 -81 0
852 -851 81 0
852 851 -81 0
-853 852 83 0
-853 -852 -83 0
853 -852 83 0
853 852 -83 0
-854 853 84 0
-854 -853 -84 0
854 -853 84 0
854 853 -84 0
-855 854 85 0
-855 -854 -85 0
855 -854 85 0
855 854 -85 0
-856 855 87 0
-856 -855 -87 0
856 -855 87 0
856 855 -87 0
-857 856 89 0
-857 -856 -89 0
857 -856 89 0
857 856 -89 0
-858 857 93 0
-858 -857 -93 0
858 -857 93 0
858 857 -93 0
-859 858 94 0
-859 -858 -94 0
859 -858 94 0
859 858 -94 0
-860 859 99 0
-860 -859 -99 0
860 -859 99 0
860 859 -99 0
-861 860 100 0
-861 -860 -100 0
861 -860 100 0
861 860 -100 0
-862 861 101 0
-862 -861 -101 0
862 -861 101 0
862 861 -101 0
-863 862 103 0
-863 -862 -103 0
863 -862 103 0
863 862 -103 0
-864 863 105 0
-864 -863 -105 0
864 -863 105 0
864 863 -105 0
-865 864 106 0
-865 -864 -106 0
865 -864 106 0
865 864 -106 0
-866 865 107 0
-866 -865 -107 0
866 -865 107 0
866 865 -107 0
-867 866 119 0
-867 -866 -119 0
867 -866 119 0
867 866 -119 0
-868 867 162 0
-868 -867 -162 0
868 -867 162 0
868 867 -162 0
-869 868 163 0
-869 -868 -163 0
869 -868 163 0
869 868 -163 0
-870 869 164 0
-870 -869 -164 0
870 -869 164 0
870 869 -164 0
-871 870 169 0
-871 -870 -169 0
871 -870 169 0
871 870 -169 0
-872 871 172 0
-872 -871 -172 0
872 -871 172 0
872 871 -172 0
-873 872 174 0
-873 -872 -174 0
873 -872 174 0
873 872 -174 0
-874 873 175 0
-874 -873 -175 0
874 -873 175 0
874 873 -175 0
-875 874 177 0
-875 -874 -177 0
875 -874 177 0
875 874 -177 0
-876 875 180 0
-876 -875 -180 0
876 -875 180 0
876 875 -180 0
-877 876 181 0
-877 -876 -181 0
877 -876 181 0
877 876 -181 0
-878 877 182 0
-878 -877 -182 0
878 -877 182 0
878 877 -182 0
-879 878 186 0
-879 -878 -186 0
879 -878 186 0
879 878 -186 0
-880 879 191 0
-880 -879 -191 0
880 -879 191 0
880 879 -191 0
-881 880 192 0
-881 -880 -192 0
881 -880 192 0
881 880 -192 0
-882 881 193 0
-882 -881 -193 0
882 -881 193 0
882 881 -193 0
-883 882 194 0
-883 -882 -194 0
883 -882 194 0
883 882 -194 0
-884 883 196 0
-884 -883 -196 0
884 -883 196 0
884 883 -196 0
-885 884 197 0
-885 -884 -197 0
885 -884 197 0
885 884 -197 0
-886 885 198 0
-886 -885 -198 0
886 -885 198 0
886 885 -198 0
-887 886 201 0
-887 -886 -201 0
887 -886 201 0
887 886 -201 0
-888 887 202 0
-888 -887 -202 0
888 -887 202 0
888 887 -202 0
-889 888 203 0
-889 -888 -203 0
889 -888 203 0
889 888 -203 0
-890 889 204 0
-890 -889 -204 0
890 -889 204 0
890 889 -204 0
-891 890 205 0
-891 -890 -205 0
891 -890 205 0
891 890 -205 0
-892 891 207 0
-892 -891 -207 0
892 -891 207 0
892 891 -207 0
-893 892 208 0
-893 -892 -208 0
893 -892 208 0
893 892 -208 0
-894 893 209 0
-894 -893 -209 0
894 -893 209 0
894 893 -209 0
-895 894 212 0
-895 -894 -212 0
895 -894 212 0
895 894 -212 0
-896 895 214 0
-896 -895 -214 0
896 -895 214 0
896 895 -214 0
-896 0
-897 53 59 0
-897 -53 -59 0
897 -53 59 0
897 53 -59 0
-898 897 60 0
-898 -897 -60 0
898 -897 60 0
898 897 -60 0
-899 898 64 0
-899 -898 -64 0
899 -898 64 0
899 898 -64 0
-900 899 68 0
-900 -899 -68 0
900 -899 68 0
900 899 -68 0
-901 900 70 0
-901 -900 -70 0
901 -900 70 0
901 900 -70 0
-902 901 72 0
-902 -901 -72 0
902 -901 72 0
902 901 -72 0
-903 902 73 0
-903 -902 -73 0
903 -902 73 0
903 902 -73 0
-904 903 74 0
-904 -903 -74 0
904 -903 74 0
904 903 -74 0
-905 904 75 0
-905 -904 -75 0
905 -904 75 0
905 904 -75 0
-906 905 76 0
-906 -905 -76 0
906 -905 76 0
906 905 -76 0
-907 906 78 0
-907 -906 -78 0
907 -906 78 0
907 906 -78 0
-908 907 79 0
-908 -907 -79 0
908 -907 79 0
908 907 -79 0
-909 908 80 0
-909 -908 -80 0
909 -908 80 0
909 908 -80 0
-910 909 83 0
-910 -909 -83 0
910 -909 83 0
910 909 -83 0
-911 910 84 0
-911 -910 -84 0
911 -910 84 0
911 910 -84 0
-912 911 86 0
-912 -911 -86 0
912 -911 86 0
912 911 -86 0
-913 912 89 0
-913 -912 -89 0
913 -912 89 0
913 912 -89 0
-914 913 90 0
-914 -913 -90 0
914 -913 90 0
914 913 -90 0
-915 914 92 0
-915 -914 -92 0
915 -914 92 0
915 914 -92 0
-916 915 93 0
-916 -915 -93 0
916 -915 93 0
916 915 -93 0
-917 916 97 0
-917 -916 -97 0
917 -916 97 0
917 916 -97 0
-918 917 98 0
-918 -917 -98 0
918 -917 98 0
918 917 -98 0
-919 918 99 0
-919 -918 -99 0
919 -918 99 0
919 918 -99 0
-920 919 100 0
-920 -919 -100 0
920 -919 100 0
920 919 -100 0
-921 920 101 0
-921 -920 -101 0
921 -920 101 0
921 920 -101 0
-922 921 103 0
-922 -921 -103 0
922 -921 103 0
922 921 -103 0
-923 922 104 0
-923 -922 -104 0
923 -922 104 0
923 922 -104 0
-924 923 105 0
-924 -923 -105 0
924 -923 105 0
924 923 -105 0
-925 924 106 0
-925 -924 -106 0
925 -924 106 0
925 924 -106 0
-926 925 108 0
-926 -925 -108 0
926 -925 108 0
926 925 -108 0
-927 926 120 0
-927 -926 -120 0
927 -926 120 0
927 926 -120 0
-928 927 161 0
-928 -927 -161 0
928 -927 161 0
928 927 -161 0
-929 928 162 0
-929 -928 -162 0
929 -928 162 0
929 928 -162 0
-930 929 163 0
-930 -929 -163 0
930 -929 163 0
930 929 -163 0
-931 930 166 0
-931 -930 -166 0
931 -930 166 0
931 930 -166 0
-932 931 167 0
-932 -931 -167 0
932 -931 167 0
932 931 -167 0
-933 932 168 0
-933 -932 -168 0
933 -932 168 0
933 932 -168 0
-934 933 169 0
-934 -933 -169 0
934 -933 169 0
934 933 -169 0
-935 934 178 0
-935 -934 -178 0
935 -934 178 0
935 934 -178 0
-936 935 180 0
-936 -935 -180 0
936 -935 180 0
936 935 -180 0
-937 936 181 0
-937 -936 -181 0
937 -936 181 0
937 936 -181 0
-938 937 182 0
-938 -937 -182 0
938 -937 182 0
938 937 -182 0
-939 938 184 0
-939 -938 -184 0
939 -938 184 0
939 938 -184 0
-940 939 185 0
-940 -939 -185 0
940 -939 185 0
940 939 -185 0
-941 940 187 0
-941 -940 -187 0
941 -940 187 0
941 940 -187 0
-942 941 190 0
-942 -941 -190 0
942 -941 190 0
942 941 -190 0
-943 942 191 0
-943 -942 -191 0
943 -942 191 0
943 942 -191 0
-944 943 196 0
-944 -943 -196 0
944 -943 196 0
944 943 -196 0
-945 944 200 0
-945 -944 -200 0
945 -944 200 0
945 944 -200 0
-946 945 201 0
-946 -945 -201 0
946 -945 201 0
946 945 -201 0
-947 946 202 0
-947 -946 -202 0
947 -946 202 0
947 946 -202 0
-948 947 203 0
-948 -947 -203 0
948 -947 203 0
948 947 -203 0
-949 948 204 0
-949 -948 -204 0
949 -948 204 0
949 948 -204 0
-950 949 207 0
-950 -949 -207 0
950 -949 207 0
950 949 -207 0
-951 950 208 0
-951 -950 -208 0
951 -950 208 0
951 950 -208 0
-952 951 213 0
-952 -951 -213 0
952 -951 213 0
952 951 -213 0
-953 952 214 0
-953 -952 -214 0
953 -952 214 0
953 952 -214 0
-954 953 216 0
-954 -953 -216 0
954 -953 216 0
954 953 -216 0
-954 0
-955 54 57 0
-955 -54 -57 0
955 -54 57 0
955 54 -57 0
-956 955 60 0
-956 -955 -60 0
956 -955 60 0
956 955 -60 0
-957 956 61 0
-957 -956 -61 0
957 -956 61 0
957 956 -61 0
-958 957 66 0
-958 -957 -66 0
958 -957 66 0
958 957 -66 0
-959 958 67 0
-959 -958 -67 0
959 -958 67 0
959 958 -67 0
-960 959 68 0
-960 -959 -68 0
960 -959 68 0
960 959 -68 0
-961 960 69 0
-961 -960 -69 0
961 -960 69 0
961 960 -69 0
-962 961 77 0
-962 -961 -77 0
962 -961 77 0
962 961 -77 0
-963 962 80 0
-963 -962 -80 0
963 -962 80 0
963 962 -80 0
-964 963 81 0
-964 -963 -81 0
964 -963 81 0
964 963 -81 0
-965 964 83 0
-965 -964 -83 0
965 -964 83 0
965 964 -83 0
-966 965 87 0
-966 -965 -87 0
966 -965 87 0
966 965 -87 0
-967 966 89 0
-967 -966 -89 0
967 -966 89 0
967 966 -89 0
-968 967 90 0
-968 -967 -90 0
968 -967 90 0
968 967 -90 0
-969 968 101 0
-969 -968 -101 0
969 -968 101 0
969 968 -101 0
-970 969 104 0
-970 -969 -104 0
970 -969 104 0
970 969 -104 0
-971 970 121 0
-971 -970 -121 0
971 -970 121 0
971 970 -121 0
-972 971 161 0
-972 -971 -161 0
972 -971 161 0
972 971 -161 0
-973 972 162 0
-973 -972 -162 0
973 -972 162 0
973 972 -162 0
-974 973 165 0
-974 -973 -165 0
974 -973 165 0
974 973 -165 0
-975 974 169 0
-975 -974 -169 0
975 -974 169 0
975 974 -169 0
-976 975 172 0
-976 -975 -172 0
976 -975 172 0
976 975 -172 0
-977 976 173 0
-977 -976 -173 0
977 -976 173 0
977 976 -173 0
-978 977 174 0
-978 -977 -174 0
978 -977 174 0
978 977 -174 0
-979 978 175 0
-979 -978 -175 0
979 -978 175 0
979 978 -175 0
-980 979 184 0
-980 -979 -184 0
980 -979 184 0
980 979 -184 0
-981 980 186 0
-981 -980 -186 0
981 -980 186 0
981 980 -186 0
-982 981 187 0
-982 -981 -187 0
982 -981 187 0
982 981 -187 0
-983 982 188 0
-983 -982 -188 0
983 -982 188 0
983 982 -188 0
-984 983 190 0
-984 -983 -190 0
984 -983 190 0
984 983 -190 0
-985 984 191 0
-985 -984 -191 0
985 -984 191 0
985 984 -191 0
-986 985 193 0
-986 -985 -193 0
986 -985 193 0
986 985 -193 0
-987 986 196 0
-987 -986 -196 0
987 -986 196 0
987 986 -196 0
-988 987 197 0
-988 -987 -197 0
988 -987 197 0
988 987 -197 0
-989 988 202 0
-989 -988 -202 0
989 -988 202 0
989 988 -202 0
-990 989 206 0
-990 -989 -206 0
990 -989 206 0
990 989 -206 0
-991 990 207 0
-991 -990 -207 0
991 -990 207 0
991 990 -207 0
-992 991 208 0
-992 -991 -208 0
992 -991 208 0
992 991 -208 0
-993 992 209 0
-993 -992 -209 0
993 -992 209 0
993 992 -209 0
-994 993 210 0
-994 -993 -210 0
994 -993 210 0
994 993 -210 0
-995 994 213 0
-995 -994 -213 0
995 -994 213 0
995 994 -213 0
-996 995 214 0
-996 -995 -214 0
996 -995 214 0
996 995 -214 0
-997 996 215 0
-997 -996 -215 0
997 -996 215 0
997 996 -215 0
-998 997 216 0
-998 -997 -216 0
998 -997 216 0
998 997 -216 0
-998 0
-999 53 57 0
-999 -53 -57 0
999 -53 57 0
999 53 -57 0
-1000 999 58 0
-1000 -999 -58 0
1000 -999 58 0
1000 999 -58 0
-1001 1000 60 0
-1001 -1000 -60 0
1001 -1000 60 0
1001 1000 -60 0
-1002 1001 61 0
-1002 -1001 -61 0
1002 -1001 61 0
1002 1001 -61 0
-1003 1002 62 0
-1003 -1002 -62 0
1003 -1002 62 0
1003 1002 -62 0
-1004 1003 63 0
-1004 -1003 -63 0
1004 -1003 63 0
1004 1003 -63 0
-1005 1004 65 0
-1005 -1004 -65 0
1005 -1004 65 0
1005 1004 -65 0
-1006 1005 66 0
-1006 -1005 -66 0
1006 -1005 66 0
1006 1005 -66 0
-1007 1006 67 0
-1007 -1006 -67 0
1007 -1006 67 0
1007 1006 -67 0
-1008 1007 68 0
-1008 -1007 -68 0
1008 -1007 68 0
1008 1007 -68 0
-1009 1008 70 0
-1009 -1008 -70 0
1009 -1008 70 0
1009 1008 -70 0
-1010 1009 71 0
-1010 -1009 -71 0
1010 -1009 71 0
1010 1009 -71 0
-1011 1010 72 0
-1011 -1010 -72 0
1011 -1010 72 0
1011 1010 -72 0
-1012 1011 73 0
-1012 -1011 -73 0
1012 -1011 73 0
1012 1011 -73 0
-1013 1012 75 0
-1013 -1012 -75 0
1013 -1012 75 0
1013 1012 -75 0
-1014 1013 76 0
-1014 -1013 -76 0
1014 -1013 76 0
1014 1013 -76 0
-1015 1014 77 0
-1015 -1014 -77 0
1015 -1014 77 0
1015 1014 -77 0
-1016 1015 78 0
-1016 -1015 -78 0
1016 -1015 78 0
1016 1015 -78 0
-1017 1016 79 0
-1017 -1016 -79 0
1017 -1016 79 0
1017 1016 -79 0
-1018 1017 82 0
-1018 -1017 -82 0
1018 -1017 82 0
1018 1017 -82 0
-1019 1018 84 0
-1019 -1018 -84 0
1019 -1018 84 0
1019 1018 -84 0
-1020 1019 85 0
-1020 -1019 -85 0
1020 -1019 85 0
1020 1019 -85 0
-1021 1020 86 0
-1021 -1020 -86 0
1021 -1020 86 0
1021 1020 -86 0
-1022 1021 87 0
-1022 -1021 -87 0
1022 -1021 87 0
1022 1021 -87 0
-1023 1022 91 0
-1023 -1022 -91 0
1023 -1022 91 0
1023 1022 -91 0
-1024 1023 92 0
-1024 -1023 -92 0
1024 -1023 92 0
1024 1023 -92 0
-1025 1024 95 0
-1025 -1024 -95 0
1025 -1024 95 0
1025 1024 -95 0
-1026 1025 96 0
-1026 -1025 -96 0
1026 -1025 96 0
1026 1025 -96 0
-1027 1026 99 0
-1027 -1026 -99 0
1027 -1026 99 0
1027 1026 -99 0
-1028 1027 100 0
-1028 -1027 -100 0
1028 -1027 100 0
1028 1027 -100 0
-1029 1028 101 0
-1029 -1028 -101 0
1029 -1028 101 0
1029 1028 -101 0
-1030 1029 103 0
-1030 -1029 -103 0
1030 -1029 103 0
1030 1029 -103 0
-1031 1030 104 0
-1031 -1030 -104 0
1031 -1030 104 0
1031 1030 -104 0
-1032 1031 105 0
-1032 -1031 -105 0
1032 -1031 105 0
1032 1031 -105 0
-1033 1032 108 0
-1033 -1032 -108 0
1033 -1032 108 0
1033 1032 -108 0
-1034 1033 122 0
-1034 -1033 -122 0
1034 -1033 122 0
1034 1033 -122 0
-1035 1034 161 0
-1035 -1034 -161 0
1035 -1034 161 0
1035 1034 -161 0
-1036 1035 163 0
-1036 -1035 -163 0
1036 -1035 163 0
1036 1035 -163 0
-1037 1036 164 0
-1037 -1036 -164 0
1037 -1036 164 0
1037 1036 -164 0
-1038 1037 165 0
-1038 -1037 -165 0
1038 -1037 165 0
1038 1037 -165 0
-1039 1038 167 0
-1039 -1038 -167 0
1039 -1038 167 0
1039 1038 -167 0
-1040 1039 168 0
-1040 -1039 -168 0
1040 -1039 168 0
1040 1039 -168 0
-1041 1040 169 0
-1041 -1040 -169 0
1041 -1040 169 0
1041 1040 -169 0
-1042 1041 174 0
-1042 -1041 -174 0
1042 -1041 174 0
1042 1041 -174 0
-1043 1042 175 0
-1043 -1042 -175 0
1043 -1042 175 0
1043 1042 -175 0
-1044 1043 180 0
-1044 -1043 -180 0
1044 -1043 180 0
1044 1043 -180 0
-1045 1044 181 0
-1045 -1044 -181 0
1045 -1044 181 0
1045 1044 -181 0
-1046 1045 183 0
-1046 -1045 -183 0
1046 -1045 183 0
1046 1045 -183 0
-1047 1046 184 0
-1047 -1046 -184 0
1047 -1046 184 0
1047 1046 -184 0
-1048 1047 188 0
-1048 -1047 -188 0
1048 -1047 188 0
1048 1047 -188 0
-1049 1048 189 0
-1049 -1048 -189 0
1049 -1048 189 0
1049 1048 -189 0
-1050 1049 190 0
-1050 -1049 -190 0
1050 -1049 190 0
1050 1049 -190 0
-1051 1050 193 0
-1051 -1050 -193 0
1051 -1050 193 0
1051 1050 -193 0
-1052 1051 195 0
-1052 -1051 -195 0
1052 -1051 195 0
1052 1051 -195 0
-1053 1052 196 0
-1053 -1052 -196 0
1053 -1052 196 0
1053 1052 -196 0
-1054 1053 199 0
-1054 -1053 -199 0
1054 -1053 199 0
1054 1053 -199 0
-1055 1054 200 0
-1055 -1054 -200 0
1055 -1054 200 0
1055 1054 -200 0
-1056 1055 201 0
-1056 -1055 -201 0
1056 -1055 201 0
1056 1055 -201 0
-1057 1056 203 0
-1057 -1056 -203 0
1057 -1056 203 0
1057 1056 -203 0
-1058 1057 205 0
-1058 -1057 -205 0
1058 -1057 205 0
1058 1057 -205 0
-1059 1058 206 0
-1059 -1058 -206 0
1059 -1058 206 0
1059 1058 -206 0
-1060 1059 208 0
-1060 -1059 -208 0
1060 -1059 208 0
1060 1059 -208 0
-1061 1060 211 0
-1061 -1060 -211 0
1061 -1060 211 0
1061 1060 -211 0
-1061 0
-1062 54 57 0
-1062 -54 -57 0
1062 -54 57 0
1062 54 -57 0
-1063 1062 59 0
-1063 -1062 -59 0
1063 -1062 59 0
1063 1062 -59 0
-1064 1063 60 0
-1064 -1063 -60 0
1064 -1063 60 0
1064 1063 -60 0
-1065 1064 63 0
-1065 -1064 -63 0
1065 -1064 63 0
1065 1064 -63 0
-1066 1065 65 0
-1066 -1065 -65 0
1066 -1065 65 0
1066 1065 -65 0
-1067 1066 66 0
-1067 -1066 -66 0
1067 -1066 66 0
1067 1066 -66 0
-1068 1067 67 0
-1068 -1067 -67 0
1068 -1067 67 0
1068 1067 -67 0
-1069 1068 74 0
-1069 -1068 -74 0
1069 -1068 74 0
1069 1068 -74 0
-1070 1069 75 0
-1070 -1069 -75 0
1070 -1069 75 0
1070 1069 -75 0
-1071 1070 77 0
-1071 -1070 -77 0
1071 -1070 77 0
1071 1070 -77 0
-1072 1071 82 0
-1072 -1071 -82 0
1072 -1071 82 0
1072 1071 -82 0
-1073 1072 88 0
-1073 -1072 -88 0
1073 -1072 88 0
1073 1072 -88 0
-1074 1073 89 0
-1074 -1073 -89 0
1074 -1073 89 0
1074 1073 -89 0
-1075 1074 90 0
-1075 -1074 -90 0
1075 -1074 90 0
1075 1074 -90 0
-1076 1075 92 0
-1076 -1075 -92 0
1076 -1075 92 0
1076 1075 -92 0
-1077 1076 94 0
-1077 -1076 -94 0
1077 -1076 94 0
1077 1076 -94 0
-1078 1077 97 0
-1078 -1077 -97 0
1078 -1077 97 0
1078 1077 -97 0
-1079 1078 98 0
-1079 -1078 -98 0
1079 -1078 98 0
1079 1078 -98 0
-1080 1079 102 0
-1080 -1079 -102 0
1080 -1079 102 0
1080 1079 -102 0
-1081 1080 103 0
-1081 -1080 -103 0
1081 -1080 103 0
1081 1080 -103 0
-1082 1081 106 0
-1082 -1081 -106 0
1082 -1081 106 0
1082 1081 -106 0
-1083 1082 107 0
-1083 -1082 -107 0
1083 -1082 107 0
1083 1082 -107 0
-1084 1083 108 0
-1084 -1083 -108 0
1084 -1083 108 0
1084 1083 -108 0
-1085 1084 123 0
-1085 -1084 -123 0
1085 -1084 123 0
1085 1084 -123 0
-1086 1085 162 0
-1086 -1085 -162 0
1086 -1085 162 0
1086 1085 -162 0
-1087 1086 163 0
-1087 -1086 -163 0
1087 -1086 163 0
1087 1086 -163 0
-1088 1087 164 0
-1088 -1087 -164 0
1088 -1087 164 0
1088 1087 -164 0
-1089 1088 165 0
-1089 -1088 -165 0
1089 -1088 165 0
1089 1088 -165 0
-1090 1089 166 0
-1090 -1089 -166 0
1090 -1089 166 0
1090 1089 -166 0
-1091 1090 168 0
-1091 -1090 -168 0
1091 -1090 168 0
1091 1090 -168 0
-1092 1091 169 0
-1092 -1091 -169 0
1092 -1091 169 0
1092 1091 -169 0
-1093 1092 170 0
-1093 -1092 -170 0
1093 -1092 170 0
1093 1092 -170 0
-1094 1093 175 0
-1094 -1093 -175 0
1094 -1093 175 0
1094 1093 -175 0
-1095 1094 176 0
-1095 -1094 -176 0
1095 -1094 176 0
1095 1094 -176 0
-1096 1095 182 0
-1096 -1095 -182 0
1096 -1095 182 0
1096 1095 -182 0
-1097 1096 184 0
-1097 -1096 -184 0
1097 -1096 184 0
1097 1096 -184 0
-1098 1097 185 0
-1098 -1097 -185 0
1098 -1097 185 0
1098 1097 -185 0
-1099 1098 189 0
-1099 -1098 -189 0
1099 -1098 189 0
1099 1098 -189 0
-1100 1099 190 0
-1100 -1099 -190 0
1100 -1099 190 0
1100 1099 -190 0
-1101 1100 191 0
-1101 -1100 -191 0
1101 -1100 191 0
1101 1100 -191 0
-1102 1101 194 0
-1102 -1101 -194 0
1102 -1101 194 0
1102 1101 -194 0
-1103 1102 196 0
-1103 -1102 -196 0
1103 -1102 196 0
1103 1102 -196 0
-1104 1103 197 0
-1104 -1103 -197 0
1104 -1103 197 0
1104 1103 -197 0
-1105 1104 200 0
-1105 -1104 -200 0
1105 -1104 200 0
1105 1104 -200 0
-1106 1105 201 0
-1106 -1105 -201 0
1106 -1105 201 0
1106 1105 -201 0
-1107 1106 202 0
-1107 -1106 -202 0
1107 -1106 202 0
1107 1106 -202 0
-1108 1107 204 0
-1108 -1107 -204 0
1108 -1107 204 0
1108 1107 -204 0
-1109 1108 206 0
-1109 -1108 -206 0
1109 -1108 206 0
1109 1108 -206 0
-1110 1109 207 0
-1110 -1109 -207 0
1110 -1109 207 0
1110 1109 -207 0
-1111 1110 209 0
-1111 -1110 -209 0
1111 -1110 209 0
1111 1110 -209 0
-1112 1111 212 0
-1112 -1111 -212 0
1112 -1111 212 0
1112 1111 -212 0
-1112 0
-1113 53 57 0
-1113 -53 -57 0
1113 -53 57 0
1113 53 -57 0
-1114 1113 58 0
-1114 -1113 -58 0
1114 -1113 58 0
1114 1113 -58 0
-1115 1114 61 0
-1115 -1114 -61 0
1115 -1114 61 0
1115 1114 -61 0
-1116 1115 63 0
-1116 -1115 -63 0
1116 -1115 63 0
1116 1115 -63 0
-1117 1116 64 0
-1117 -1116 -64 0
1117 -1116 64 0
1117 1116 -64 0
-1118 1117 65 0
-1118 -1117 -65 0
1118 -1117 65 0
1118 1117 -65 0
-1119 1118 67 0
-1119 -1118 -67 0
1119 -1118 67 0
1119 1118 -67 0
-1120 1119 68 0
-1120 -1119 -68 0
1120 -1119 68 0
1120 1119 -68 0
-1121 1120 69 0
-1121 -1120 -69 0
1121 -1120 69 0
1121 1120 -69 0
-1122 1121 71 0
-1122 -1121 -71 0
1122 -1121 71 0
1122 1121 -71 0
-1123 1122 72 0
-1123 -1122 -72 0
1123 -1122 72 0
1123 1122 -72 0
-1124 1123 73 0
-1124 -1123 -73 0
1124 -1123 73 0
1124 1123 -73 0
-1125 1124 77 0
-1125 -1124 -77 0
1125 -1124 77 0
1125 1124 -77 0
-1126 1125 78 0
-1126 -1125 -78 0
1126 -1125 78 0
1126 1125 -78 0
-1127 1126 79 0
-1127 -1126 -79 0
1127 -1126 79 0
1127 1126 -79 0
-1128 1127 81 0
-1128 -1127 -81 0
1128 -1127 81 0
1128 1127 -81 0
-1129 1128 83 0
-1129 -1128 -83 0
1129 -1128 83 0
1129 1128 -83 0
-1130 1129 85 0
-1130 -1129 -85 0
1130 -1129 85 0
1130 1129 -85 0
-1131 1130 86 0
-1131 -1130 -86 0
1131 -1130 86 0
1131 1130 -86 0
-1132 1131 87 0
-1132 -1131 -87 0
1132 -1131 87 0
1132 1131 -87 0
-1133 1132 88 0
-1133 -1132 -88 0
1133 -1132 88 0
1133 1132 -88 0
-1134 1133 89 0
-1134 -1133 -89 0
1134 -1133 89 0
1134 1133 -89 0
-1135 1134 91 0
-1135 -1134 -91 0
1135 -1134 91 0
1135 1134 -91 0
-1136 1135 92 0
-1136 -1135 -92 0
1136 -1135 92 0
1136 1135 -92 0
-1137 1136 93 0
-1137 -1136 -93 0
1137 -1136 93 0
1137 1136 -93 0
-1138 1137 96 0
-1138 -1137 -96 0
1138 -1137 96 0
1138 1137 -96 0
-1139 1138 97 0
-1139 -1138 -97 0
1139 -1138 97 0
1139 1138 -97 0
-1140 1139 98 0
-1140 -1139 -98 0
1140 -1139 98 0
1140 1139 -98 0
-1141 1140 100 0
-1141 -1140 -100 0
1141 -1140 100 0
1141 1140 -100 0
-1142 1141 101 0
-1142 -1141 -101 0
1142 -1141 101 0
1142 1141 -101 0
-1143 1142 102 0
-1143 -1142 -102 0
1143 -1142 102 0
1143 1142 -102 0
-1144 1143 107 0
-1144 -1143 -107 0
1144 -1143 107 0
1144 1143 -107 0
-1145 1144 124 0
-1145 -1144 -124 0
1145 -1144 124 0
1145 1144 -124 0
-1146 1145 161 0
-1146 -1145 -161 0
1146 -1145 161 0
1146 1145 -161 0
-1147 1146 162 0
-1147 -1146 -162 0
1147 -1146 162 0
1147 1146 -162 0
-1148 1147 168 0
-1148 -1147 -168 0
1148 -1147 168 0
1148 1147 -168 0
-1149 1148 171 0
-1149 -1148 -171 0
1149 -1148 171 0
1149 1148 -171 0
-1150 1149 173 0
-1150 -1149 -173 0
1150 -1149 173 0
1150 1149 -173 0
-1151 1150 175 0
-1151 -1150 -175 0
1151 -1150 175 0
1151 1150 -175 0
-1152 1151 177 0
-1152 -1151 -177 0
1152 -1151 177 0
1152 1151 -177 0
-1153 1152 180 0
-1153 -1152 -180 0
1153 -1152 180 0
1153 1152 -180 0
-1154 1153 184 0
-1154 -1153 -184 0
1154 -1153 184 0
1154 1153 -184 0
-1155 1154 186 0
-1155 -1154 -186 0
1155 -1154 186 0
1155 1154 -186 0
-1156 1155 193 0
-1156 -1155 -193 0
1156 -1155 193 0
1156 1155 -193 0
-1157 1156 194 0
-1157 -1156 -194 0
1157 -1156 194 0
1157 1156 -194 0
-1158 1157 196 0
-1158 -1157 -196 0
1158 -1157 196 0
1158 1157 -196 0
-1159 1158 200 0
-1159 -1158 -200 0
1159 -1158 200 0
1159 1158 -200 0
-1160 1159 202 0
-1160 -1159 -202 0
1160 -1159 202 0
1160 1159 -202 0
-1161 1160 203 0
-1161 -1160 -203 0
1161 -1160 203 0
1161 1160 -203 0
-1162 1161 206 0
-1162 -1161 -206 0
1162 -1161 206 0
1162 1161 -206 0
-1163 1162 208 0
-1163 -1162 -208 0
1163 -1162 208 0
1163 1162 -208 0
-1164 1163 209 0
-1164 -1163 -209 0
1164 -1163 209 0
1164 1163 -209 0
-1165 1164 213 0
-1165 -1164 -213 0
1165 -1164 213 0
1165 1164 -213 0
-1166 1165 214 0
-1166 -1165 -214 0
1166 -1165 214 0
1166 1165 -214 0
-1167 1166 215 0
-1167 -1166 -215 0
1167 -1166 215 0
1167 1166 -215 0
-1168 1167 216 0
-1168 -1167 -216 0
1168 -1167 216 0
1168 1167 -216 0
-1168 0
-1169 59 61 0
-1169 -59 -61 0
1169 -59 61 0
1169 59 -61 0
-1170 1169 63 0
-1170 -1169 -63 0
1170 -1169 63 0
1170 1169 -63 0
-1171 1170 65 0
-1171 -1170 -65 0
1171 -1170 65 0
1171 1170 -65 0
-1172 1171 69 0
-1172 -1171 -69 0
1172 -1171 69 0
1172 1171 -69 0
-1173 1172 70 0
-1173 -1172 -70 0
1173 -1172 70 0
1173 1172 -70 0
-1174 1173 72 0
-1174 -1173 -72 0
1174 -1173 72 0
1174 1173 -72 0
-1175 1174 73 0
-1175 -1174 -73 0
1175 -1174 73 0
1175 1174 -73 0
-1176 1175 74 0
-1176 -1175 -74 0
1176 -1175 74 0
1176 1175 -74 0
-1177 1176 77 0
-1177 -1176 -77 0
1177 -1176 77 0
1177 1176 -77 0
-1178 1177 79 0
-1178 -1177 -79 0
1178 -1177 79 0
1178 1177 -79 0
-1179 1178 80 0
-1179 -1178 -80 0
1179 -1178 80 0
1179 1178 -80 0
-1180 1179 82 0
-1180 -1179 -82 0
1180 -1179 82 0
1180 1179 -82 0
-1181 1180 85 0
-1181 -1180 -85 0
1181 -1180 85 0
1181 1180 -85 0
-1182 1181 86 0
-1182 -1181 -86 0
1182 -1181 86 0
1182 1181 -86 0
-1183 1182 89 0
-1183 -1182 -89 0
1183 -1182 89 0
1183 1182 -89 0
-1184 1183 90 0
-1184 -1183 -90 0
1184 -1183 90 0
1184 1183 -90 0
-1185 1184 91 0
-1185 -1184 -91 0
1185 -1184 91 0
1185 1184 -91 0
-1186 1185 93 0
-1186 -1185 -93 0
1186 -1185 93 0
1186 1185 -93 0
-1187 1186 95 0
-1187 -1186 -95 0
1187 -1186 95 0
1187 1186 -95 0
-1188 1187 96 0
-1188 -1187 -96 0
1188 -1187 96 0
1188 1187 -96 0
-1189 1188 97 0
-1189 -1188 -97 0
1189 -1188 97 0
1189 1188 -97 0
-1190 1189 98 0
-1190 -1189 -98 0
1190 -1189 98 0
1190 1189 -98 0
-1191 1190 101 0
-1191 -1190 -101 0
1191 -1190 101 0
1191 1190 -101 0
-1192 1191 102 0
-1192 -1191 -102 0
1192 -1191 102 0
1192 1191 -102 0
-1193 1192 105 0
-1193 -1192 -105 0
1193 -1192 105 0
1193 1192 -105 0
-1194 1193 125 0
-1194 -1193 -125 0
1194 -1193 125 0
1194 1193 -125 0
-1195 1194 161 0
-1195 -1194 -161 0
1195 -1194 161 0
1195 1194 -161 0
-1196 1195 164 0
-1196 -1195 -164 0
1196 -1195 164 0
1196 1195 -164 0
-1197 1196 165 0
-1197 -1196 -165 0
1197 -1196 165 0
1197 1196 -165 0
-1198 1197 166 0
-1198 -1197 -166 0
1198 -1197 166 0
1198 1197 -166 0
-1199 1198 167 0
-1199 -1198 -167 0
1199 -1198 167 0
1199 1198 -167 0
-1200 1199 168 0
-1200 -1199 -168 0
1200 -1199 168 0
1200 1199 -168 0
-1201 1200 170 0
-1201 -1200 -170 0
1201 -1200 170 0
1201 1200 -170 0
-1202 1201 172 0
-1202 -1201 -172 0
1202 -1201 172 0
1202 1201 -172 0
-1203 1202 173 0
-1203 -1202 -173 0
1203 -1202 173 0
1203 1202 -173 0
-1204 1203 174 0
-1204 -1203 -174 0
1204 -1203 174 0
1204 1203 -174 0
-1205 1204 178 0
-1205 -1204 -178 0
1205 -1204 178 0
1205 1204 -178 0
-1206 1205 180 0
-1206 -1205 -180 0
1206 -1205 180 0
1206 1205 -180 0
-1207 1206 181 0
-1207 -1206 -181 0
1207 -1206 181 0
1207 1206 -181 0
-1208 1207 183 0
-1208 -1207 -183 0
1208 -1207 183 0
1208 1207 -183 0
-1209 1208 184 0
-1209 -1208 -184 0
1209 -1208 184 0
1209 1208 -184 0
-1210 1209 190 0
-1210 -1209 -190 0
1210 -1209 190 0
1210 1209 -190 0
-1211 1210 191 0
-1211 -1210 -191 0
1211 -1210 191 0
1211 1210 -191 0
-1212 1211 192 0
-1212 -1211 -192 0
1212 -1211 192 0
1212 1211 -192 0
-1213 1212 193 0
-1213 -1212 -193 0
1213 -1212 193 0
1213 1212 -193 0
-1214 1213 196 0
-1214 -1213 -196 0
1214 -1213 196 0
1214 1213 -196 0
-1215 1214 198 0
-1215 -1214 -198 0
1215 -1214 198 0
1215 1214 -198 0
-1216 1215 199 0
-1216 -1215 -199 0
1216 -1215 199 0
1216 1215 -199 0
-1217 1216 200 0
-1217 -1216 -200 0
1217 -1216 200 0
1217 1216 -200 0
-1218 1217 203 0
-1218 -1217 -203 0
1218 -1217 203 0
1218 1217 -203 0
-1219 1218 204 0
-1219 -1218 -204 0
1219 -1218 204 0
1219 1218 -204 0
-1220 1219 206 0
-1220 -1219 -206 0
1220 -1219 206 0
1220 1219 -206 0
-1221 1220 211 0
-1221 -1220 -211 0
1221 -1220 211 0
1221 1220 -211 0
-1221 0
-1222 60 62 0
-1222 -60 -62 0
1222 -60 62 0
1222 60 -62 0
-1223 1222 64 0
-1223 -1222 -64 0
1223 -1222 64 0
1223 1222 -64 0
-1224 1223 66 0
-1224 -1223 -66 0
1224 -1223 66 0
1224 1223 -66 0
-1225 1224 67 0
-1225 -1224 -67 0
1225 -1224 67 0
1225 1224 -67 0
-1226 1225 70 0
-1226 -1225 -70 0
1226 -1225 70 0
1226 1225 -70 0
-1227 1226 71 0
-1227 -1226 -71 0
1227 -1226 71 0
1227 1226 -71 0
-1228 1227 74 0
-1228 -1227 -74 0
1228 -1227 74 0
1228 1227 -74 0
-1229 1228 75 0
-1229 -1228 -75 0
1229 -1228 75 0
1229 1228 -75 0
-1230 1229 78 0
-1230 -1229 -78 0
1230 -1229 78 0
1230 1229 -78 0
-1231 1230 80 0
-1231 -1230 -80 0
1231 -1230 80 0
1231 1230 -80 0
-1232 1231 81 0
-1232 -1231 -81 0
1232 -1231 81 0
1232 1231 -81 0
-1233 1232 83 0
-1233 -1232 -83 0
1233 -1232 83 0
1233 1232 -83 0
-1234 1233 85 0
-1234 -1233 -85 0
1234 -1233 85 0
1234 1233 -85 0
-1235 1234 86 0
-1235 -1234 -86 0
1235 -1234 86 0
1235 1234 -86 0
-1236 1235 87 0
-1236 -1235 -87 0
1236 -1235 87 0
1236 1235 -87 0
-1237 1236 90 0
-1237 -1236 -90 0
1237 -1236 90 0
1237 1236 -90 0
-1238 1237 91 0
-1238 -1237 -91 0
1238 -1237 91 0
1238 1237 -91 0
-1239 1238 92 0
-1239 -1238 -92 0
1239 -1238 92 0
1239 1238 -92 0
-1240 1239 94 0
-1240 -1239 -94 0
1240 -1239 94 0
1240 1239 -94 0
-1241 1240 96 0
-1241 -1240 -96 0
1241 -1240 96 0
1241 1240 -96 0
-1242 1241 97 0
-1242 -1241 -97 0
1242 -1241 97 0
1242 1241 -97 0
-1243 1242 98 0
-1243 -1242 -98 0
1243 -1242 98 0
1243 1242 -98 0
-1244 1243 99 0
-1244 -1243 -99 0
1244 -1243 99 0
1244 1243 -99 0
-1245 1244 102 0
-1245 -1244 -102 0
1245 -1244 102 0
1245 1244 -102 0
-1246 1245 106 0
-1246 -1245 -106 0
1246 -1245 106 0
1246 1245 -106 0
-1247 1246 126 0
-1247 -1246 -126 0
1247 -1246 126 0
1247 1246 -126 0
-1248 1247 162 0
-1248 -1247 -162 0
1248 -1247 162 0
1248 1247 -162 0
-1249 1248 163 0
-1249 -1248 -163 0
1249 -1248 163 0
1249 1248 -163 0
-1250 1249 165 0
-1250 -1249 -165 0
1250 -1249 165 0
1250 1249 -165 0
-1251 1250 166 0
-1251 -1250 -166 0
1251 -1250 166 0
1251 1250 -166 0
-1252 1251 167 0
-1252 -1251 -167 0
1252 -1251 167 0
1252 1251 -167 0
-1253 1252 168 0
-1253 -1252 -168 0
1253 -1252 168 0
1253 1252 -168 0
-1254 1253 169 0
-1254 -1253 -169 0
1254 -1253 169 0
1254 1253 -169 0
-1255 1254 171 0
-1255 -1254 -171 0
1255 -1254 171 0
1255 1254 -171 0
-1256 1255 173 0
-1256 -1255 -173 0
1256 -1255 173 0
1256 1255 -173 0
-1257 1256 174 0
-1257 -1256 -174 0
1257 -1256 174 0
1257 1256 -174 0
-1258 1257 175 0
-1258 -1257 -175 0
1258 -1257 175 0
1258 1257 -175 0
-1259 1258 179 0
-1259 -1258 -179 0
1259 -1258 179 0
1259 1258 -179 0
-1260 1259 182 0
-1260 -1259 -182 0
1260 -1259 182 0
1260 1259 -182 0
-1261 1260 184 0
-1261 -1260 -184 0
1261 -1260 184 0
1261 1260 -184 0
-1262 1261 185 0
-1262 -1261 -185 0
1262 -1261 185 0
1262 1261 -185 0
-1263 1262 187 0
-1263 -1262 -187 0
1263 -1262 187 0
1263 1262 -187 0
-1264 1263 191 0
-1264 -1263 -191 0
1264 -1263 191 0
1264 1263 -191 0
-1265 1264 192 0
-1265 -1264 -192 0
1265 -1264 192 0
1265 1264 -192 0
-1266 1265 193 0
-1266 -1265 -193 0
1266 -1265 193 0
1266 1265 -193 0
-1267 1266 194 0
-1267 -1266 -194 0
1267 -1266 194 0
1267 1266 -194 0
-1268 1267 197 0
-1268 -1267 -197 0
1268 -1267 197 0
1268 1267 -197 0
-1269 1268 199 0
-1269 -1268 -199 0
1269 -1268 199 0
1269 1268 -199 0
-1270 1269 200 0
-1270 -1269 -200 0
1270 -1269 200 0
1270 1269 -200 0
-1271 1270 201 0
-1271 -1270 -201 0
1271 -1270 201 0
1271 1270 -201 0
-1272 1271 204 0
-1272 -1271 -204 0
1272 -1271 204 0
1272 1271 -204 0
-1273 1272 207 0
-1273 -1272 -207 0
1273 -1272 207 0
1273 1272 -207 0
-1274 1273 212 0
-1274 -1273 -212 0
1274 -1273 212 0
1274 1273 -212 0
-1274 0
-1275 54 59 0
-1275 -54 -59 0
1275 -54 59 0
1275 54 -59 0
-1276 1275 61 0
-1276 -1275 -61 0
1276 -1275 61 0
1276 1275 -61 0
-1277 1276 63 0
-1277 -1276 -63 0
1277 -1276 63 0
1277 1276 -63 0
-1278 1277 66 0
-1278 -1277 -66 0
1278 -1277 66 0
1278 1277 -66 0
-1279 1278 68 0
-1279 -1278 -68 0
1279 -1278 68 0
1279 1278 -68 0
-1280 1279 69 0
-1280 -1279 -69 0
1280 -1279 69 0
1280 1279 -69 0
-1281 1280 74 0
-1281 -1280 -74 0
1281 -1280 74 0
1281 1280 -74 0
-1282 1281 75 0
-1282 -1281 -75 0
1282 -1281 75 0
1282 1281 -75 0
-1283 1282 78 0
-1283 -1282 -78 0
1283 -1282 78 0
1283 1282 -78 0
-1284 1283 79 0
-1284 -1283 -79 0
1284 -1283 79 0
1284 1283 -79 0
-1285 1284 81 0
-1285 -1284 -81 0
1285 -1284 81 0
1285 1284 -81 0
-1286 1285 82 0
-1286 -1285 -82 0
1286 -1285 82 0
1286 1285 -82 0
-1287 1286 85 0
-1287 -1286 -85 0
1287 -1286 85 0
1287 1286 -85 0
-1288 1287 90 0
-1288 -1287 -90 0
1288 -1287 90 0
1288 1287 -90 0
-1289 1288 93 0
-1289 -1288 -93 0
1289 -1288 93 0
1289 1288 -93 0
-1290 1289 94 0
-1290 -1289 -94 0
1290 -1289 94 0
1290 1289 -94 0
-1291 1290 95 0
-1291 -1290 -95 0
1291 -1290 95 0
1291 1290 -95 0
-1292 1291 96 0
-1292 -1291 -96 0
1292 -1291 96 0
1292 1291 -96 0
-1293 1292 97 0
-1293 -1292 -97 0
1293 -1292 97 0
1293 1292 -97 0
-1294 1293 100 0
-1294 -1293 -100 0
1294 -1293 100 0
1294 1293 -100 0
-1295 1294 101 0
-1295 -1294 -101 0
1295 -1294 101 0
1295 1294 -101 0
-1296 1295 107 0
-1296 -1295 -107 0
1296 -1295 107 0
1296 1295 -107 0
-1297 1296 108 0
-1297 -1296 -108 0
1297 -1296 108 0
1297 1296 -108 0
-1298 1297 127 0
-1298 -1297 -127 0
1298 -1297 127 0
1298 1297 -127 0
-1299 1298 162 0
-1299 -1298 -162 0
1299 -1298 162 0
1299 1298 -162 0
-1300 1299 163 0
-1300 -1299 -163 0
1300 -1299 163 0
1300 1299 -163 0
-1301 1300 165 0
-1301 -1300 -165 0
1301 -1300 165 0
1301 1300 -165 0
-1302 1301 166 0
-1302 -1301 -166 0
1302 -1301 166 0
1302 1301 -166 0
-1303 1302 168 0
-1303 -1302 -168 0
1303 -1302 168 0
1303 1302 -168 0
-1304 1303 172 0
-1304 -1303 -172 0
1304 -1303 172 0
1304 1303 -172 0
-1305 1304 175 0
-1305 -1304 -175 0
1305 -1304 175 0
1305 1304 -175 0
-1306 1305 178 0
-1306 -1305 -178 0
1306 -1305 178 0
1306 1305 -178 0
-1307 1306 180 0
-1307 -1306 -180 0
1307 -1306 180 0
1307 1306 -180 0
-1308 1307 181 0
-1308 -1307 -181 0
1308 -1307 181 0
1308 1307 -181 0
-1309 1308 182 0
-1309 -1308 -182 0
1309 -1308 182 0
1309 1308 -182 0
-1310 1309 185 0
-1310 -1309 -185 0
1310 -1309 185 0
1310 1309 -185 0
-1311 1310 186 0
-1311 -1310 -186 0
1311 -1310 186 0
1311 1310 -186 0
-1312 1311 188 0
-1312 -1311 -188 0
1312 -1311 188 0
1312 1311 -188 0
-1313 1312 193 0
-1313 -1312 -193 0
1313 -1312 193 0
1313 1312 -193 0
-1314 1313 197 0
-1314 -1313 -197 0
1314 -1313 197 0
1314 1313 -197 0
-1315 1314 200 0
-1315 -1314 -200 0
1315 -1314 200 0
1315 1314 -200 0
-1316 1315 201 0
-1316 -1315 -201 0
1316 -1315 201 0
1316 1315 -201 0
-1317 1316 203 0
-1317 -1316 -203 0
1317 -1316 203 0
1317 1316 -203 0
-1318 1317 204 0
-1318 -1317 -204 0
1318 -1317 204 0
1318 1317 -204 0
-1319 1318 206 0
-1319 -1318 -206 0
1319 -1318 206 0
1319 1318 -206 0
-1320 1319 209 0
-1320 -1319 -209 0
1320 -1319 209 0
1320 1319 -209 0
-1321 1320 210 0
-1321 -1320 -210 0
1321 -1320 210 0
1321 1320 -210 0
-1322 1321 215 0
-1322 -1321 -215 0
1322 -1321 215 0
1322 1321 -215 0
-1323 1322 216 0
-1323 -1322 -216 0
1323 -1322 216 0
1323 1322 -216 0
-1323 0
-1324 53 58 0
-1324 -53 -58 0
1324 -53 58 0
1324 53 -58 0
-1325 1324 60 0
-1325 -1324 -60 0
1325 -1324 60 0
1325 1324 -60 0
-1326 1325 63 0
-1326 -1325 -63 0
1326 -1325 63 0
1326 1325 -63 0
-1327 1326 66 0
-1327 -1326 -66 0
1327 -1326 66 0
1327 1326 -66 0
-1328 1327 67 0
-1328 -1327 -67 0
1328 -1327 67 0
1328 1327 -67 0
-1329 1328 68 0
-1329 -1328 -68 0
1329 -1328 68 0
1329 1328 -68 0
-1330 1329 69 0
-1330 -1329 -69 0
1330 -1329 69 0
1330 1329 -69 0
-1331 1330 70 0
-1331 -1330 -70 0
1331 -1330 70 0
1331 1330 -70 0
-1332 1331 73 0
-1332 -1331 -73 0
1332 -1331 73 0
1332 1331 -73 0
-1333 1332 75 0
-1333 -1332 -75 0
1333 -1332 75 0
1333 1332 -75 0
-1334 1333 76 0
-1334 -1333 -76 0
1334 -1333 76 0
1334 1333 -76 0
-1335 1334 77 0
-1335 -1334 -77 0
1335 -1334 77 0
1335 1334 -77 0
-1336 1335 78 0
-1336 -1335 -78 0
1336 -1335 78 0
1336 1335 -78 0
-1337 1336 81 0
-1337 -1336 -81 0
1337 -1336 81 0
1337 1336 -81 0
-1338 1337 85 0
-1338 -1337 -85 0
1338 -1337 85 0
1338 1337 -85 0
-1339 1338 86 0
-1339 -1338 -86 0
1339 -1338 86 0
1339 1338 -86 0
-1340 1339 88 0
-1340 -1339 -88 0
1340 -1339 88 0
1340 1339 -88 0
-1341 1340 89 0
-1341 -1340 -89 0
1341 -1340 89 0
1341 1340 -89 0
-1342 1341 91 0
-1342 -1341 -91 0
1342 -1341 91 0
1342 1341 -91 0
-1343 1342 92 0
-1343 -1342 -92 0
1343 -1342 92 0
1343 1342 -92 0
-1344 1343 93 0
-1344 -1343 -93 0
1344 -1343 93 0
1344 1343 -93 0
-1345 1344 96 0
-1345 -1344 -96 0
1345 -1344 96 0
1345 1344 -96 0
-1346 1345 97 0
-1346 -1345 -97 0
1346 -1345 97 0
1346 1345 -97 0
-1347 1346 99 0
-1347 -1346 -99 0
1347 -1346 99 0
1347 1346 -99 0
-1348 1347 101 0
-1348 -1347 -101 0
1348 -1347 101 0
1348 1347 -101 0
-1349 1348 105 0
-1349 -1348 -105 0
1349 -1348 105 0
1349 1348 -105 0
-1350 1349 107 0
-1350 -1349 -107 0
1350 -1349 107 0
1350 1349 -107 0
-1351 1350 108 0
-1351 -1350 -108 0
1351 -1350 108 0
1351 1350 -108 0
-1352 1351 128 0
-1352 -1351 -128 0
1352 -1351 128 0
1352 1351 -128 0
-1353 1352 161 0
-1353 -1352 -161 0
1353 -1352 161 0
1353 1352 -161 0
-1354 1353 162 0
-1354 -1353 -162 0
1354 -1353 162 0
1354 1353 -162 0
-1355 1354 165 0
-1355 -1354 -165 0
1355 -1354 165 0
1355 1354 -165 0
-1356 1355 168 0
-1356 -1355 -168 0
1356 -1355 168 0
1356 1355 -168 0
-1357 1356 170 0
-1357 -1356 -170 0
1357 -1356 170 0
1357 1356 -170 0
-1358 1357 179 0
-1358 -1357 -179 0
1358 -1357 179 0
1358 1357 -179 0
-1359 1358 180 0
-1359 -1358 -180 0
1359 -1358 180 0
1359 1358 -180 0
-1360 1359 181 0
-1360 -1359 -181 0
1360 -1359 181 0
1360 1359 -181 0
-1361 1360 182 0
-1361 -1360 -182 0
1361 -1360 182 0
1361 1360 -182 0
-1362 1361 184 0
-1362 -1361 -184 0
1362 -1361 184 0
1362 1361 -184 0
-1363 1362 185 0
-1363 -1362 -185 0
1363 -1362 185 0
1363 1362 -185 0
-1364 1363 186 0
-1364 -1363 -186 0
1364 -1363 186 0
1364 1363 -186 0
-1365 1364 189 0
-1365 -1364 -189 0
1365 -1364 189 0
1365 1364 -189 0
-1366 1365 190 0
-1366 -1365 -190 0
1366 -1365 190 0
1366 1365 -190 0
-1367 1366 191 0
-1367 -1366 -191 0
1367 -1366 191 0
1367 1366 -191 0
-1368 1367 192 0
-1368 -1367 -192 0
1368 -1367 192 0
1368 1367 -192 0
-1369 1368 193 0
-1369 -1368 -193 0
1369 -1368 193 0
1369 1368 -193 0
-1370 1369 195 0
-1370 -1369 -195 0
1370 -1369 195 0
1370 1369 -195 0
-1371 1370 196 0
-1371 -1370 -196 0
1371 -1370 196 0
1371 1370 -196 0
-1372 1371 197 0
-1372 -1371 -197 0
1372 -1371 197 0
1372 1371 -197 0
-1373 1372 200 0
-1373 -1372 -200 0
1373 -1372 200 0
1373 1372 -200 0
-1374 1373 202 0
-1374 -1373 -202 0
1374 -1373 202 0
1374 1373 -202 0
-1375 1374 204 0
-1375 -1374 -204 0
1375 -1374 204 0
1375 1374 -204 0
-1376 1375 205 0
-1376 -1375 -205 0
1376 -1375 205 0
1376 1375 -205 0
-1377 1376 206 0
-1377 -1376 -206 0
1377 -1376 206 0
1377 1376 -206 0
-1378 1377 209 0
-1378 -1377 -209 0
1378 -1377 209 0
1378 1377 -209 0
-1379 1378 211 0
-1379 -1378 -211 0
1379 -1378 211 0
1379 1378 -211 0
-1380 1379 214 0
-1380 -1379 -214 0
1380 -1379 214 0
1380 1379 -214 0
-1381 1380 215 0
-1381 -1380 -215 0
1381 -1380 215 0
1381 1380 -215 0
-1381 0
-1382 57 59 0
-1382 -57 -59 0
1382 -57 59 0
1382 57 -59 0
-1383 1382 60 0
-1383 -1382 -60 0
1383 -1382 60 0
1383 1382 -60 0
-1384 1383 61 0
-1384 -1383 -61 0
1384 -1383 61 0
1384 1383 -61 0
-1385 1384 63 0
-1385 -1384 -63 0
1385 -1384 63 0
1385 1384 -63 0
-1386 1385 64 0
-1386 -1385 -64 0
1386 -1385 64 0
1386 1385 -64 0
-1387 1386 65 0
-1387 -1386 -65 0
1387 -1386 65 0
1387 1386 -65 0
-1388 1387 66 0
-1388 -1387 -66 0
1388 -1387 66 0
1388 1387 -66 0
-1389 1388 67 0
-1389 -1388 -67 0
1389 -1388 67 0
1389 1388 -67 0
-1390 1389 68 0
-1390 -1389 -68 0
1390 -1389 68 0
1390 1389 -68 0
-1391 1390 70 0
-1391 -1390 -70 0
1391 -1390 70 0
1391 1390 -70 0
-1392 1391 72 0
-1392 -1391 -72 0
1392 -1391 72 0
1392 1391 -72 0
-1393 1392 74 0
-1393 -1392 -74 0
1393 -1392 74 0
1393 1392 -74 0
-1394 1393 75 0
-1394 -1393 -75 0
1394 -1393 75 0
1394 1393 -75 0
-1395 1394 78 0
-1395 -1394 -78 0
1395 -1394 78 0
1395 1394 -78 0
-1396 1395 80 0
-1396 -1395 -80 0
1396 -1395 80 0
1396 1395 -80 0
-1397 1396 83 0
-1397 -1396 -83 0
1397 -1396 83 0
1397 1396 -83 0
-1398 1397 84 0
-1398 -1397 -84 0
1398 -1397 84 0
1398 1397 -84 0
-1399 1398 85 0
-1399 -1398 -85 0
1399 -1398 85 0
1399 1398 -85 0
-1400 1399 87 0
-1400 -1399 -87 0
1400 -1399 87 0
1400 1399 -87 0
-1401 1400 88 0
-1401 -1400 -88 0
1401 -1400 88 0
1401 1400 -88 0
-1402 1401 94 0
-1402 -1401 -94 0
1402 -1401 94 0
1402 1401 -94 0
-1403 1402 95 0
-1403 -1402 -95 0
1403 -1402 95 0
1403 1402 -95 0
-1404 1403 97 0
-1404 -1403 -97 0
1404 -1403 97 0
1404 1403 -97 0
-1405 1404 99 0
-1405 -1404 -99 0
1405 -1404 99 0
1405 1404 -99 0
-1406 1405 101 0
-1406 -1405 -101 0
1406 -1405 101 0
1406 1405 -101 0
-1407 1406 102 0
-1407 -1406 -102 0
1407 -1406 102 0
1407 1406 -102 0
-1408 1407 103 0
-1408 -1407 -103 0
1408 -1407 103 0
1408 1407 -103 0
-1409 1408 104 0
-1409 -1408 -104 0
1409 -1408 104 0
1409 1408 -104 0
-1410 1409 106 0
-1410 -1409 -106 0
1410 -1409 106 0
1410 1409 -106 0
-1411 1410 107 0
-1411 -1410 -107 0
1411 -1410 107 0
1411 1410 -107 0
-1412 1411 108 0
-1412 -1411 -108 0
1412 -1411 108 0
1412 1411 -108 0
-1413 1412 129 0
-1413 -1412 -129 0
1413 -1412 129 0
1413 1412 -129 0
-1414 1413 161 0
-1414 -1413 -161 0
1414 -1413 161 0
1414 1413 -161 0
-1415 1414 164 0
-1415 -1414 -164 0
1415 -1414 164 0
1415 1414 -164 0
-1416 1415 165 0
-1416 -1415 -165 0
1416 -1415 165 0
1416 1415 -165 0
-1417 1416 167 0
-1417 -1416 -167 0
1417 -1416 167 0
1417 1416 -167 0
-1418 1417 168 0
-1418 -1417 -168 0
1418 -1417 168 0
1418 1417 -168 0
-1419 1418 170 0
-1419 -1418 -170 0
1419 -1418 170 0
1419 1418 -170 0
-1420 1419 171 0
-1420 -1419 -171 0
1420 -1419 171 0
1420 1419 -171 0
-1421 1420 173 0
-1421 -1420 -173 0
1421 -1420 173 0
1421 1420 -173 0
-1422 1421 176 0
-1422 -1421 -176 0
1422 -1421 176 0
1422 1421 -176 0
-1423 1422 181 0
-1423 -1422 -181 0
1423 -1422 181 0
1423 1422 -181 0
-1424 1423 182 0
-1424 -1423 -182 0
1424 -1423 182 0
1424 1423 -182 0
-1425 1424 184 0
-1425 -1424 -184 0
1425 -1424 184 0
1425 1424 -184 0
-1426 1425 186 0
-1426 -1425 -186 0
1426 -1425 186 0
1426 1425 -186 0
-1427 1426 187 0
-1427 -1426 -187 0
1427 -1426 187 0
1427 1426 -187 0
-1428 1427 193 0
-1428 -1427 -193 0
1428 -1427 193 0
1428 1427 -193 0
-1429 1428 195 0
-1429 -1428 -195 0
1429 -1428 195 0
1429 1428 -195 0
-1430 1429 200 0
-1430 -1429 -200 0
1430 -1429 200 0
1430 1429 -200 0
-1431 1430 203 0
-1431 -1430 -203 0
1431 -1430 203 0
1431 1430 -203 0
-1432 1431 209 0
-1432 -1431 -209 0
1432 -1431 209 0
1432 1431 -209 0
-1433 1432 212 0
-1433 -1432 -212 0
1433 -1432 212 0
1433 1432 -212 0
-1434 1433 214 0
-1434 -1433 -214 0
1434 -1433 214 0
1434 1433 -214 0
-1434 0
-1435 57 66 0
-1435 -57 -66 0
1435 -57 66 0
1435 57 -66 0
-1436 1435 67 0
-1436 -1435 -67 0
1436 -1435 67 0
1436 1435 -67 0
-1437 1436 72 0
-1437 -1436 -72 0
1437 -1436 72 0
1437 1436 -72 0
-1438 1437 78 0
-1438 -1437 -78 0
1438 -1437 78 0
1438 1437 -78 0
-1439 1438 80 0
-1439 -1438 -80 0
1439 -1438 80 0
1439 1438 -80 0
-1440 1439 81 0
-1440 -1439 -81 0
1440 -1439 81 0
1440 1439 -81 0
-1441 1440 82 0
-1441 -1440 -82 0
1441 -1440 82 0
1441 1440 -82 0
-1442 1441 83 0
-1442 -1441 -83 0
1442 -1441 83 0
1442 1441 -83 0
-1443 1442 84 0
-1443 -1442 -84 0
1443 -1442 84 0
1443 1442 -84 0
-1444 1443 87 0
-1444 -1443 -87 0
1444 -1443 87 0
1444 1443 -87 0
-1445 1444 88 0
-1445 -1444 -88 0
1445 -1444 88 0
1445 1444 -88 0
-1446 1445 90 0
-1446 -1445 -90 0
1446 -1445 90 0
1446 1445 -90 0
-1447 1446 91 0
-1447 -1446 -91 0
1447 -1446 91 0
1447 1446 -91 0
-1448 1447 93 0
-1448 -1447 -93 0
1448 -1447 93 0
1448 1447 -93 0
-1449 1448 94 0
-1449 -1448 -94 0
1449 -1448 94 0
1449 1448 -94 0
-1450 1449 95 0
-1450 -1449 -95 0
1450 -1449 95 0
1450 1449 -95 0
-1451 1450 101 0
-1451 -1450 -101 0
1451 -1450 101 0
1451 1450 -101 0
-1452 1451 102 0
-1452 -1451 -102 0
1452 -1451 102 0
1452 1451 -102 0
-1453 1452 103 0
-1453 -1452 -103 0
1453 -1452 103 0
1453 1452 -103 0
-1454 1453 130 0
-1454 -1453 -130 0
1454 -1453 130 0
1454 1453 -130 0
-1455 1454 162 0
-1455 -1454 -162 0
1455 -1454 162 0
1455 1454 -162 0
-1456 1455 163 0
-1456 -1455 -163 0
1456 -1455 163 0
1456 1455 -163 0
-1457 1456 165 0
-1457 -1456 -165 0
1457 -1456 165 0
1457 1456 -165 0
-1458 1457 166 0
-1458 -1457 -166 0
1458 -1457 166 0
1458 1457 -166 0
-1459 1458 168 0
-1459 -1458 -168 0
1459 -1458 168 0
1459 1458 -168 0
-1460 1459 171 0
-1460 -1459 -171 0
1460 -1459 171 0
1460 1459 -171 0
-1461 1460 172 0
-1461 -1460 -172 0
1461 -1460 172 0
1461 1460 -172 0
-1462 1461 174 0
-1462 -1461 -174 0
1462 -1461 174 0
1462 1461 -174 0
-1463 1462 177 0
-1463 -1462 -177 0
1463 -1462 177 0
1463 1462 -177 0
-1464 1463 181 0
-1464 -1463 -181 0
1464 -1463 181 0
1464 1463 -181 0
-1465 1464 182 0
-1465 -1464 -182 0
1465 -1464 182 0
1465 1464 -182 0
-1466 1465 183 0
-1466 -1465 -183 0
1466 -1465 183 0
1466 1465 -183 0
-1467 1466 185 0
-1467 -1466 -185 0
1467 -1466 185 0
1467 1466 -185 0
-1468 1467 188 0
-1468 -1467 -188 0
1468 -1467 188 0
1468 1467 -188 0
-1469 1468 194 0
-1469 -1468 -194 0
1469 -1468 194 0
1469 1468 -194 0
-1470 1469 196 0
-1470 -1469 -196 0
1470 -1469 196 0
1470 1469 -196 0
-1471 1470 201 0
-1471 -1470 -201 0
1471 -1470 201 0
1471 1470 -201 0
-1472 1471 204 0
-1472 -1471 -204 0
1472 -1471 204 0
1472 1471 -204 0
-1473 1472 210 0
-1473 -1472 -210 0
1473 -1472 210 0
1473 1472 -210 0
-1474 1473 213 0
-1474 -1473 -213 0
1474 -1473 213 0
1474 1473 -213 0
-1475 1474 215 0
-1475 -1474 -215 0
1475 -1474 215 0
1475 1474 -215 0
-1475 0
-1476 54 62 0
-1476 -54 -62 0
1476 -54 62 0
1476 54 -62 0
-1477 1476 63 0
-1477 -1476 -63 0
1477 -1476 63 0
1477 1476 -63 0
-1478 1477 64 0
-1478 -1477 -64 0
1478 -1477 64 0
1478 1477 -64 0
-1479 1478 66 0
-1479 -1478 -66 0
1479 -1478 66 0
1479 1478 -66 0
-1480 1479 73 0
-1480 -1479 -73 0
1480 -1479 73 0
1480 1479 -73 0
-1481 1480 77 0
-1481 -1480 -77 0
1481 -1480 77 0
1481 1480 -77 0
-1482 1481 78 0
-1482 -1481 -78 0
1482 -1481 78 0
1482 1481 -78 0
-1483 1482 81 0
-1483 -1482 -81 0
1483 -1482 81 0
1483 1482 -81 0
-1484 1483 82 0
-1484 -1483 -82 0
1484 -1483 82 0
1484 1483 -82 0
-1485 1484 83 0
-1485 -1484 -83 0
1485 -1484 83 0
1485 1484 -83 0
-1486 1485 87 0
-1486 -1485 -87 0
1486 -1485 87 0
1486 1485 -87 0
-1487 1486 89 0
-1487 -1486 -89 0
1487 -1486 89 0
1487 1486 -89 0
-1488 1487 97 0
-1488 -1487 -97 0
1488 -1487 97 0
1488 1487 -97 0
-1489 1488 99 0
-1489 -1488 -99 0
1489 -1488 99 0
1489 1488 -99 0
-1490 1489 102 0
-1490 -1489 -102 0
1490 -1489 102 0
1490 1489 -102 0
-1491 1490 104 0
-1491 -1490 -104 0
1491 -1490 104 0
1491 1490 -104 0
-1492 1491 105 0
-1492 -1491 -105 0
1492 -1491 105 0
1492 1491 -105 0
-1493 1492 108 0
-1493 -1492 -108 0
1493 -1492 108 0
1493 1492 -108 0
-1494 1493 131 0
-1494 -1493 -131 0
1494 -1493 131 0
1494 1493 -131 0
-1495 1494 161 0
-1495 -1494 -161 0
1495 -1494 161 0
1495 1494 -161 0
-1496 1495 162 0
-1496 -1495 -162 0
1496 -1495 162 0
1496 1495 -162 0
-1497 1496 165 0
-1497 -1496 -165 0
1497 -1496 165 0
1497 1496 -165 0
-1498 1497 168 0
-1498 -1497 -168 0
1498 -1497 168 0
1498 1497 -168 0
-1499 1498 169 0
-1499 -1498 -169 0
1499 -1498 169 0
1499 1498 -169 0
-1500 1499 170 0
-1500 -1499 -170 0
1500 -1499 170 0
1500 1499 -170 0
-1501 1500 172 0
-1501 -1500 -172 0
1501 -1500 172 0
1501 1500 -172 0
-1502 1501 175 0
-1502 -1501 -175 0
1502 -1501 175 0
1502 1501 -175 0
-1503 1502 176 0
-1503 -1502 -176 0
1503 -1502 176 0
1503 1502 -176 0
-1504 1503 178 0
-1504 -1503 -178 0
1504 -1503 178 0
1504 1503 -178 0
-1505 1504 180 0
-1505 -1504 -180 0
1505 -1504 180 0
1505 1504 -180 0
-1506 1505 182 0
-1506 -1505 -182 0
1506 -1505 182 0
1506 1505 -182 0
-1507 1506 185 0
-1507 -1506 -185 0
1507 -1506 185 0
1507 1506 -185 0
-1508 1507 186 0
-1508 -1507 -186 0
1508 -1507 186 0
1508 1507 -186 0
-1509 1508 189 0
-1509 -1508 -189 0
1509 -1508 189 0
1509 1508 -189 0
-1510 1509 190 0
-1510 -1509 -190 0
1510 -1509 190 0
1510 1509 -190 0
-1511 1510 191 0
-1511 -1510 -191 0
1511 -1510 191 0
1511 1510 -191 0
-1512 1511 192 0
-1512 -1511 -192 0
1512 -1511 192 0
1512 1511 -192 0
-1513 1512 193 0
-1513 -1512 -193 0
1513 -1512 193 0
1513 1512 -193 0
-1514 1513 194 0
-1514 -1513 -194 0
1514 -1513 194 0
1514 1513 -194 0
-1515 1514 196 0
-1515 -1514 -196 0
1515 -1514 196 0
1515 1514 -196 0
-1516 1515 198 0
-1516 -1515 -198 0
1516 -1515 198 0
1516 1515 -198 0
-1517 1516 200 0
-1517 -1516 -200 0
1517 -1516 200 0
1517 1516 -200 0
-1518 1517 201 0
-1518 -1517 -201 0
1518 -1517 201 0
1518 1517 -201 0
-1519 1518 202 0
-1519 -1518 -202 0
1519 -1518 202 0
1519 1518 -202 0
-1520 1519 205 0
-1520 -1519 -205 0
1520 -1519 205 0
1520 1519 -205 0
-1521 1520 206 0
-1521 -1520 -206 0
1521 -1520 206 0
1521 1520 -206 0
-1522 1521 207 0
-1522 -1521 -207 0
1522 -1521 207 0
1522 1521 -207 0
-1523 1522 209 0
-1523 -1522 -209 0
1523 -1522 209 0
1523 1522 -209 0
-1524 1523 210 0
-1524 -1523 -210 0
1524 -1523 210 0
1524 1523 -210 0
-1525 1524 215 0
-1525 -1524 -215 0
1525 -1524 215 0
1525 1524 -215 0
-1525 0
-1526 53 58 0
-1526 -53 -58 0
1526 -53 58 0
1526 53 -58 0
-1527 1526 62 0
-1527 -1526 -62 0
1527 -1526 62 0
1527 1526 -62 0
-1528 1527 65 0
-1528 -1527 -65 0
1528 -1527 65 0
1528 1527 -65 0
-1529 1528 66 0
-1529 -1528 -66 0
1529 -1528 66 0
1529 1528 -66 0
-1530 1529 67 0
-1530 -1529 -67 0
1530 -1529 67 0
1530 1529 -67 0
-1531 1530 68 0
-1531 -1530 -68 0
1531 -1530 68 0
1531 1530 -68 0
-1532 1531 73 0
-1532 -1531 -73 0
1532 -1531 73 0
1532 1531 -73 0
-1533 1532 74 0
-1533 -1532 -74 0
1533 -1532 74 0
1533 1532 -74 0
-1534 1533 77 0
-1534 -1533 -77 0
1534 -1533 77 0
1534 1533 -77 0
-1535 1534 80 0
-1535 -1534 -80 0
1535 -1534 80 0
1535 1534 -80 0
-1536 1535 81 0
-1536 -1535 -81 0
1536 -1535 81 0
1536 1535 -81 0
-1537 1536 84 0
-1537 -1536 -84 0
1537 -1536 84 0
1537 1536 -84 0
-1538 1537 89 0
-1538 -1537 -89 0
1538 -1537 89 0
1538 1537 -89 0
-1539 1538 90 0
-1539 -1538 -90 0
1539 -1538 90 0
1539 1538 -90 0
-1540 1539 92 0
-1540 -1539 -92 0
1540 -1539 92 0
1540 1539 -92 0
-1541 1540 93 0
-1541 -1540 -93 0
1541 -1540 93 0
1541 1540 -93 0
-1542 1541 94 0
-1542 -1541 -94 0
1542 -1541 94 0
1542 1541 -94 0
-1543 1542 95 0
-1543 -1542 -95 0
1543 -1542 95 0
1543 1542 -95 0
-1544 1543 99 0
-1544 -1543 -99 0
1544 -1543 99 0
1544 1543 -99 0
-1545 1544 100 0
-1545 -1544 -100 0
1545 -1544 100 0
1545 1544 -100 0
-1546 1545 102 0
-1546 -1545 -102 0
1546 -1545 102 0
1546 1545 -102 0
-1547 1546 106 0
-1547 -1546 -106 0
1547 -1546 106 0
1547 1546 -106 0
-1548 1547 107 0
-1548 -1547 -107 0
1548 -1547 107 0
1548 1547 -107 0
-1549 1548 132 0
-1549 -1548 -132 0
1549 -1548 132 0
1549 1548 -132 0
-1550 1549 161 0
-1550 -1549 -161 0
1550 -1549 161 0
1550 1549 -161 0
-1551 1550 164 0
-1551 -1550 -164 0
1551 -1550 164 0
1551 1550 -164 0
-1552 1551 165 0
-1552 -1551 -165 0
1552 -1551 165 0
1552 1551 -165 0
-1553 1552 167 0
-1553 -1552 -167 0
1553 -1552 167 0
1553 1552 -167 0
-1554 1553 168 0
-1554 -1553 -168 0
1554 -1553 168 0
1554 1553 -168 0
-1555 1554 171 0
-1555 -1554 -171 0
1555 -1554 171 0
1555 1554 -171 0
-1556 1555 177 0
-1556 -1555 -177 0
1556 -1555 177 0
1556 1555 -177 0
-1557 1556 179 0
-1557 -1556 -179 0
1557 -1556 179 0
1557 1556 -179 0
-1558 1557 180 0
-1558 -1557 -180 0
1558 -1557 180 0
1558 1557 -180 0
-1559 1558 181 0
-1559 -1558 -181 0
1559 -1558 181 0
1559 1558 -181 0
-1560 1559 184 0
-1560 -1559 -184 0
1560 -1559 184 0
1560 1559 -184 0
-1561 1560 185 0
-1561 -1560 -185 0
1561 -1560 185 0
1561 1560 -185 0
-1562 1561 186 0
-1562 -1561 -186 0
1562 -1561 186 0
1562 1561 -186 0
-1563 1562 187 0
-1563 -1562 -187 0
1563 -1562 187 0
1563 1562 -187 0
-1564 1563 196 0
-1564 -1563 -196 0
1564 -1563 196 0
1564 1563 -196 0
-1565 1564 198 0
-1565 -1564 -198 0
1565 -1564 198 0
1565 1564 -198 0
-1566 1565 199 0
-1566 -1565 -199 0
1566 -1565 199 0
1566 1565 -199 0
-1567 1566 200 0
-1567 -1566 -200 0
1567 -1566 200 0
1567 1566 -200 0
-1568 1567 202 0
-1568 -1567 -202 0
1568 -1567 202 0
1568 1567 -202 0
-1569 1568 203 0
-1569 -1568 -203 0
1569 -1568 203 0
1569 1568 -203 0
-1570 1569 205 0
-1570 -1569 -205 0
1570 -1569 205 0
1570 1569 -205 0
-1571 1570 208 0
-1571 -1570 -208 0
1571 -1570 208 0
1571 1570 -208 0
-1572 1571 209 0
-1572 -1571 -209 0
1572 -1571 209 0
1572 1571 -209 0
-1573 1572 214 0
-1573 -1572 -214 0
1573 -1572 214 0
1573 1572 -214 0
-1574 1573 215 0
-1574 -1573 -215 0
1574 -1573 215 0
1574 1573 -215 0
-1574 0
-1575 59 62 0
-1575 -59 -62 0
1575 -59 62 0
1575 59 -62 0
-1576 1575 69 0
-1576 -1575 -69 0
1576 -1575 69 0
1576 1575 -69 0
-1577 1576 70 0
-1577 -1576 -70 0
1577 -1576 70 0
1577 1576 -70 0
-1578 1577 75 0
-1578 -1577 -75 0
1578 -1577 75 0
1578 1577 -75 0
-1579 1578 76 0
-1579 -1578 -76 0
1579 -1578 76 0
1579 1578 -76 0
-1580 1579 79 0
-1580 -1579 -79 0
1580 -1579 79 0
1580 1579 -79 0
-1581 1580 82 0
-1581 -1580 -82 0
1581 -1580 82 0
1581 1580 -82 0
-1582 1581 83 0
-1582 -1581 -83 0
1582 -1581 83 0
1582 1581 -83 0
-1583 1582 86 0
-1583 -1582 -86 0
1583 -1582 86 0
1583 1582 -86 0
-1584 1583 87 0
-1584 -1583 -87 0
1584 -1583 87 0
1584 1583 -87 0
-1585 1584 88 0
-1585 -1584 -88 0
1585 -1584 88 0
1585 1584 -88 0
-1586 1585 89 0
-1586 -1585 -89 0
1586 -1585 89 0
1586 1585 -89 0
-1587 1586 90 0
-1587 -1586 -90 0
1587 -1586 90 0
1587 1586 -90 0
-1588 1587 93 0
-1588 -1587 -93 0
1588 -1587 93 0
1588 1587 -93 0
-1589 1588 94 0
-1589 -1588 -94 0
1589 -1588 94 0
1589 1588 -94 0
-1590 1589 96 0
-1590 -1589 -96 0
1590 -1589 96 0
1590 1589 -96 0
-1591 1590 100 0
-1591 -1590 -100 0
1591 -1590 100 0
1591 1590 -100 0
-1592 1591 101 0
-1592 -1591 -101 0
1592 -1591 101 0
1592 1591 -101 0
-1593 1592 103 0
-1593 -1592 -103 0
1593 -1592 103 0
1593 1592 -103 0
-1594 1593 104 0
-1594 -1593 -104 0
1594 -1593 104 0
1594 1593 -104 0
-1595 1594 105 0
-1595 -1594 -105 0
1595 -1594 105 0
1595 1594 -105 0
-1596 1595 107 0
-1596 -1595 -107 0
1596 -1595 107 0
1596 1595 -107 0
-1597 1596 108 0
-1597 -1596 -108 0
1597 -1596 108 0
1597 1596 -108 0
-1598 1597 133 0
-1598 -1597 -133 0
1598 -1597 133 0
1598 1597 -133 0
-1599 1598 161 0
-1599 -1598 -161 0
1599 -1598 161 0
1599 1598 -161 0
-1600 1599 165 0
-1600 -1599 -165 0
1600 -1599 165 0
1600 1599 -165 0
-1601 1600 171 0
-1601 -1600 -171 0
1601 -1600 171 0
1601 1600 -171 0
-1602 1601 173 0
-1602 -1601 -173 0
1602 -1601 173 0
1602 1601 -173 0
-1603 1602 175 0
-1603 -1602 -175 0
1603 -1602 175 0
1603 1602 -175 0
-1604 1603 178 0
-1604 -1603 -178 0
1604 -1603 178 0
1604 1603 -178 0
-1605 1604 181 0
-1605 -1604 -181 0
1605 -1604 181 0
1605 1604 -181 0
-1606 1605 190 0
-1606 -1605 -190 0
1606 -1605 190 0
1606 1605 -190 0
-1607 1606 192 0
-1607 -1606 -192 0
1607 -1606 192 0
1607 1606 -192 0
-1608 1607 193 0
-1608 -1607 -193 0
1608 -1607 193 0
1608 1607 -193 0
-1609 1608 194 0
-1609 -1608 -194 0
1609 -1608 194 0
1609 1608 -194 0
-1610 1609 196 0
-1610 -1609 -196 0
1610 -1609 196 0
1610 1609 -196 0
-1611 1610 197 0
-1611 -1610 -197 0
1611 -1610 197 0
1611 1610 -197 0
-1612 1611 199 0
-1612 -1611 -199 0
1612 -1611 199 0
1612 1611 -199 0
-1613 1612 202 0
-1613 -1612 -202 0
1613 -1612 202 0
1613 1612 -202 0
-1614 1613 203 0
-1614 -1613 -203 0
1614 -1613 203 0
1614 1613 -203 0
-1615 1614 208 0
-1615 -1614 -208 0
1615 -1614 208 0
1615 1614 -208 0
-1616 1615 212 0
-1616 -1615 -212 0
1616 -1615 212 0
1616 1615 -212 0
-1617 1616 213 0
-1617 -1616 -213 0
1617 -1616 213 0
1617 1616 -213 0
-1618 1617 214 0
-1618 -1617 -214 0
1618 -1617 214 0
1618 1617 -214 0
-1619 1618 216 0
-1619 -1618 -216 0
1619 -1618 216 0
1619 1618 -216 0
-1619 0
-1620 60 63 0
-1620 -60 -63 0
1620 -60 63 0
1620 60 -63 0
-1621 1620 70 0
-1621 -1620 -70 0
1621 -1620 70 0
1621 1620 -70 0
-1622 1621 71 0
-1622 -1621 -71 0
1622 -1621 71 0
1622 1621 -71 0
-1623 1622 76 0
-1623 -1622 -76 0
1623 -1622 76 0
1623 1622 -76 0
-1624 1623 77 0
-1624 -1623 -77 0
1624 -1623 77 0
1624 1623 -77 0
-1625 1624 80 0
-1625 -1624 -80 0
1625 -1624 80 0
1625 1624 -80 0
-1626 1625 83 0
-1626 -1625 -83 0
1626 -1625 83 0
1626 1625 -83 0
-1627 1626 84 0
-1627 -1626 -84 0
1627 -1626 84 0
1627 1626 -84 0
-1628 1627 85 0
-1628 -1627 -85 0
1628 -1627 85 0
1628 1627 -85 0
-1629 1628 87 0
-1629 -1628 -87 0
1629 -1628 87 0
1629 1628 -87 0
-1630 1629 88 0
-1630 -1629 -88 0
1630 -1629 88 0
1630 1629 -88 0
-1631 1630 89 0
-1631 -1630 -89 0
1631 -1630 89 0
1631 1630 -89 0
-1632 1631 90 0
-1632 -1631 -90 0
1632 -1631 90 0
1632 1631 -90 0
-1633 1632 91 0
-1633 -1632 -91 0
1633 -1632 91 0
1633 1632 -91 0
-1634 1633 94 0
-1634 -1633 -94 0
1634 -1633 94 0
1634 1633 -94 0
-1635 1634 95 0
-1635 -1634 -95 0
1635 -1634 95 0
1635 1634 -95 0
-1636 1635 101 0
-1636 -1635 -101 0
1636 -1635 101 0
1636 1635 -101 0
-1637 1636 102 0
-1637 -1636 -102 0
1637 -1636 102 0
1637 1636 -102 0
-1638 1637 103 0
-1638 -1637 -103 0
1638 -1637 103 0
1638 1637 -103 0
-1639 1638 104 0
-1639 -1638 -104 0
1639 -1638 104 0
1639 1638 -104 0
-1640 1639 105 0
-1640 -1639 -105 0
1640 -1639 105 0
1640 1639 -105 0
-1641 1640 106 0
-1641 -1640 -106 0
1641 -1640 106 0
1641 1640 -106 0
-1642 1641 108 0
-1642 -1641 -108 0
1642 -1641 108 0
1642 1641 -108 0
-1643 1642 134 0
-1643 -1642 -134 0
1643 -1642 134 0
1643 1642 -134 0
-1644 1643 162 0
-1644 -1643 -162 0
1644 -1643 162 0
1644 1643 -162 0
-1645 1644 166 0
-1645 -1644 -166 0
1645 -1644 166 0
1645 1644 -166 0
-1646 1645 172 0
-1646 -1645 -172 0
1646 -1645 172 0
1646 1645 -172 0
-1647 1646 174 0
-1647 -1646 -174 0
1647 -1646 174 0
1647 1646 -174 0
-1648 1647 176 0
-1648 -1647 -176 0
1648 -1647 176 0
1648 1647 -176 0
-1649 1648 179 0
-1649 -1648 -179 0
1649 -1648 179 0
1649 1648 -179 0
-1650 1649 182 0
-1650 -1649 -182 0
1650 -1649 182 0
1650 1649 -182 0
-1651 1650 187 0
-1651 -1650 -187 0
1651 -1650 187 0
1651 1650 -187 0
-1652 1651 191 0
-1652 -1651 -191 0
1652 -1651 191 0
1652 1651 -191 0
-1653 1652 194 0
-1653 -1652 -194 0
1653 -1652 194 0
1653 1652 -194 0
-1654 1653 195 0
-1654 -1653 -195 0
1654 -1653 195 0
1654 1653 -195 0
-1655 1654 197 0
-1655 -1654 -197 0
1655 -1654 197 0
1655 1654 -197 0
-1656 1655 198 0
-1656 -1655 -198 0
1656 -1655 198 0
1656 1655 -198 0
-1657 1656 200 0
-1657 -1656 -200 0
1657 -1656 200 0
1657 1656 -200 0
-1658 1657 203 0
-1658 -1657 -203 0
1658 -1657 203 0
1658 1657 -203 0
-1659 1658 204 0
-1659 -1658 -204 0
1659 -1658 204 0
1659 1658 -204 0
-1660 1659 209 0
-1660 -1659 -209 0
1660 -1659 209 0
1660 1659 -209 0
-1661 1660 211 0
-1661 -1660 -211 0
1661 -1660 211 0
1661 1660 -211 0
-1662 1661 213 0
-1662 -1661 -213 0
1662 -1661 213 0
1662 1661 -213 0
-1663 1662 214 0
-1663 -1662 -214 0
1663 -1662 214 0
1663 1662 -214 0
-1664 1663 215 0
-1664 -1663 -215 0
1664 -1663 215 0
1664 1663 -215 0
-1664 0
-1665 54 57 0
-1665 -54 -57 0
1665 -54 57 0
1665 54 -57 0
-1666 1665 60 0
-1666 -1665 -60 0
1666 -1665 60 0
1666 1665 -60 0
-1667 1666 63 0
-1667 -1666 -63 0
1667 -1666 63 0
1667 1666 -63 0
-1668 1667 64 0
-1668 -1667 -64 0
1668 -1667 64 0
1668 1667 -64 0
-1669 1668 65 0
-1669 -1668 -65 0
1669 -1668 65 0
1669 1668 -65 0
-1670 1669 66 0
-1670 -1669 -66 0
1670 -1669 66 0
1670 1669 -66 0
-1671 1670 67 0
-1671 -1670 -67 0
1671 -1670 67 0
1671 1670 -67 0
-1672 1671 69 0
-1672 -1671 -69 0
1672 -1671 69 0
1672 1671 -69 0
-1673 1672 73 0
-1673 -1672 -73 0
1673 -1672 73 0
1673 1672 -73 0
-1674 1673 75 0
-1674 -1673 -75 0
1674 -1673 75 0
1674 1673 -75 0
-1675 1674 76 0
-1675 -1674 -76 0
1675 -1674 76 0
1675 1674 -76 0
-1676 1675 78 0
-1676 -1675 -78 0
1676 -1675 78 0
1676 1675 -78 0
-1677 1676 79 0
-1677 -1676 -79 0
1677 -1676 79 0
1677 1676 -79 0
-1678 1677 80 0
-1678 -1677 -80 0
1678 -1677 80 0
1678 1677 -80 0
-1679 1678 81 0
-1679 -1678 -81 0
1679 -1678 81 0
1679 1678 -81 0
-1680 1679 82 0
-1680 -1679 -82 0
1680 -1679 82 0
1680 1679 -82 0
-1681 1680 83 0
-1681 -1680 -83 0
1681 -1680 83 0
1681 1680 -83 0
-1682 1681 91 0
-1682 -1681 -91 0
1682 -1681 91 0
1682 1681 -91 0
-1683 1682 93 0
-1683 -1682 -93 0
1683 -1682 93 0
1683 1682 -93 0
-1684 1683 96 0
-1684 -1683 -96 0
1684 -1683 96 0
1684 1683 -96 0
-1685 1684 98 0
-1685 -1684 -98 0
1685 -1684 98 0
1685 1684 -98 0
-1686 1685 99 0
-1686 -1685 -99 0
1686 -1685 99 0
1686 1685 -99 0
-1687 1686 100 0
-1687 -1686 -100 0
1687 -1686 100 0
1687 1686 -100 0
-1688 1687 101 0
-1688 -1687 -101 0
1688 -1687 101 0
1688 1687 -101 0
-1689 1688 102 0
-1689 -1688 -102 0
1689 -1688 102 0
1689 1688 -102 0
-1690 1689 103 0
-1690 -1689 -103 0
1690 -1689 103 0
1690 1689 -103 0
-1691 1690 105 0
-1691 -1690 -105 0
1691 -1690 105 0
1691 1690 -105 0
-1692 1691 106 0
-1692 -1691 -106 0
1692 -1691 106 0
1692 1691 -106 0
-1693 1692 135 0
-1693 -1692 -135 0
1693 -1692 135 0
1693 1692 -135 0
-1694 1693 161 0
-1694 -1693 -161 0
1694 -1693 161 0
1694 1693 -161 0
-1695 1694 162 0
-1695 -1694 -162 0
1695 -1694 162 0
1695 1694 -162 0
-1696 1695 163 0
-1696 -1695 -163 0
1696 -1695 163 0
1696 1695 -163 0
-1697 1696 164 0
-1697 -1696 -164 0
1697 -1696 164 0
1697 1696 -164 0
-1698 1697 165 0
-1698 -1697 -165 0
1698 -1697 165 0
1698 1697 -165 0
-1699 1698 166 0
-1699 -1698 -166 0
1699 -1698 166 0
1699 1698 -166 0
-1700 1699 168 0
-1700 -1699 -168 0
1700 -1699 168 0
1700 1699 -168 0
-1701 1700 169 0
-1701 -1700 -169 0
1701 -1700 169 0
1701 1700 -169 0
-1702 1701 170 0
-1702 -1701 -170 0
1702 -1701 170 0
1702 1701 -170 0
-1703 1702 175 0
-1703 -1702 -175 0
1703 -1702 175 0
1703 1702 -175 0
-1704 1703 176 0
-1704 -1703 -176 0
1704 -1703 176 0
1704 1703 -176 0
-1705 1704 177 0
-1705 -1704 -177 0
1705 -1704 177 0
1705 1704 -177 0
-1706 1705 184 0
-1706 -1705 -184 0
1706 -1705 184 0
1706 1705 -184 0
-1707 1706 185 0
-1707 -1706 -185 0
1707 -1706 185 0
1707 1706 -185 0
-1708 1707 188 0
-1708 -1707 -188 0
1708 -1707 188 0
1708 1707 -188 0
-1709 1708 190 0
-1709 -1708 -190 0
1709 -1708 190 0
1709 1708 -190 0
-1710 1709 191 0
-1710 -1709 -191 0
1710 -1709 191 0
1710 1709 -191 0
-1711 1710 194 0
-1711 -1710 -194 0
1711 -1710 194 0
1711 1710 -194 0
-1712 1711 197 0
-1712 -1711 -197 0
1712 -1711 197 0
1712 1711 -197 0
-1713 1712 200 0
-1713 -1712 -200 0
1713 -1712 200 0
1713 1712 -200 0
-1714 1713 204 0
-1714 -1713 -204 0
1714 -1713 204 0
1714 1713 -204 0
-1715 1714 206 0
-1715 -1714 -206 0
1715 -1714 206 0
1715 1714 -206 0
-1716 1715 207 0
-1716 -1715 -207 0
1716 -1715 207 0
1716 1715 -207 0
-1717 1716 209 0
-1717 -1716 -209 0
1717 -1716 209 0
1717 1716 -209 0
-1718 1717 212 0
-1718 -1717 -212 0
1718 -1717 212 0
1718 1717 -212 0
-1718 0
-1719 53 57 0
-1719 -53 -57 0
1719 -53 57 0
1719 53 -57 0
-1720 1719 58 0
-1720 -1719 -58 0
1720 -1719 58 0
1720 1719 -58 0
-1721 1720 60 0
-1721 -1720 -60 0
1721 -1720 60 0
1721 1720 -60 0
-1722 1721 61 0
-1722 -1721 -61 0
1722 -1721 61 0
1722 1721 -61 0
-1723 1722 63 0
-1723 -1722 -63 0
1723 -1722 63 0
1723 1722 -63 0
-1724 1723 64 0
-1724 -1723 -64 0
1724 -1723 64 0
1724 1723 -64 0
-1725 1724 67 0
-1725 -1724 -67 0
1725 -1724 67 0
1725 1724 -67 0
-1726 1725 68 0
-1726 -1725 -68 0
1726 -1725 68 0
1726 1725 -68 0
-1727 1726 69 0
-1727 -1726 -69 0
1727 -1726 69 0
1727 1726 -69 0
-1728 1727 70 0
-1728 -1727 -70 0
1728 -1727 70 0
1728 1727 -70 0
-1729 1728 71 0
-1729 -1728 -71 0
1729 -1728 71 0
1729 1728 -71 0
-1730 1729 72 0
-1730 -1729 -72 0
1730 -1729 72 0
1730 1729 -72 0
-1731 1730 74 0
-1731 -1730 -74 0
1731 -1730 74 0
1731 1730 -74 0
-1732 1731 75 0
-1732 -1731 -75 0
1732 -1731 75 0
1732 1731 -75 0
-1733 1732 79 0
-1733 -1732 -79 0
1733 -1732 79 0
1733 1732 -79 0
-1734 1733 80 0
-1734 -1733 -80 0
1734 -1733 80 0
1734 1733 -80 0
-1735 1734 82 0
-1735 -1734 -82 0
1735 -1734 82 0
1735 1734 -82 0
-1736 1735 83 0
-1736 -1735 -83 0
1736 -1735 83 0
1736 1735 -83 0
-1737 1736 84 0
-1737 -1736 -84 0
1737 -1736 84 0
1737 1736 -84 0
-1738 1737 86 0
-1738 -1737 -86 0
1738 -1737 86 0
1738 1737 -86 0
-1739 1738 87 0
-1739 -1738 -87 0
1739 -1738 87 0
1739 1738 -87 0
-1740 1739 88 0
-1740 -1739 -88 0
1740 -1739 88 0
1740 1739 -88 0
-1741 1740 90 0
-1741 -1740 -90 0
1741 -1740 90 0
1741 1740 -90 0
-1742 1741 94 0
-1742 -1741 -94 0
1742 -1741 94 0
1742 1741 -94 0
-1743 1742 95 0
-1743 -1742 -95 0
1743 -1742 95 0
1743 1742 -95 0
-1744 1743 96 0
-1744 -1743 -96 0
1744 -1743 96 0
1744 1743 -96 0
-1745 1744 97 0
-1745 -1744 -97 0
1745 -1744 97 0
1745 1744 -97 0
-1746 1745 103 0
-1746 -1745 -103 0
1746 -1745 103 0
1746 1745 -103 0
-1747 1746 106 0
-1747 -1746 -106 0
1747 -1746 106 0
1747 1746 -106 0
-1748 1747 107 0
-1748 -1747 -107 0
1748 -1747 107 0
1748 1747 -107 0
-1749 1748 108 0
-1749 -1748 -108 0
1749 -1748 108 0
1749 1748 -108 0
-1750 1749 136 0
-1750 -1749 -136 0
1750 -1749 136 0
1750 1749 -136 0
-1751 1750 161 0
-1751 -1750 -161 0
1751 -1750 161 0
1751 1750 -161 0
-1752 1751 168 0
-1752 -1751 -168 0
1752 -1751 168 0
1752 1751 -168 0
-1753 1752 171 0
-1753 -1752 -171 0
1753 -1752 171 0
1753 1752 -171 0
-1754 1753 173 0
-1754 -1753 -173 0
1754 -1753 173 0
1754 1753 -173 0
-1755 1754 175 0
-1755 -1754 -175 0
1755 -1754 175 0
1755 1754 -175 0
-1756 1755 177 0
-1756 -1755 -177 0
1756 -1755 177 0
1756 1755 -177 0
-1757 1756 178 0
-1757 -1756 -178 0
1757 -1756 178 0
1757 1756 -178 0
-1758 1757 180 0
-1758 -1757 -180 0
1758 -1757 180 0
1758 1757 -180 0
-1759 1758 183 0
-1759 -1758 -183 0
1759 -1758 183 0
1759 1758 -183 0
-1760 1759 184 0
-1760 -1759 -184 0
1760 -1759 184 0
1760 1759 -184 0
-1761 1760 186 0
-1761 -1760 -186 0
1761 -1760 186 0
1761 1760 -186 0
-1762 1761 189 0
-1762 -1761 -189 0
1762 -1761 189 0
1762 1761 -189 0
-1763 1762 190 0
-1763 -1762 -190 0
1763 -1762 190 0
1763 1762 -190 0
-1764 1763 193 0
-1764 -1763 -193 0
1764 -1763 193 0
1764 1763 -193 0
-1765 1764 194 0
-1765 -1764 -194 0
1765 -1764 194 0
1765 1764 -194 0
-1766 1765 196 0
-1766 -1765 -196 0
1766 -1765 196 0
1766 1765 -196 0
-1767 1766 197 0
-1767 -1766 -197 0
1767 -1766 197 0
1767 1766 -197 0
-1768 1767 200 0
-1768 -1767 -200 0
1768 -1767 200 0
1768 1767 -200 0
-1769 1768 206 0
-1769 -1768 -206 0
1769 -1768 206 0
1769 1768 -206 0
-1770 1769 208 0
-1770 -1769 -208 0
1770 -1769 208 0
1770 1769 -208 0
-1771 1770 209 0
-1771 -1770 -209 0
1771 -1770 209 0
1771 1770 -209 0
-1772 1771 213 0
-1772 -1771 -213 0
1772 -1771 213 0
1772 1771 -213 0
-1773 1772 214 0
-1773 -1772 -214 0
1773 -1772 214 0
1773 1772 -214 0
-1774 1773 215 0
-1774 -1773 -215 0
1774 -1773 215 0
1774 1773 -215 0
-1775 1774 216 0
-1775 -1774 -216 0
1775 -1774 216 0
1775 1774 -216 0
-1775 0
-1776 54 57 0
-1776 -54 -57 0
1776 -54 57 0
1776 54 -57 0
-1777 1776 59 0
-1777 -1776 -59 0
1777 -1776 59 0
1777 1776 -59 0
-1778 1777 60 0
-1778 -1777 -60 0
1778 -1777 60 0
1778 1777 -60 0
-1779 1778 61 0
-1779 -1778 -61 0
1779 -1778 61 0
1779 1778 -61 0
-1780 1779 67 0
-1780 -1779 -67 0
1780 -1779 67 0
1780 1779 -67 0
-1781 1780 70 0
-1781 -1780 -70 0
1781 -1780 70 0
1781 1780 -70 0
-1782 1781 73 0
-1782 -1781 -73 0
1782 -1781 73 0
1782 1781 -73 0
-1783 1782 78 0
-1783 -1782 -78 0
1783 -1782 78 0
1783 1782 -78 0
-1784 1783 81 0
-1784 -1783 -81 0
1784 -1783 81 0
1784 1783 -81 0
-1785 1784 82 0
-1785 -1784 -82 0
1785 -1784 82 0
1785 1784 -82 0
-1786 1785 84 0
-1786 -1785 -84 0
1786 -1785 84 0
1786 1785 -84 0
-1787 1786 85 0
-1787 -1786 -85 0
1787 -1786 85 0
1787 1786 -85 0
-1788 1787 86 0
-1788 -1787 -86 0
1788 -1787 86 0
1788 1787 -86 0
-1789 1788 88 0
-1789 -1788 -88 0
1789 -1788 88 0
1789 1788 -88 0
-1790 1789 90 0
-1790 -1789 -90 0
1790 -1789 90 0
1790 1789 -90 0
-1791 1790 93 0
-1791 -1790 -93 0
1791 -1790 93 0
1791 1790 -93 0
-1792 1791 94 0
-1792 -1791 -94 0
1792 -1791 94 0
1792 1791 -94 0
-1793 1792 95 0
-1793 -1792 -95 0
1793 -1792 95 0
1793 1792 -95 0
-1794 1793 97 0
-1794 -1793 -97 0
1794 -1793 97 0
1794 1793 -97 0
-1795 1794 100 0
-1795 -1794 -100 0
1795 -1794 100 0
1795 1794 -100 0
-1796 1795 101 0
-1796 -1795 -101 0
1796 -1795 101 0
1796 1795 -101 0
-1797 1796 103 0
-1797 -1796 -103 0
1797 -1796 103 0
1797 1796 -103 0
-1798 1797 105 0
-1798 -1797 -105 0
1798 -1797 105 0
1798 1797 -105 0
-1799 1798 137 0
-1799 -1798 -137 0
1799 -1798 137 0
1799 1798 -137 0
-1800 1799 162 0
-1800 -1799 -162 0
1800 -1799 162 0
1800 1799 -162 0
-1801 1800 163 0
-1801 -1800 -163 0
1801 -1800 163 0
1801 1800 -163 0
-1802 1801 172 0
-1802 -1801 -172 0
1802 -1801 172 0
1802 1801 -172 0
-1803 1802 174 0
-1803 -1802 -174 0
1803 -1802 174 0
1803 1802 -174 0
-1804 1803 175 0
-1804 -1803 -175 0
1804 -1803 175 0
1804 1803 -175 0
-1805 1804 176 0
-1805 -1804 -176 0
1805 -1804 176 0
1805 1804 -176 0
-1806 1805 178 0
-1806 -1805 -178 0
1806 -1805 178 0
1806 1805 -178 0
-1807 1806 179 0
-1807 -1806 -179 0
1807 -1806 179 0
1807 1806 -179 0
-1808 1807 181 0
-1808 -1807 -181 0
1808 -1807 181 0
1808 1807 -181 0
-1809 1808 184 0
-1809 -1808 -184 0
1809 -1808 184 0
1809 1808 -184 0
-1810 1809 185 0
-1810 -1809 -185 0
1810 -1809 185 0
1810 1809 -185 0
-1811 1810 190 0
-1811 -1810 -190 0
1811 -1810 190 0
1811 1810 -190 0
-1812 1811 191 0
-1812 -1811 -191 0
1812 -1811 191 0
1812 1811 -191 0
-1813 1812 194 0
-1813 -1812 -194 0
1813 -1812 194 0
1813 1812 -194 0
-1814 1813 195 0
-1814 -1813 -195 0
1814 -1813 195 0
1814 1813 -195 0
-1815 1814 197 0
-1815 -1814 -197 0
1815 -1814 197 0
1815 1814 -197 0
-1816 1815 198 0
-1816 -1815 -198 0
1816 -1815 198 0
1816 1815 -198 0
-1817 1816 201 0
-1817 -1816 -201 0
1817 -1816 201 0
1817 1816 -201 0
-1818 1817 207 0
-1818 -1817 -207 0
1818 -1817 207 0
1818 1817 -207 0
-1819 1818 209 0
-1819 -1818 -209 0
1819 -1818 209 0
1819 1818 -209 0
-1820 1819 210 0
-1820 -1819 -210 0
1820 -1819 210 0
1820 1819 -210 0
-1821 1820 211 0
-1821 -1820 -211 0
1821 -1820 211 0
1821 1820 -211 0
-1822 1821 214 0
-1822 -1821 -214 0
1822 -1821 214 0
1822 1821 -214 0
-1823 1822 215 0
-1823 -1822 -215 0
1823 -1822 215 0
1823 1822 -215 0
-1824 1823 216 0
-1824 -1823 -216 0
1824 -1823 216 0
1824 1823 -216 0
-1824 0
-1825 53 57 0
-1825 -53 -57 0
1825 -53 57 0
1825 53 -57 0
-1826 1825 58 0
-1826 -1825 -58 0
1826 -1825 58 0
1826 1825 -58 0
-1827 1826 62 0
-1827 -1826 -62 0
1827 -1826 62 0
1827 1826 -62 0
-1828 1827 63 0
-1828 -1827 -63 0
1828 -1827 63 0
1828 1827 -63 0
-1829 1828 65 0
-1829 -1828 -65 0
1829 -1828 65 0
1829 1828 -65 0
-1830 1829 66 0
-1830 -1829 -66 0
1830 -1829 66 0
1830 1829 -66 0
-1831 1830 67 0
-1831 -1830 -67 0
1831 -1830 67 0
1831 1830 -67 0
-1832 1831 68 0
-1832 -1831 -68 0
1832 -1831 68 0
1832 1831 -68 0
-1833 1832 69 0
-1833 -1832 -69 0
1833 -1832 69 0
1833 1832 -69 0
-1834 1833 72 0
-1834 -1833 -72 0
1834 -1833 72 0
1834 1833 -72 0
-1835 1834 74 0
-1835 -1834 -74 0
1835 -1834 74 0
1835 1834 -74 0
-1836 1835 75 0
-1836 -1835 -75 0
1836 -1835 75 0
1836 1835 -75 0
-1837 1836 76 0
-1837 -1836 -76 0
1837 -1836 76 0
1837 1836 -76 0
-1838 1837 77 0
-1838 -1837 -77 0
1838 -1837 77 0
1838 1837 -77 0
-1839 1838 81 0
-1839 -1838 -81 0
1839 -1838 81 0
1839 1838 -81 0
-1840 1839 82 0
-1840 -1839 -82 0
1840 -1839 82 0
1840 1839 -82 0
-1841 1840 83 0
-1841 -1840 -83 0
1841 -1840 83 0
1841 1840 -83 0
-1842 1841 85 0
-1842 -1841 -85 0
1842 -1841 85 0
1842 1841 -85 0
-1843 1842 88 0
-1843 -1842 -88 0
1843 -1842 88 0
1843 1842 -88 0
-1844 1843 89 0
-1844 -1843 -89 0
1844 -1843 89 0
1844 1843 -89 0
-1845 1844 90 0
-1845 -1844 -90 0
1845 -1844 90 0
1845 1844 -90 0
-1846 1845 91 0
-1846 -1845 -91 0
1846 -1845 91 0
1846 1845 -91 0
-1847 1846 92 0
-1847 -1846 -92 0
1847 -1846 92 0
1847 1846 -92 0
-1848 1847 94 0
-1848 -1847 -94 0
1848 -1847 94 0
1848 1847 -94 0
-1849 1848 98 0
-1849 -1848 -98 0
1849 -1848 98 0
1849 1848 -98 0
-1850 1849 99 0
-1850 -1849 -99 0
1850 -1849 99 0
1850 1849 -99 0
-1851 1850 100 0
-1851 -1850 -100 0
1851 -1850 100 0
1851 1850 -100 0
-1852 1851 103 0
-1852 -1851 -103 0
1852 -1851 103 0
1852 1851 -103 0
-1853 1852 106 0
-1853 -1852 -106 0
1853 -1852 106 0
1853 1852 -106 0
-1854 1853 108 0
-1854 -1853 -108 0
1854 -1853 108 0
1854 1853 -108 0
-1855 1854 138 0
-1855 -1854 -138 0
1855 -1854 138 0
1855 1854 -138 0
-1856 1855 161 0
-1856 -1855 -161 0
1856 -1855 161 0
1856 1855 -161 0
-1857 1856 162 0
-1857 -1856 -162 0
1857 -1856 162 0
1857 1856 -162 0
-1858 1857 163 0
-1858 -1857 -163 0
1858 -1857 163 0
1858 1857 -163 0
-1859 1858 165 0
-1859 -1858 -165 0
1859 -1858 165 0
1859 1858 -165 0
-1860 1859 166 0
-1860 -1859 -166 0
1860 -1859 166 0
1860 1859 -166 0
-1861 1860 167 0
-1861 -1860 -167 0
1861 -1860 167 0
1861 1860 -167 0
-1862 1861 168 0
-1862 -1861 -168 0
1862 -1861 168 0
1862 1861 -168 0
-1863 1862 169 0
-1863 -1862 -169 0
1863 -1862 169 0
1863 1862 -169 0
-1864 1863 170 0
-1864 -1863 -170 0
1864 -1863 170 0
1864 1863 -170 0
-1865 1864 175 0
-1865 -1864 -175 0
1865 -1864 175 0
1865 1864 -175 0
-1866 1865 177 0
-1866 -1865 -177 0
1866 -1865 177 0
1866 1865 -177 0
-1867 1866 179 0
-1867 -1866 -179 0
1867 -1866 179 0
1867 1866 -179 0
-1868 1867 182 0
-1868 -1867 -182 0
1868 -1867 182 0
1868 1867 -182 0
-1869 1868 183 0
-1869 -1868 -183 0
1869 -1868 183 0
1869 1868 -183 0
-1870 1869 184 0
-1870 -1869 -184 0
1870 -1869 184 0
1870 1869 -184 0
-1871 1870 186 0
-1871 -1870 -186 0
1871 -1870 186 0
1871 1870 -186 0
-1872 1871 190 0
-1872 -1871 -190 0
1872 -1871 190 0
1872 1871 -190 0
-1873 1872 194 0
-1873 -1872 -194 0
1873 -1872 194 0
1873 1872 -194 0
-1874 1873 197 0
-1874 -1873 -197 0
1874 -1873 197 0
1874 1873 -197 0
-1875 1874 199 0
-1875 -1874 -199 0
1875 -1874 199 0
1875 1874 -199 0
-1876 1875 200 0
-1876 -1875 -200 0
1876 -1875 200 0
1876 1875 -200 0
-1877 1876 201 0
-1877 -1876 -201 0
1877 -1876 201 0
1877 1876 -201 0
-1878 1877 202 0
-1878 -1877 -202 0
1878 -1877 202 0
1878 1877 -202 0
-1879 1878 205 0
-1879 -1878 -205 0
1879 -1878 205 0
1879 1878 -205 0
-1880 1879 206 0
-1880 -1879 -206 0
1880 -1879 206 0
1880 1879 -206 0
-1881 1880 207 0
-1881 -1880 -207 0
1881 -1880 207 0
1881 1880 -207 0
-1882 1881 208 0
-1882 -1881 -208 0
1882 -1881 208 0
1882 1881 -208 0
-1883 1882 209 0
-1883 -1882 -209 0
1883 -1882 209 0
1883 1882 -209 0
-1884 1883 211 0
-1884 -1883 -211 0
1884 -1883 211 0
1884 1883 -211 0
-1885 1884 212 0
-1885 -1884 -212 0
1885 -1884 212 0
1885 1884 -212 0
-1886 1885 214 0
-1886 -1885 -214 0
1886 -1885 214 0
1886 1885 -214 0
-1886 0
-1887 54 58 0
-1887 -54 -58 0
1887 -54 58 0
1887 54 -58 0
-1888 1887 60 0
-1888 -1887 -60 0
1888 -1887 60 0
1888 1887 -60 0
-1889 1888 64 0
-1889 -1888 -64 0
1889 -1888 64 0
1889 1888 -64 0
-1890 1889 65 0
-1890 -1889 -65 0
1890 -1889 65 0
1890 1889 -65 0
-1891 1890 68 0
-1891 -1890 -68 0
1891 -1890 68 0
1891 1890 -68 0
-1892 1891 70 0
-1892 -1891 -70 0
1892 -1891 70 0
1892 1891 -70 0
-1893 1892 71 0
-1893 -1892 -71 0
1893 -1892 71 0
1893 1892 -71 0
-1894 1893 72 0
-1894 -1893 -72 0
1894 -1893 72 0
1894 1893 -72 0
-1895 1894 74 0
-1895 -1894 -74 0
1895 -1894 74 0
1895 1894 -74 0
-1896 1895 76 0
-1896 -1895 -76 0
1896 -1895 76 0
1896 1895 -76 0
-1897 1896 79 0
-1897 -1896 -79 0
1897 -1896 79 0
1897 1896 -79 0
-1898 1897 81 0
-1898 -1897 -81 0
1898 -1897 81 0
1898 1897 -81 0
-1899 1898 83 0
-1899 -1898 -83 0
1899 -1898 83 0
1899 1898 -83 0
-1900 1899 84 0
-1900 -1899 -84 0
1900 -1899 84 0
1900 1899 -84 0
-1901 1900 85 0
-1901 -1900 -85 0
1901 -1900 85 0
1901 1900 -85 0
-1902 1901 86 0
-1902 -1901 -86 0
1902 -1901 86 0
1902 1901 -86 0
-1903 1902 88 0
-1903 -1902 -88 0
1903 -1902 88 0
1903 1902 -88 0
-1904 1903 90 0
-1904 -1903 -90 0
1904 -1903 90 0
1904 1903 -90 0
-1905 1904 92 0
-1905 -1904 -92 0
1905 -1904 92 0
1905 1904 -92 0
-1906 1905 93 0
-1906 -1905 -93 0
1906 -1905 93 0
1906 1905 -93 0
-1907 1906 95 0
-1907 -1906 -95 0
1907 -1906 95 0
1907 1906 -95 0
-1908 1907 98 0
-1908 -1907 -98 0
1908 -1907 98 0
1908 1907 -98 0
-1909 1908 100 0
-1909 -1908 -100 0
1909 -1908 100 0
1909 1908 -100 0
-1910 1909 108 0
-1910 -1909 -108 0
1910 -1909 108 0
1910 1909 -108 0
-1911 1910 139 0
-1911 -1910 -139 0
1911 -1910 139 0
1911 1910 -139 0
-1912 1911 161 0
-1912 -1911 -161 0
1912 -1911 161 0
1912 1911 -161 0
-1913 1912 162 0
-1913 -1912 -162 0
1913 -1912 162 0
1913 1912 -162 0
-1914 1913 163 0
-1914 -1913 -163 0
1914 -1913 163 0
1914 1913 -163 0
-1915 1914 164 0
-1915 -1914 -164 0
1915 -1914 164 0
1915 1914 -164 0
-1916 1915 166 0
-1916 -1915 -166 0
1916 -1915 166 0
1916 1915 -166 0
-1917 1916 169 0
-1917 -1916 -169 0
1917 -1916 169 0
1917 1916 -169 0
-1918 1917 173 0
-1918 -1917 -173 0
1918 -1917 173 0
1918 1917 -173 0
-1919 1918 174 0
-1919 -1918 -174 0
1919 -1918 174 0
1919 1918 -174 0
-1920 1919 175 0
-1920 -1919 -175 0
1920 -1919 175 0
1920 1919 -175 0
-1921 1920 177 0
-1921 -1920 -177 0
1921 -1920 177 0
1921 1920 -177 0
-1922 1921 181 0
-1922 -1921 -181 0
1922 -1921 181 0
1922 1921 -181 0
-1923 1922 182 0
-1923 -1922 -182 0
1923 -1922 182 0
1923 1922 -182 0
-1924 1923 185 0
-1924 -1923 -185 0
1924 -1923 185 0
1924 1923 -185 0
-1925 1924 191 0
-1925 -1924 -191 0
1925 -1924 191 0
1925 1924 -191 0
-1926 1925 192 0
-1926 -1925 -192 0
1926 -1925 192 0
1926 1925 -192 0
-1927 1926 193 0
-1927 -1926 -193 0
1927 -1926 193 0
1927 1926 -193 0
-1928 1927 194 0
-1928 -1927 -194 0
1928 -1927 194 0
1928 1927 -194 0
-1929 1928 196 0
-1929 -1928 -196 0
1929 -1928 196 0
1929 1928 -196 0
-1930 1929 197 0
-1930 -1929 -197 0
1930 -1929 197 0
1930 1929 -197 0
-1931 1930 198 0
-1931 -1930 -198 0
1931 -1930 198 0
1931 1930 -198 0
-1932 1931 201 0
-1932 -1931 -201 0
1932 -1931 201 0
1932 1931 -201 0
-1933 1932 202 0
-1933 -1932 -202 0
1933 -1932 202 0
1933 1932 -202 0
-1934 1933 203 0
-1934 -1933 -203 0
1934 -1933 203 0
1934 1933 -203 0
-1935 1934 204 0
-1935 -1934 -204 0
1935 -1934 204 0
1935 1934 -204 0
-1936 1935 205 0
-1936 -1935 -205 0
1936 -1935 205 0
1936 1935 -205 0
-1937 1936 207 0
-1937 -1936 -207 0
1937 -1936 207 0
1937 1936 -207 0
-1938 1937 208 0
-1938 -1937 -208 0
1938 -1937 208 0
1938 1937 -208 0
-1939 1938 209 0
-1939 -1938 -209 0
1939 -1938 209 0
1939 1938 -209 0
-1940 1939 212 0
-1940 -1939 -212 0
1940 -1939 212 0
1940 1939 -212 0
-1941 1940 214 0
-1941 -1940 -214 0
1941 -1940 214 0
1941 1940 -214 0
-1942 1941 215 0
-1942 -1941 -215 0
1942 -1941 215 0
1942 1941 -215 0
-1942 0
-1943 53 57 0
-1943 -53 -57 0
1943 -53 57 0
1943 53 -57 0
-1944 1943 59 0
-1944 -1943 -59 0
1944 -1943 59 0
1944 1943 -59 0
-1945 1944 60 0
-1945 -1944 -60 0
1945 -1944 60 0
1945 1944 -60 0
-1946 1945 63 0
-1946 -1945 -63 0
1946 -1945 63 0
1946 1945 -63 0
-1947 1946 73 0
-1947 -1946 -73 0
1947 -1946 73 0
1947 1946 -73 0
-1948 1947 76 0
-1948 -1947 -76 0
1948 -1947 76 0
1948 1947 -76 0
-1949 1948 80 0
-1949 -1948 -80 0
1949 -1948 80 0
1949 1948 -80 0
-1950 1949 81 0
-1950 -1949 -81 0
1950 -1949 81 0
1950 1949 -81 0
-1951 1950 82 0
-1951 -1950 -82 0
1951 -1950 82 0
1951 1950 -82 0
-1952 1951 84 0
-1952 -1951 -84 0
1952 -1951 84 0
1952 1951 -84 0
-1953 1952 85 0
-1953 -1952 -85 0
1953 -1952 85 0
1953 1952 -85 0
-1954 1953 88 0
-1954 -1953 -88 0
1954 -1953 88 0
1954 1953 -88 0
-1955 1954 89 0
-1955 -1954 -89 0
1955 -1954 89 0
1955 1954 -89 0
-1956 1955 90 0
-1956 -1955 -90 0
1956 -1955 90 0
1956 1955 -90 0
-1957 1956 91 0
-1957 -1956 -91 0
1957 -1956 91 0
1957 1956 -91 0
-1958 1957 92 0
-1958 -1957 -92 0
1958 -1957 92 0
1958 1957 -92 0
-1959 1958 93 0
-1959 -1958 -93 0
1959 -1958 93 0
1959 1958 -93 0
-1960 1959 94 0
-1960 -1959 -94 0
1960 -1959 94 0
1960 1959 -94 0
-1961 1960 95 0
-1961 -1960 -95 0
1961 -1960 95 0
1961 1960 -95 0
-1962 1961 100 0
-1962 -1961 -100 0
1962 -1961 100 0
1962 1961 -100 0
-1963 1962 102 0
-1963 -1962 -102 0
1963 -1962 102 0
1963 1962 -102 0
-1964 1963 104 0
-1964 -1963 -104 0
1964 -1963 104 0
1964 1963 -104 0
-1965 1964 108 0
-1965 -1964 -108 0
1965 -1964 108 0
1965 1964 -108 0
-1966 1965 140 0
-1966 -1965 -140 0
1966 -1965 140 0
1966 1965 -140 0
-1967 1966 161 0
-1967 -1966 -161 0
1967 -1966 161 0
1967 1966 -161 0
-1968 1967 163 0
-1968 -1967 -163 0
1968 -1967 163 0
1968 1967 -163 0
-1969 1968 166 0
-1969 -1968 -166 0
1969 -1968 166 0
1969 1968 -166 0
-1970 1969 168 0
-1970 -1969 -168 0
1970 -1969 168 0
1970 1969 -168 0
-1971 1970 169 0
-1971 -1970 -169 0
1971 -1970 169 0
1971 1970 -169 0
-1972 1971 173 0
-1972 -1971 -173 0
1972 -1971 173 0
1972 1971 -173 0
-1973 1972 174 0
-1973 -1972 -174 0
1973 -1972 174 0
1973 1972 -174 0
-1974 1973 175 0
-1974 -1973 -175 0
1974 -1973 175 0
1974 1973 -175 0
-1975 1974 178 0
-1975 -1974 -178 0
1975 -1974 178 0
1975 1974 -178 0
-1976 1975 180 0
-1976 -1975 -180 0
1976 -1975 180 0
1976 1975 -180 0
-1977 1976 182 0
-1977 -1976 -182 0
1977 -1976 182 0
1977 1976 -182 0
-1978 1977 184 0
-1978 -1977 -184 0
1978 -1977 184 0
1978 1977 -184 0
-1979 1978 185 0
-1979 -1978 -185 0
1979 -1978 185 0
1979 1978 -185 0
-1980 1979 186 0
-1980 -1979 -186 0
1980 -1979 186 0
1980 1979 -186 0
-1981 1980 187 0
-1981 -1980 -187 0
1981 -1980 187 0
1981 1980 -187 0
-1982 1981 190 0
-1982 -1981 -190 0
1982 -1981 190 0
1982 1981 -190 0
-1983 1982 191 0
-1983 -1982 -191 0
1983 -1982 191 0
1983 1982 -191 0
-1984 1983 196 0
-1984 -1983 -196 0
1984 -1983 196 0
1984 1983 -196 0
-1985 1984 200 0
-1985 -1984 -200 0
1985 -1984 200 0
1985 1984 -200 0
-1986 1985 201 0
-1986 -1985 -201 0
1986 -1985 201 0
1986 1985 -201 0
-1987 1986 202 0
-1987 -1986 -202 0
1987 -1986 202 0
1987 1986 -202 0
-1988 1987 203 0
-1988 -1987 -203 0
1988 -1987 203 0
1988 1987 -203 0
-1989 1988 204 0
-1989 -1988 -204 0
1989 -1988 204 0
1989 1988 -204 0
-1990 1989 207 0
-1990 -1989 -207 0
1990 -1989 207 0
1990 1989 -207 0
-1991 1990 208 0
-1991 -1990 -208 0
1991 -1990 208 0
1991 1990 -208 0
-1992 1991 213 0
-1992 -1991 -213 0
1992 -1991 213 0
1992 1991 -213 0
-1993 1992 214 0
-1993 -1992 -214 0
1993 -1992 214 0
1993 1992 -214 0
-1993 0
-1994 54 57 0
-1994 -54 -57 0
1994 -54 57 0
1994 54 -57 0
-1995 1994 61 0
-1995 -1994 -61 0
1995 -1994 61 0
1995 1994 -61 0
-1996 1995 62 0
-1996 -1995 -62 0
1996 -1995 62 0
1996 1995 -62 0
-1997 1996 65 0
-1997 -1996 -65 0
1997 -1996 65 0
1997 1996 -65 0
-1998 1997 68 0
-1998 -1997 -68 0
1998 -1997 68 0
1998 1997 -68 0
-1999 1998 69 0
-1999 -1998 -69 0
1999 -1998 69 0
1999 1998 -69 0
-2000 1999 71 0
-2000 -1999 -71 0
2000 -1999 71 0
2000 1999 -71 0
-2001 2000 72 0
-2001 -2000 -72 0
2001 -2000 72 0
2001 2000 -72 0
-2002 2001 73 0
-2002 -2001 -73 0
2002 -2001 73 0
2002 2001 -73 0
-2003 2002 74 0
-2003 -2002 -74 0
2003 -2002 74 0
2003 2002 -74 0
-2004 2003 75 0
-2004 -2003 -75 0
2004 -2003 75 0
2004 2003 -75 0
-2005 2004 76 0
-2005 -2004 -76 0
2005 -2004 76 0
2005 2004 -76 0
-2006 2005 77 0
-2006 -2005 -77 0
2006 -2005 77 0
2006 2005 -77 0
-2007 2006 78 0
-2007 -2006 -78 0
2007 -2006 78 0
2007 2006 -78 0
-2008 2007 80 0
-2008 -2007 -80 0
2008 -2007 80 0
2008 2007 -80 0
-2009 2008 81 0
-2009 -2008 -81 0
2009 -2008 81 0
2009 2008 -81 0
-2010 2009 85 0
-2010 -2009 -85 0
2010 -2009 85 0
2010 2009 -85 0
-2011 2010 87 0
-2011 -2010 -87 0
2011 -2010 87 0
2011 2010 -87 0
-2012 2011 91 0
-2012 -2011 -91 0
2012 -2011 91 0
2012 2011 -91 0
-2013 2012 92 0
-2013 -2012 -92 0
2013 -2012 92 0
2013 2012 -92 0
-2014 2013 95 0
-2014 -2013 -95 0
2014 -2013 95 0
2014 2013 -95 0
-2015 2014 98 0
-2015 -2014 -98 0
2015 -2014 98 0
2015 2014 -98 0
-2016 2015 100 0
-2016 -2015 -100 0
2016 -2015 100 0
2016 2015 -100 0
-2017 2016 103 0
-2017 -2016 -103 0
2017 -2016 103 0
2017 2016 -103 0
-2018 2017 104 0
-2018 -2017 -104 0
2018 -2017 104 0
2018 2017 -104 0
-2019 2018 107 0
-2019 -2018 -107 0
2019 -2018 107 0
2019 2018 -107 0
-2020 2019 108 0
-2020 -2019 -108 0
2020 -2019 108 0
2020 2019 -108 0
-2021 2020 141 0
-2021 -2020 -141 0
2021 -2020 141 0
2021 2020 -141 0
-2022 2021 162 0
-2022 -2021 -162 0
2022 -2021 162 0
2022 2021 -162 0
-2023 2022 163 0
-2023 -2022 -163 0
2023 -2022 163 0
2023 2022 -163 0
-2024 2023 164 0
-2024 -2023 -164 0
2024 -2023 164 0
2024 2023 -164 0
-2025 2024 167 0
-2025 -2024 -167 0
2025 -2024 167 0
2025 2024 -167 0
-2026 2025 169 0
-2026 -2025 -169 0
2026 -2025 169 0
2026 2025 -169 0
-2027 2026 170 0
-2027 -2026 -170 0
2027 -2026 170 0
2027 2026 -170 0
-2028 2027 174 0
-2028 -2027 -174 0
2028 -2027 174 0
2028 2027 -174 0
-2029 2028 175 0
-2029 -2028 -175 0
2029 -2028 175 0
2029 2028 -175 0
-2030 2029 176 0
-2030 -2029 -176 0
2030 -2029 176 0
2030 2029 -176 0
-2031 2030 179 0
-2031 -2030 -179 0
2031 -2030 179 0
2031 2030 -179 0
-2032 2031 181 0
-2032 -2031 -181 0
2032 -2031 181 0
2032 2031 -181 0
-2033 2032 183 0
-2033 -2032 -183 0
2033 -2032 183 0
2033 2032 -183 0
-2034 2033 185 0
-2034 -2033 -185 0
2034 -2033 185 0
2034 2033 -185 0
-2035 2034 186 0
-2035 -2034 -186 0
2035 -2034 186 0
2035 2034 -186 0
-2036 2035 188 0
-2036 -2035 -188 0
2036 -2035 188 0
2036 2035 -188 0
-2037 2036 191 0
-2037 -2036 -191 0
2037 -2036 191 0
2037 2036 -191 0
-2038 2037 192 0
-2038 -2037 -192 0
2038 -2037 192 0
2038 2037 -192 0
-2039 2038 197 0
-2039 -2038 -197 0
2039 -2038 197 0
2039 2038 -197 0
-2040 2039 199 0
-2040 -2039 -199 0
2040 -2039 199 0
2040 2039 -199 0
-2041 2040 201 0
-2041 -2040 -201 0
2041 -2040 201 0
2041 2040 -201 0
-2042 2041 202 0
-2042 -2041 -202 0
2042 -2041 202 0
2042 2041 -202 0
-2043 2042 203 0
-2043 -2042 -203 0
2043 -2042 203 0
2043 2042 -203 0
-2044 2043 204 0
-2044 -2043 -204 0
2044 -2043 204 0
2044 2043 -204 0
-2045 2044 208 0
-2045 -2044 -208 0
2045 -2044 208 0
2045 2044 -208 0
-2046 2045 209 0
-2046 -2045 -209 0
2046 -2045 209 0
2046 2045 -209 0
-2047 2046 214 0
-2047 -2046 -214 0
2047 -2046 214 0
2047 2046 -214 0
-2048 2047 215 0
-2048 -2047 -215 0
2048 -2047 215 0
2048 2047 -215 0
-2048 0
-2049 53 61 0
-2049 -53 -61 0
2049 -53 61 0
2049 53 -61 0
-2050 2049 64 0
-2050 -2049 -64 0
2050 -2049 64 0
2050 2049 -64 0
-2051 2050 68 0
-2051 -2050 -68 0
2051 -2050 68 0
2051 2050 -68 0
-2052 2051 69 0
-2052 -2051 -69 0
2052 -2051 69 0
2052 2051 -69 0
-2053 2052 70 0
-2053 -2052 -70 0
2053 -2052 70 0
2053 2052 -70 0
-2054 2053 72 0
-2054 -2053 -72 0
2054 -2053 72 0
2054 2053 -72 0
-2055 2054 73 0
-2055 -2054 -73 0
2055 -2054 73 0
2055 2054 -73 0
-2056 2055 74 0
-2056 -2055 -74 0
2056 -2055 74 0
2056 2055 -74 0
-2057 2056 75 0
-2057 -2056 -75 0
2057 -2056 75 0
2057 2056 -75 0
-2058 2057 76 0
-2058 -2057 -76 0
2058 -2057 76 0
2058 2057 -76 0
-2059 2058 80 0
-2059 -2058 -80 0
2059 -2058 80 0
2059 2058 -80 0
-2060 2059 83 0
-2060 -2059 -83 0
2060 -2059 83 0
2060 2059 -83 0
-2061 2060 86 0
-2061 -2060 -86 0
2061 -2060 86 0
2061 2060 -86 0
-2062 2061 89 0
-2062 -2061 -89 0
2062 -2061 89 0
2062 2061 -89 0
-2063 2062 94 0
-2063 -2062 -94 0
2063 -2062 94 0
2063 2062 -94 0
-2064 2063 95 0
-2064 -2063 -95 0
2064 -2063 95 0
2064 2063 -95 0
-2065 2064 96 0
-2065 -2064 -96 0
2065 -2064 96 0
2065 2064 -96 0
-2066 2065 97 0
-2066 -2065 -97 0
2066 -2065 97 0
2066 2065 -97 0
-2067 2066 98 0
-2067 -2066 -98 0
2067 -2066 98 0
2067 2066 -98 0
-2068 2067 101 0
-2068 -2067 -101 0
2068 -2067 101 0
2068 2067 -101 0
-2069 2068 102 0
-2069 -2068 -102 0
2069 -2068 102 0
2069 2068 -102 0
-2070 2069 104 0
-2070 -2069 -104 0
2070 -2069 104 0
2070 2069 -104 0
-2071 2070 107 0
-2071 -2070 -107 0
2071 -2070 107 0
2071 2070 -107 0
-2072 2071 108 0
-2072 -2071 -108 0
2072 -2071 108 0
2072 2071 -108 0
-2073 2072 142 0
-2073 -2072 -142 0
2073 -2072 142 0
2073 2072 -142 0
-2074 2073 161 0
-2074 -2073 -161 0
2074 -2073 161 0
2074 2073 -161 0
-2075 2074 162 0
-2075 -2074 -162 0
2075 -2074 162 0
2075 2074 -162 0
-2076 2075 163 0
-2076 -2075 -163 0
2076 -2075 163 0
2076 2075 -163 0
-2077 2076 166 0
-2077 -2076 -166 0
2077 -2076 166 0
2077 2076 -166 0
-2078 2077 167 0
-2078 -2077 -167 0
2078 -2077 167 0
2078 2077 -167 0
-2079 2078 169 0
-2079 -2078 -169 0
2079 -2078 169 0
2079 2078 -169 0
-2080 2079 171 0
-2080 -2079 -171 0
2080 -2079 171 0
2080 2079 -171 0
-2081 2080 173 0
-2081 -2080 -173 0
2081 -2080 173 0
2081 2080 -173 0
-2082 2081 175 0
-2082 -2081 -175 0
2082 -2081 175 0
2082 2081 -175 0
-2083 2082 177 0
-2083 -2082 -177 0
2083 -2082 177 0
2083 2082 -177 0
-2084 2083 181 0
-2084 -2083 -181 0
2084 -2083 181 0
2084 2083 -181 0
-2085 2084 182 0
-2085 -2084 -182 0
2085 -2084 182 0
2085 2084 -182 0
-2086 2085 183 0
-2086 -2085 -183 0
2086 -2085 183 0
2086 2085 -183 0
-2087 2086 185 0
-2087 -2086 -185 0
2087 -2086 185 0
2087 2086 -185 0
-2088 2087 186 0
-2088 -2087 -186 0
2088 -2087 186 0
2088 2087 -186 0
-2089 2088 187 0
-2089 -2088 -187 0
2089 -2088 187 0
2089 2088 -187 0
-2090 2089 189 0
-2090 -2089 -189 0
2090 -2089 189 0
2090 2089 -189 0
-2091 2090 190 0
-2091 -2090 -190 0
2091 -2090 190 0
2091 2090 -190 0
-2092 2091 191 0
-2092 -2091 -191 0
2092 -2091 191 0
2092 2091 -191 0
-2093 2092 193 0
-2093 -2092 -193 0
2093 -2092 193 0
2093 2092 -193 0
-2094 2093 194 0
-2094 -2093 -194 0
2094 -2093 194 0
2094 2093 -194 0
-2095 2094 195 0
-2095 -2094 -195 0
2095 -2094 195 0
2095 2094 -195 0
-2096 2095 196 0
-2096 -2095 -196 0
2096 -2095 196 0
2096 2095 -196 0
-2097 2096 197 0
-2097 -2096 -197 0
2097 -2096 197 0
2097 2096 -197 0
-2098 2097 201 0
-2098 -2097 -201 0
2098 -2097 201 0
2098 2097 -201 0
-2099 2098 202 0
-2099 -2098 -202 0
2099 -2098 202 0
2099 2098 -202 0
-2100 2099 203 0
-2100 -2099 -203 0
2100 -2099 203 0
2100 2099 -203 0
-2101 2100 204 0
-2101 -2100 -204 0
2101 -2100 204 0
2101 2100 -204 0
-2102 2101 206 0
-2102 -2101 -206 0
2102 -2101 206 0
2102 2101 -206 0
-2103 2102 207 0
-2103 -2102 -207 0
2103 -2102 207 0
2103 2102 -207 0
-2104 2103 214 0
-2104 -2103 -214 0
2104 -2103 214 0
2104 2103 -214 0
-2104 0
-2105 58 61 0
-2105 -58 -61 0
2105 -58 61 0
2105 58 -61 0
-2106 2105 63 0
-2106 -2105 -63 0
2106 -2105 63 0
2106 2105 -63 0
-2107 2106 64 0
-2107 -2106 -64 0
2107 -2106 64 0
2107 2106 -64 0
-2108 2107 65 0
-2108 -2107 -65 0
2108 -2107 65 0
2108 2107 -65 0
-2109 2108 66 0
-2109 -2108 -66 0
2109 -2108 66 0
2109 2108 -66 0
-2110 2109 68 0
-2110 -2109 -68 0
2110 -2109 68 0
2110 2109 -68 0
-2111 2110 69 0
-2111 -2110 -69 0
2111 -2110 69 0
2111 2110 -69 0
-2112 2111 70 0
-2112 -2111 -70 0
2112 -2111 70 0
2112 2111 -70 0
-2113 2112 71 0
-2113 -2112 -71 0
2113 -2112 71 0
2113 2112 -71 0
-2114 2113 74 0
-2114 -2113 -74 0
2114 -2113 74 0
2114 2113 -74 0
-2115 2114 75 0
-2115 -2114 -75 0
2115 -2114 75 0
2115 2114 -75 0
-2116 2115 76 0
-2116 -2115 -76 0
2116 -2115 76 0
2116 2115 -76 0
-2117 2116 78 0
-2117 -2116 -78 0
2117 -2116 78 0
2117 2116 -78 0
-2118 2117 79 0
-2118 -2117 -79 0
2118 -2117 79 0
2118 2117 -79 0
-2119 2118 81 0
-2119 -2118 -81 0
2119 -2118 81 0
2119 2118 -81 0
-2120 2119 85 0
-2120 -2119 -85 0
2120 -2119 85 0
2120 2119 -85 0
-2121 2120 88 0
-2121 -2120 -88 0
2121 -2120 88 0
2121 2120 -88 0
-2122 2121 90 0
-2122 -2121 -90 0
2122 -2121 90 0
2122 2121 -90 0
-2123 2122 91 0
-2123 -2122 -91 0
2123 -2122 91 0
2123 2122 -91 0
-2124 2123 92 0
-2124 -2123 -92 0
2124 -2123 92 0
2124 2123 -92 0
-2125 2124 94 0
-2125 -2124 -94 0
2125 -2124 94 0
2125 2124 -94 0
-2126 2125 97 0
-2126 -2125 -97 0
2126 -2125 97 0
2126 2125 -97 0
-2127 2126 98 0
-2127 -2126 -98 0
2127 -2126 98 0
2127 2126 -98 0
-2128 2127 102 0
-2128 -2127 -102 0
2128 -2127 102 0
2128 2127 -102 0
-2129 2128 103 0
-2129 -2128 -103 0
2129 -2128 103 0
2129 2128 -103 0
-2130 2129 143 0
-2130 -2129 -143 0
2130 -2129 143 0
2130 2129 -143 0
-2131 2130 161 0
-2131 -2130 -161 0
2131 -2130 161 0
2131 2130 -161 0
-2132 2131 163 0
-2132 -2131 -163 0
2132 -2131 163 0
2132 2131 -163 0
-2133 2132 165 0
-2133 -2132 -165 0
2133 -2132 165 0
2133 2132 -165 0
-2134 2133 166 0
-2134 -2133 -166 0
2134 -2133 166 0
2134 2133 -166 0
-2135 2134 172 0
-2135 -2134 -172 0
2135 -2134 172 0
2135 2134 -172 0
-2136 2135 173 0
-2136 -2135 -173 0
2136 -2135 173 0
2136 2135 -173 0
-2137 2136 174 0
-2137 -2136 -174 0
2137 -2136 174 0
2137 2136 -174 0
-2138 2137 175 0
-2138 -2137 -175 0
2138 -2137 175 0
2138 2137 -175 0
-2139 2138 178 0
-2139 -2138 -178 0
2139 -2138 178 0
2139 2138 -178 0
-2140 2139 180 0
-2140 -2139 -180 0
2140 -2139 180 0
2140 2139 -180 0
-2141 2140 181 0
-2141 -2140 -181 0
2141 -2140 181 0
2141 2140 -181 0
-2142 2141 182 0
-2142 -2141 -182 0
2142 -2141 182 0
2142 2141 -182 0
-2143 2142 185 0
-2143 -2142 -185 0
2143 -2142 185 0
2143 2142 -185 0
-2144 2143 186 0
-2144 -2143 -186 0
2144 -2143 186 0
2144 2143 -186 0
-2145 2144 188 0
-2145 -2144 -188 0
2145 -2144 188 0
2145 2144 -188 0
-2146 2145 193 0
-2146 -2145 -193 0
2146 -2145 193 0
2146 2145 -193 0
-2147 2146 200 0
-2147 -2146 -200 0
2147 -2146 200 0
2147 2146 -200 0
-2148 2147 201 0
-2148 -2147 -201 0
2148 -2147 201 0
2148 2147 -201 0
-2149 2148 202 0
-2149 -2148 -202 0
2149 -2148 202 0
2149 2148 -202 0
-2150 2149 203 0
-2150 -2149 -203 0
2150 -2149 203 0
2150 2149 -203 0
-2151 2150 204 0
-2151 -2150 -204 0
2151 -2150 204 0
2151 2150 -204 0
-2152 2151 206 0
-2152 -2151 -206 0
2152 -2151 206 0
2152 2151 -206 0
-2153 2152 208 0
-2153 -2152 -208 0
2153 -2152 208 0
2153 2152 -208 0
-2154 2153 209 0
-2154 -2153 -209 0
2154 -2153 209 0
2154 2153 -209 0
-2155 2154 210 0
-2155 -2154 -210 0
2155 -2154 210 0
2155 2154 -210 0
-2156 2155 214 0
-2156 -2155 -214 0
2156 -2155 214 0
2156 2155 -214 0
-2157 2156 216 0
-2157 -2156 -216 0
2157 -2156 216 0
2157 2156 -216 0
-2157 0
-2158 59 61 0
-2158 -59 -61 0
2158 -59 61 0
2158 59 -61 0
-2159 2158 62 0
-2159 -2158 -62 0
2159 -2158 62 0
2159 2158 -62 0
-2160 2159 64 0
-2160 -2159 -64 0
2160 -2159 64 0
2160 2159 -64 0
-2161 2160 65 0
-2161 -2160 -65 0
2161 -2160 65 0
2161 2160 -65 0
-2162 2161 66 0
-2162 -2161 -66 0
2162 -2161 66 0
2162 2161 -66 0
-2163 2162 69 0
-2163 -2162 -69 0
2163 -2162 69 0
2163 2162 -69 0
-2164 2163 70 0
-2164 -2163 -70 0
2164 -2163 70 0
2164 2163 -70 0
-2165 2164 71 0
-2165 -2164 -71 0
2165 -2164 71 0
2165 2164 -71 0
-2166 2165 72 0
-2166 -2165 -72 0
2166 -2165 72 0
2166 2165 -72 0
-2167 2166 73 0
-2167 -2166 -73 0
2167 -2166 73 0
2167 2166 -73 0
-2168 2167 75 0
-2168 -2167 -75 0
2168 -2167 75 0
2168 2167 -75 0
-2169 2168 76 0
-2169 -2168 -76 0
2169 -2168 76 0
2169 2168 -76 0
-2170 2169 77 0
-2170 -2169 -77 0
2170 -2169 77 0
2170 2169 -77 0
-2171 2170 80 0
-2171 -2170 -80 0
2171 -2170 80 0
2171 2170 -80 0
-2172 2171 82 0
-2172 -2171 -82 0
2172 -2171 82 0
2172 2171 -82 0
-2173 2172 85 0
-2173 -2172 -85 0
2173 -2172 85 0
2173 2172 -85 0
-2174 2173 86 0
-2174 -2173 -86 0
2174 -2173 86 0
2174 2173 -86 0
-2175 2174 89 0
-2175 -2174 -89 0
2175 -2174 89 0
2175 2174 -89 0
-2176 2175 92 0
-2176 -2175 -92 0
2176 -2175 92 0
2176 2175 -92 0
-2177 2176 93 0
-2177 -2176 -93 0
2177 -2176 93 0
2177 2176 -93 0
-2178 2177 95 0
-2178 -2177 -95 0
2178 -2177 95 0
2178 2177 -95 0
-2179 2178 97 0
-2179 -2178 -97 0
2179 -2178 97 0
2179 2178 -97 0
-2180 2179 98 0
-2180 -2179 -98 0
2180 -2179 98 0
2180 2179 -98 0
-2181 2180 99 0
-2181 -2180 -99 0
2181 -2180 99 0
2181 2180 -99 0
-2182 2181 104 0
-2182 -2181 -104 0
2182 -2181 104 0
2182 2181 -104 0
-2183 2182 144 0
-2183 -2182 -144 0
2183 -2182 144 0
2183 2182 -144 0
-2184 2183 162 0
-2184 -2183 -162 0
2184 -2183 162 0
2184 2183 -162 0
-2185 2184 164 0
-2185 -2184 -164 0
2185 -2184 164 0
2185 2184 -164 0
-2186 2185 166 0
-2186 -2185 -166 0
2186 -2185 166 0
2186 2185 -166 0
-2187 2186 167 0
-2187 -2186 -167 0
2187 -2186 167 0
2187 2186 -167 0
-2188 2187 169 0
-2188 -2187 -169 0
2188 -2187 169 0
2188 2187 -169 0
-2189 2188 173 0
-2189 -2188 -173 0
2189 -2188 173 0
2189 2188 -173 0
-2190 2189 174 0
-2190 -2189 -174 0
2190 -2189 174 0
2190 2189 -174 0
-2191 2190 175 0
-2191 -2190 -175 0
2191 -2190 175 0
2191 2190 -175 0
-2192 2191 176 0
-2192 -2191 -176 0
2192 -2191 176 0
2192 2191 -176 0
-2193 2192 179 0
-2193 -2192 -179 0
2193 -2192 179 0
2193 2192 -179 0
-2194 2193 181 0
-2194 -2193 -181 0
2194 -2193 181 0
2194 2193 -181 0
-2195 2194 182 0
-2195 -2194 -182 0
2195 -2194 182 0
2195 2194 -182 0
-2196 2195 183 0
-2196 -2195 -183 0
2196 -2195 183 0
2196 2195 -183 0
-2197 2196 186 0
-2197 -2196 -186 0
2197 -2196 186 0
2197 2196 -186 0
-2198 2197 189 0
-2198 -2197 -189 0
2198 -2197 189 0
2198 2197 -189 0
-2199 2198 194 0
-2199 -2198 -194 0
2199 -2198 194 0
2199 2198 -194 0
-2200 2199 199 0
-2200 -2199 -199 0
2200 -2199 199 0
2200 2199 -199 0
-2201 2200 201 0
-2201 -2200 -201 0
2201 -2200 201 0
2201 2200 -201 0
-2202 2201 202 0
-2202 -2201 -202 0
2202 -2201 202 0
2202 2201 -202 0
-2203 2202 203 0
-2203 -2202 -203 0
2203 -2202 203 0
2203 2202 -203 0
-2204 2203 204 0
-2204 -2203 -204 0
2204 -2203 204 0
2204 2203 -204 0
-2205 2204 205 0
-2205 -2204 -205 0
2205 -2204 205 0
2205 2204 -205 0
-2206 2205 207 0
-2206 -2205 -207 0
2206 -2205 207 0
2206 2205 -207 0
-2207 2206 209 0
-2207 -2206 -209 0
2207 -2206 209 0
2207 2206 -209 0
-2208 2207 210 0
-2208 -2207 -210 0
2208 -2207 210 0
2208 2207 -210 0
-2209 2208 211 0
-2209 -2208 -211 0
2209 -2208 211 0
2209 2208 -211 0
-2210 2209 215 0
-2210 -2209 -215 0
2210 -2209 215 0
2210 2209 -215 0
-2210 0
-2211 54 57 0
-2211 -54 -57 0
2211 -54 57 0
2211 54 -57 0
-2212 2211 63 0
-2212 -2211 -63 0
2212 -2211 63 0
2212 2211 -63 0
-2213 2212 69 0
-2213 -2212 -69 0
2213 -2212 69 0
2213 2212 -69 0
-2214 2213 72 0
-2214 -2213 -72 0
2214 -2213 72 0
2214 2213 -72 0
-2215 2214 73 0
-2215 -2214 -73 0
2215 -2214 73 0
2215 2214 -73 0
-2216 2215 75 0
-2216 -2215 -75 0
2216 -2215 75 0
2216 2215 -75 0
-2217 2216 76 0
-2217 -2216 -76 0
2217 -2216 76 0
2217 2216 -76 0
-2218 2217 78 0
-2218 -2217 -78 0
2218 -2217 78 0
2218 2217 -78 0
-2219 2218 80 0
-2219 -2218 -80 0
2219 -2218 80 0
2219 2218 -80 0
-2220 2219 82 0
-2220 -2219 -82 0
2220 -2219 82 0
2220 2219 -82 0
-2221 2220 83 0
-2221 -2220 -83 0
2221 -2220 83 0
2221 2220 -83 0
-2222 2221 84 0
-2222 -2221 -84 0
2222 -2221 84 0
2222 2221 -84 0
-2223 2222 85 0
-2223 -2222 -85 0
2223 -2222 85 0
2223 2222 -85 0
-2224 2223 88 0
-2224 -2223 -88 0
2224 -2223 88 0
2224 2223 -88 0
-2225 2224 89 0
-2225 -2224 -89 0
2225 -2224 89 0
2225 2224 -89 0
-2226 2225 91 0
-2226 -2225 -91 0
2226 -2225 91 0
2226 2225 -91 0
-2227 2226 93 0
-2227 -2226 -93 0
2227 -2226 93 0
2227 2226 -93 0
-2228 2227 95 0
-2228 -2227 -95 0
2228 -2227 95 0
2228 2227 -95 0
-2229 2228 98 0
-2229 -2228 -98 0
2229 -2228 98 0
2229 2228 -98 0
-2230 2229 102 0
-2230 -2229 -102 0
2230 -2229 102 0
2230 2229 -102 0
-2231 2230 103 0
-2231 -2230 -103 0
2231 -2230 103 0
2231 2230 -103 0
-2232 2231 107 0
-2232 -2231 -107 0
2232 -2231 107 0
2232 2231 -107 0
-2233 2232 108 0
-2233 -2232 -108 0
2233 -2232 108 0
2233 2232 -108 0
-2234 2233 145 0
-2234 -2233 -145 0
2234 -2233 145 0
2234 2233 -145 0
-2235 2234 162 0
-2235 -2234 -162 0
2235 -2234 162 0
2235 2234 -162 0
-2236 2235 163 0
-2236 -2235 -163 0
2236 -2235 163 0
2236 2235 -163 0
-2237 2236 164 0
-2237 -2236 -164 0
2237 -2236 164 0
2237 2236 -164 0
-2238 2237 166 0
-2238 -2237 -166 0
2238 -2237 166 0
2238 2237 -166 0
-2239 2238 169 0
-2239 -2238 -169 0
2239 -2238 169 0
2239 2238 -169 0
-2240 2239 170 0
-2240 -2239 -170 0
2240 -2239 170 0
2240 2239 -170 0
-2241 2240 171 0
-2241 -2240 -171 0
2241 -2240 171 0
2241 2240 -171 0
-2242 2241 175 0
-2242 -2241 -175 0
2242 -2241 175 0
2242 2241 -175 0
-2243 2242 180 0
-2243 -2242 -180 0
2243 -2242 180 0
2243 2242 -180 0
-2244 2243 181 0
-2244 -2243 -181 0
2244 -2243 181 0
2244 2243 -181 0
-2245 2244 182 0
-2245 -2244 -182 0
2245 -2244 182 0
2245 2244 -182 0
-2246 2245 183 0
-2246 -2245 -183 0
2246 -2245 183 0
2246 2245 -183 0
-2247 2246 185 0
-2247 -2246 -185 0
2247 -2246 185 0
2247 2246 -185 0
-2248 2247 186 0
-2248 -2247 -186 0
2248 -2247 186 0
2248 2247 -186 0
-2249 2248 187 0
-2249 -2248 -187 0
2249 -2248 187 0
2249 2248 -187 0
-2250 2249 190 0
-2250 -2249 -190 0
2250 -2249 190 0
2250 2249 -190 0
-2251 2250 191 0
-2251 -2250 -191 0
2251 -2250 191 0
2251 2250 -191 0
-2252 2251 192 0
-2252 -2251 -192 0
2252 -2251 192 0
2252 2251 -192 0
-2253 2252 194 0
-2253 -2252 -194 0
2253 -2252 194 0
2253 2252 -194 0
-2254 2253 196 0
-2254 -2253 -196 0
2254 -2253 196 0
2254 2253 -196 0
-2255 2254 197 0
-2255 -2254 -197 0
2255 -2254 197 0
2255 2254 -197 0
-2256 2255 198 0
-2256 -2255 -198 0
2256 -2255 198 0
2256 2255 -198 0
-2257 2256 201 0
-2257 -2256 -201 0
2257 -2256 201 0
2257 2256 -201 0
-2258 2257 203 0
-2258 -2257 -203 0
2258 -2257 203 0
2258 2257 -203 0
-2259 2258 206 0
-2259 -2258 -206 0
2259 -2258 206 0
2259 2258 -206 0
-2260 2259 207 0
-2260 -2259 -207 0
2260 -2259 207 0
2260 2259 -207 0
-2261 2260 211 0
-2261 -2260 -211 0
2261 -2260 211 0
2261 2260 -211 0
-2262 2261 212 0
-2262 -2261 -212 0
2262 -2261 212 0
2262 2261 -212 0
-2263 2262 215 0
-2263 -2262 -215 0
2263 -2262 215 0
2263 2262 -215 0
-2263 0
-2264 53 61 0
-2264 -53 -61 0
2264 -53 61 0
2264 53 -61 0
-2265 2264 62 0
-2265 -2264 -62 0
2265 -2264 62 0
2265 2264 -62 0
-2266 2265 63 0
-2266 -2265 -63 0
2266 -2265 63 0
2266 2265 -63 0
-2267 2266 66 0
-2267 -2266 -66 0
2267 -2266 66 0
2267 2266 -66 0
-2268 2267 68 0
-2268 -2267 -68 0
2268 -2267 68 0
2268 2267 -68 0
-2269 2268 70 0
-2269 -2268 -70 0
2269 -2268 70 0
2269 2268 -70 0
-2270 2269 73 0
-2270 -2269 -73 0
2270 -2269 73 0
2270 2269 -73 0
-2271 2270 74 0
-2271 -2270 -74 0
2271 -2270 74 0
2271 2270 -74 0
-2272 2271 76 0
-2272 -2271 -76 0
2272 -2271 76 0
2272 2271 -76 0
-2273 2272 78 0
-2273 -2272 -78 0
2273 -2272 78 0
2273 2272 -78 0
-2274 2273 79 0
-2274 -2273 -79 0
2274 -2273 79 0
2274 2273 -79 0
-2275 2274 80 0
-2275 -2274 -80 0
2275 -2274 80 0
2275 2274 -80 0
-2276 2275 82 0
-2276 -2275 -82 0
2276 -2275 82 0
2276 2275 -82 0
-2277 2276 84 0
-2277 -2276 -84 0
2277 -2276 84 0
2277 2276 -84 0
-2278 2277 86 0
-2278 -2277 -86 0
2278 -2277 86 0
2278 2277 -86 0
-2279 2278 88 0
-2279 -2278 -88 0
2279 -2278 88 0
2279 2278 -88 0
-2280 2279 90 0
-2280 -2279 -90 0
2280 -2279 90 0
2280 2279 -90 0
-2281 2280 93 0
-2281 -2280 -93 0
2281 -2280 93 0
2281 2280 -93 0
-2282 2281 95 0
-2282 -2281 -95 0
2282 -2281 95 0
2282 2281 -95 0
-2283 2282 96 0
-2283 -2282 -96 0
2283 -2282 96 0
2283 2282 -96 0
-2284 2283 98 0
-2284 -2283 -98 0
2284 -2283 98 0
2284 2283 -98 0
-2285 2284 102 0
-2285 -2284 -102 0
2285 -2284 102 0
2285 2284 -102 0
-2286 2285 104 0
-2286 -2285 -104 0
2286 -2285 104 0
2286 2285 -104 0
-2287 2286 105 0
-2287 -2286 -105 0
2287 -2286 105 0
2287 2286 -105 0
-2288 2287 107 0
-2288 -2287 -107 0
2288 -2287 107 0
2288 2287 -107 0
-2289 2288 108 0
-2289 -2288 -108 0
2289 -2288 108 0
2289 2288 -108 0
-2290 2289 146 0
-2290 -2289 -146 0
2290 -2289 146 0
2290 2289 -146 0
-2291 2290 161 0
-2291 -2290 -161 0
2291 -2290 161 0
2291 2290 -161 0
-2292 2291 162 0
-2292 -2291 -162 0
2292 -2291 162 0
2292 2291 -162 0
-2293 2292 163 0
-2293 -2292 -163 0
2293 -2292 163 0
2293 2292 -163 0
-2294 2293 166 0
-2294 -2293 -166 0
2294 -2293 166 0
2294 2293 -166 0
-2295 2294 168 0
-2295 -2294 -168 0
2295 -2294 168 0
2295 2294 -168 0
-2296 2295 171 0
-2296 -2295 -171 0
2296 -2295 171 0
2296 2295 -171 0
-2297 2296 172 0
-2297 -2296 -172 0
2297 -2296 172 0
2297 2296 -172 0
-2298 2297 173 0
-2298 -2297 -173 0
2298 -2297 173 0
2298 2297 -173 0
-2299 2298 180 0
-2299 -2298 -180 0
2299 -2298 180 0
2299 2298 -180 0
-2300 2299 181 0
-2300 -2299 -181 0
2300 -2299 181 0
2300 2299 -181 0
-2301 2300 182 0
-2301 -2300 -182 0
2301 -2300 182 0
2301 2300 -182 0
-2302 2301 185 0
-2302 -2301 -185 0
2302 -2301 185 0
2302 2301 -185 0
-2303 2302 186 0
-2303 -2302 -186 0
2303 -2302 186 0
2303 2302 -186 0
-2304 2303 187 0
-2304 -2303 -187 0
2304 -2303 187 0
2304 2303 -187 0
-2305 2304 188 0
-2305 -2304 -188 0
2305 -2304 188 0
2305 2304 -188 0
-2306 2305 190 0
-2306 -2305 -190 0
2306 -2305 190 0
2306 2305 -190 0
-2307 2306 194 0
-2307 -2306 -194 0
2307 -2306 194 0
2307 2306 -194 0
-2308 2307 196 0
-2308 -2307 -196 0
2308 -2307 196 0
2308 2307 -196 0
-2309 2308 199 0
-2309 -2308 -199 0
2309 -2308 199 0
2309 2308 -199 0
-2310 2309 200 0
-2310 -2309 -200 0
2310 -2309 200 0
2310 2309 -200 0
-2311 2310 201 0
-2311 -2310 -201 0
2311 -2310 201 0
2311 2310 -201 0
-2312 2311 202 0
-2312 -2311 -202 0
2312 -2311 202 0
2312 2311 -202 0
-2313 2312 204 0
-2313 -2312 -204 0
2313 -2312 204 0
2313 2312 -204 0
-2314 2313 206 0
-2314 -2313 -206 0
2314 -2313 206 0
2314 2313 -206 0
-2315 2314 208 0
-2315 -2314 -208 0
2315 -2314 208 0
2315 2314 -208 0
-2316 2315 209 0
-2316 -2315 -209 0
2316 -2315 209 0
2316 2315 -209 0
-2317 2316 210 0
-2317 -2316 -210 0
2317 -2316 210 0
2317 2316 -210 0
-2318 2317 212 0
-2318 -2317 -212 0
2318 -2317 212 0
2318 2317 -212 0
-2319 2318 213 0
-2319 -2318 -213 0
2319 -2318 213 0
2319 2318 -213 0
-2320 2319 214 0
-2320 -2319 -214 0
2320 -2319 214 0
2320 2319 -214 0
-2321 2320 215 0
-2321 -2320 -215 0
2321 -2320 215 0
2321 2320 -215 0
-2321 0
-2322 58 66 0
-2322 -58 -66 0
2322 -58 66 0
2322 58 -66 0
-2323 2322 67 0
-2323 -2322 -67 0
2323 -2322 67 0
2323 2322 -67 0
-2324 2323 68 0
-2324 -2323 -68 0
2324 -2323 68 0
2324 2323 -68 0
-2325 2324 69 0
-2325 -2324 -69 0
2325 -2324 69 0
2325 2324 -69 0
-2326 2325 71 0
-2326 -2325 -71 0
2326 -2325 71 0
2326 2325 -71 0
-2327 2326 73 0
-2327 -2326 -73 0
2327 -2326 73 0
2327 2326 -73 0
-2328 2327 74 0
-2328 -2327 -74 0
2328 -2327 74 0
2328 2327 -74 0
-2329 2328 75 0
-2329 -2328 -75 0
2329 -2328 75 0
2329 2328 -75 0
-2330 2329 78 0
-2330 -2329 -78 0
2330 -2329 78 0
2330 2329 -78 0
-2331 2330 80 0
-2331 -2330 -80 0
2331 -2330 80 0
2331 2330 -80 0
-2332 2331 81 0
-2332 -2331 -81 0
2332 -2331 81 0
2332 2331 -81 0
-2333 2332 83 0
-2333 -2332 -83 0
2333 -2332 83 0
2333 2332 -83 0
-2334 2333 84 0
-2334 -2333 -84 0
2334 -2333 84 0
2334 2333 -84 0
-2335 2334 88 0
-2335 -2334 -88 0
2335 -2334 88 0
2335 2334 -88 0
-2336 2335 89 0
-2336 -2335 -89 0
2336 -2335 89 0
2336 2335 -89 0
-2337 2336 91 0
-2337 -2336 -91 0
2337 -2336 91 0
2337 2336 -91 0
-2338 2337 92 0
-2338 -2337 -92 0
2338 -2337 92 0
2338 2337 -92 0
-2339 2338 95 0
-2339 -2338 -95 0
2339 -2338 95 0
2339 2338 -95 0
-2340 2339 97 0
-2340 -2339 -97 0
2340 -2339 97 0
2340 2339 -97 0
-2341 2340 103 0
-2341 -2340 -103 0
2341 -2340 103 0
2341 2340 -103 0
-2342 2341 106 0
-2342 -2341 -106 0
2342 -2341 106 0
2342 2341 -106 0
-2343 2342 147 0
-2343 -2342 -147 0
2343 -2342 147 0
2343 2342 -147 0
-2344 2343 161 0
-2344 -2343 -161 0
2344 -2343 161 0
2344 2343 -161 0
-2345 2344 165 0
-2345 -2344 -165 0
2345 -2344 165 0
2345 2344 -165 0
-2346 2345 166 0
-2346 -2345 -166 0
2346 -2345 166 0
2346 2345 -166 0
-2347 2346 168 0
-2347 -2346 -168 0
2347 -2346 168 0
2347 2346 -168 0
-2348 2347 170 0
-2348 -2347 -170 0
2348 -2347 170 0
2348 2347 -170 0
-2349 2348 172 0
-2349 -2348 -172 0
2349 -2348 172 0
2349 2348 -172 0
-2350 2349 174 0
-2350 -2349 -174 0
2350 -2349 174 0
2350 2349 -174 0
-2351 2350 176 0
-2351 -2350 -176 0
2351 -2350 176 0
2351 2350 -176 0
-2352 2351 180 0
-2352 -2351 -180 0
2352 -2351 180 0
2352 2351 -180 0
-2353 2352 181 0
-2353 -2352 -181 0
2353 -2352 181 0
2353 2352 -181 0
-2354 2353 182 0
-2354 -2353 -182 0
2354 -2353 182 0
2354 2353 -182 0
-2355 2354 184 0
-2355 -2354 -184 0
2355 -2354 184 0
2355 2354 -184 0
-2356 2355 185 0
-2356 -2355 -185 0
2356 -2355 185 0
2356 2355 -185 0
-2357 2356 186 0
-2357 -2356 -186 0
2357 -2356 186 0
2357 2356 -186 0
-2358 2357 188 0
-2358 -2357 -188 0
2358 -2357 188 0
2358 2357 -188 0
-2359 2358 189 0
-2359 -2358 -189 0
2359 -2358 189 0
2359 2358 -189 0
-2360 2359 190 0
-2360 -2359 -190 0
2360 -2359 190 0
2360 2359 -190 0
-2361 2360 192 0
-2361 -2360 -192 0
2361 -2360 192 0
2361 2360 -192 0
-2362 2361 193 0
-2362 -2361 -193 0
2362 -2361 193 0
2362 2361 -193 0
-2363 2362 194 0
-2363 -2362 -194 0
2363 -2362 194 0
2363 2362 -194 0
-2364 2363 196 0
-2364 -2363 -196 0
2364 -2363 196 0
2364 2363 -196 0
-2365 2364 198 0
-2365 -2364 -198 0
2365 -2364 198 0
2365 2364 -198 0
-2366 2365 202 0
-2366 -2365 -202 0
2366 -2365 202 0
2366 2365 -202 0
-2367 2366 203 0
-2367 -2366 -203 0
2367 -2366 203 0
2367 2366 -203 0
-2368 2367 205 0
-2368 -2367 -205 0
2368 -2367 205 0
2368 2367 -205 0
-2369 2368 206 0
-2369 -2368 -206 0
2369 -2368 206 0
2369 2368 -206 0
-2370 2369 213 0
-2370 -2369 -213 0
2370 -2369 213 0
2370 2369 -213 0
-2370 0
-2371 59 61 0
-2371 -59 -61 0
2371 -59 61 0
2371 59 -61 0
-2372 2371 68 0
-2372 -2371 -68 0
2372 -2371 68 0
2372 2371 -68 0
-2373 2372 69 0
-2373 -2372 -69 0
2373 -2372 69 0
2373 2372 -69 0
-2374 2373 70 0
-2374 -2373 -70 0
2374 -2373 70 0
2374 2373 -70 0
-2375 2374 72 0
-2375 -2374 -72 0
2375 -2374 72 0
2375 2374 -72 0
-2376 2375 73 0
-2376 -2375 -73 0
2376 -2375 73 0
2376 2375 -73 0
-2377 2376 74 0
-2377 -2376 -74 0
2377 -2376 74 0
2377 2376 -74 0
-2378 2377 75 0
-2378 -2377 -75 0
2378 -2377 75 0
2378 2377 -75 0
-2379 2378 76 0
-2379 -2378 -76 0
2379 -2378 76 0
2379 2378 -76 0
-2380 2379 79 0
-2380 -2379 -79 0
2380 -2379 79 0
2380 2379 -79 0
-2381 2380 81 0
-2381 -2380 -81 0
2381 -2380 81 0
2381 2380 -81 0
-2382 2381 82 0
-2382 -2381 -82 0
2382 -2381 82 0
2382 2381 -82 0
-2383 2382 84 0
-2383 -2382 -84 0
2383 -2382 84 0
2383 2382 -84 0
-2384 2383 89 0
-2384 -2383 -89 0
2384 -2383 89 0
2384 2383 -89 0
-2385 2384 90 0
-2385 -2384 -90 0
2385 -2384 90 0
2385 2384 -90 0
-2386 2385 92 0
-2386 -2385 -92 0
2386 -2385 92 0
2386 2385 -92 0
-2387 2386 93 0
-2387 -2386 -93 0
2387 -2386 93 0
2387 2386 -93 0
-2388 2387 96 0
-2388 -2387 -96 0
2388 -2387 96 0
2388 2387 -96 0
-2389 2388 98 0
-2389 -2388 -98 0
2389 -2388 98 0
2389 2388 -98 0
-2390 2389 104 0
-2390 -2389 -104 0
2390 -2389 104 0
2390 2389 -104 0
-2391 2390 107 0
-2391 -2390 -107 0
2391 -2390 107 0
2391 2390 -107 0
-2392 2391 148 0
-2392 -2391 -148 0
2392 -2391 148 0
2392 2391 -148 0
-2393 2392 162 0
-2393 -2392 -162 0
2393 -2392 162 0
2393 2392 -162 0
-2394 2393 163 0
-2394 -2393 -163 0
2394 -2393 163 0
2394 2393 -163 0
-2395 2394 166 0
-2395 -2394 -166 0
2395 -2394 166 0
2395 2394 -166 0
-2396 2395 167 0
-2396 -2395 -167 0
2396 -2395 167 0
2396 2395 -167 0
-2397 2396 169 0
-2397 -2396 -169 0
2397 -2396 169 0
2397 2396 -169 0
-2398 2397 171 0
-2398 -2397 -171 0
2398 -2397 171 0
2398 2397 -171 0
-2399 2398 173 0
-2399 -2398 -173 0
2399 -2398 173 0
2399 2398 -173 0
-2400 2399 175 0
-2400 -2399 -175 0
2400 -2399 175 0
2400 2399 -175 0
-2401 2400 177 0
-2401 -2400 -177 0
2401 -2400 177 0
2401 2400 -177 0
-2402 2401 181 0
-2402 -2401 -181 0
2402 -2401 181 0
2402 2401 -181 0
-2403 2402 182 0
-2403 -2402 -182 0
2403 -2402 182 0
2403 2402 -182 0
-2404 2403 183 0
-2404 -2403 -183 0
2404 -2403 183 0
2404 2403 -183 0
-2405 2404 185 0
-2405 -2404 -185 0
2405 -2404 185 0
2405 2404 -185 0
-2406 2405 186 0
-2406 -2405 -186 0
2406 -2405 186 0
2406 2405 -186 0
-2407 2406 187 0
-2407 -2406 -187 0
2407 -2406 187 0
2407 2406 -187 0
-2408 2407 189 0
-2408 -2407 -189 0
2408 -2407 189 0
2408 2407 -189 0
-2409 2408 190 0
-2409 -2408 -190 0
2409 -2408 190 0
2409 2408 -190 0
-2410 2409 191 0
-2410 -2409 -191 0
2410 -2409 191 0
2410 2409 -191 0
-2411 2410 193 0
-2411 -2410 -193 0
2411 -2410 193 0
2411 2410 -193 0
-2412 2411 194 0
-2412 -2411 -194 0
2412 -2411 194 0
2412 2411 -194 0
-2413 2412 195 0
-2413 -2412 -195 0
2413 -2412 195 0
2413 2412 -195 0
-2414 2413 197 0
-2414 -2413 -197 0
2414 -2413 197 0
2414 2413 -197 0
-2415 2414 203 0
-2415 -2414 -203 0
2415 -2414 203 0
2415 2414 -203 0
-2416 2415 204 0
-2416 -2415 -204 0
2416 -2415 204 0
2416 2415 -204 0
-2417 2416 206 0
-2417 -2416 -206 0
2417 -2416 206 0
2417 2416 -206 0
-2418 2417 207 0
-2418 -2417 -207 0
2418 -2417 207 0
2418 2417 -207 0
-2419 2418 214 0
-2419 -2418 -214 0
2419 -2418 214 0
2419 2418 -214 0
-2419 0
-2420 54 58 0
-2420 -54 -58 0
2420 -54 58 0
2420 54 -58 0
-2421 2420 60 0
-2421 -2420 -60 0
2421 -2420 60 0
2421 2420 -60 0
-2422 2421 61 0
-2422 -2421 -61 0
2422 -2421 61 0
2422 2421 -61 0
-2423 2422 63 0
-2423 -2422 -63 0
2423 -2422 63 0
2423 2422 -63 0
-2424 2423 64 0
-2424 -2423 -64 0
2424 -2423 64 0
2424 2423 -64 0
-2425 2424 66 0
-2425 -2424 -66 0
2425 -2424 66 0
2425 2424 -66 0
-2426 2425 68 0
-2426 -2425 -68 0
2426 -2425 68 0
2426 2425 -68 0
-2427 2426 69 0
-2427 -2426 -69 0
2427 -2426 69 0
2427 2426 -69 0
-2428 2427 70 0
-2428 -2427 -70 0
2428 -2427 70 0
2428 2427 -70 0
-2429 2428 71 0
-2429 -2428 -71 0
2429 -2428 71 0
2429 2428 -71 0
-2430 2429 74 0
-2430 -2429 -74 0
2430 -2429 74 0
2430 2429 -74 0
-2431 2430 75 0
-2431 -2430 -75 0
2431 -2430 75 0
2431 2430 -75 0
-2432 2431 76 0
-2432 -2431 -76 0
2432 -2431 76 0
2432 2431 -76 0
-2433 2432 78 0
-2433 -2432 -78 0
2433 -2432 78 0
2433 2432 -78 0
-2434 2433 80 0
-2434 -2433 -80 0
2434 -2433 80 0
2434 2433 -80 0
-2435 2434 82 0
-2435 -2434 -82 0
2435 -2434 82 0
2435 2434 -82 0
-2436 2435 83 0
-2436 -2435 -83 0
2436 -2435 83 0
2436 2435 -83 0
-2437 2436 84 0
-2437 -2436 -84 0
2437 -2436 84 0
2437 2436 -84 0
-2438 2437 87 0
-2438 -2437 -87 0
2438 -2437 87 0
2438 2437 -87 0
-2439 2438 88 0
-2439 -2438 -88 0
2439 -2438 88 0
2439 2438 -88 0
-2440 2439 90 0
-2440 -2439 -90 0
2440 -2439 90 0
2440 2439 -90 0
-2441 2440 91 0
-2441 -2440 -91 0
2441 -2440 91 0
2441 2440 -91 0
-2442 2441 92 0
-2442 -2441 -92 0
2442 -2441 92 0
2442 2441 -92 0
-2443 2442 93 0
-2443 -2442 -93 0
2443 -2442 93 0
2443 2442 -93 0
-2444 2443 95 0
-2444 -2443 -95 0
2444 -2443 95 0
2444 2443 -95 0
-2445 2444 96 0
-2445 -2444 -96 0
2445 -2444 96 0
2445 2444 -96 0
-2446 2445 149 0
-2446 -2445 -149 0
2446 -2445 149 0
2446 2445 -149 0
-2447 2446 161 0
-2447 -2446 -161 0
2447 -2446 161 0
2447 2446 -161 0
-2448 2447 162 0
-2448 -2447 -162 0
2448 -2447 162 0
2448 2447 -162 0
-2449 2448 163 0
-2449 -2448 -163 0
2449 -2448 163 0
2449 2448 -163 0
-2450 2449 165 0
-2450 -2449 -165 0
2450 -2449 165 0
2450 2449 -165 0
-2451 2450 166 0
-2451 -2450 -166 0
2451 -2450 166 0
2451 2450 -166 0
-2452 2451 172 0
-2452 -2451 -172 0
2452 -2451 172 0
2452 2451 -172 0
-2453 2452 173 0
-2453 -2452 -173 0
2453 -2452 173 0
2453 2452 -173 0
-2454 2453 174 0
-2454 -2453 -174 0
2454 -2453 174 0
2454 2453 -174 0
-2455 2454 175 0
-2455 -2454 -175 0
2455 -2454 175 0
2455 2454 -175 0
-2456 2455 178 0
-2456 -2455 -178 0
2456 -2455 178 0
2456 2455 -178 0
-2457 2456 180 0
-2457 -2456 -180 0
2457 -2456 180 0
2457 2456 -180 0
-2458 2457 181 0
-2458 -2457 -181 0
2458 -2457 181 0
2458 2457 -181 0
-2459 2458 182 0
-2459 -2458 -182 0
2459 -2458 182 0
2459 2458 -182 0
-2460 2459 185 0
-2460 -2459 -185 0
2460 -2459 185 0
2460 2459 -185 0
-2461 2460 186 0
-2461 -2460 -186 0
2461 -2460 186 0
2461 2460 -186 0
-2462 2461 188 0
-2462 -2461 -188 0
2462 -2461 188 0
2462 2461 -188 0
-2463 2462 193 0
-2463 -2462 -193 0
2463 -2462 193 0
2463 2462 -193 0
-2464 2463 197 0
-2464 -2463 -197 0
2464 -2463 197 0
2464 2463 -197 0
-2465 2464 200 0
-2465 -2464 -200 0
2465 -2464 200 0
2465 2464 -200 0
-2466 2465 201 0
-2466 -2465 -201 0
2466 -2465 201 0
2466 2465 -201 0
-2467 2466 204 0
-2467 -2466 -204 0
2467 -2466 204 0
2467 2466 -204 0
-2468 2467 206 0
-2468 -2467 -206 0
2468 -2467 206 0
2468 2467 -206 0
-2469 2468 208 0
-2469 -2468 -208 0
2469 -2468 208 0
2469 2468 -208 0
-2470 2469 209 0
-2470 -2469 -209 0
2470 -2469 209 0
2470 2469 -209 0
-2471 2470 210 0
-2471 -2470 -210 0
2471 -2470 210 0
2471 2470 -210 0
-2472 2471 214 0
-2472 -2471 -214 0
2472 -2471 214 0
2472 2471 -214 0
-2473 2472 216 0
-2473 -2472 -216 0
2473 -2472 216 0
2473 2472 -216 0
-2473 0
-2474 53 57 0
-2474 -53 -57 0
2474 -53 57 0
2474 53 -57 0
-2475 2474 59 0
-2475 -2474 -59 0
2475 -2474 59 0
2475 2474 -59 0
-2476 2475 60 0
-2476 -2475 -60 0
2476 -2475 60 0
2476 2475 -60 0
-2477 2476 61 0
-2477 -2476 -61 0
2477 -2476 61 0
2477 2476 -61 0
-2478 2477 62 0
-2478 -2477 -62 0
2478 -2477 62 0
2478 2477 -62 0
-2479 2478 63 0
-2479 -2478 -63 0
2479 -2478 63 0
2479 2478 -63 0
-2480 2479 64 0
-2480 -2479 -64 0
2480 -2479 64 0
2480 2479 -64 0
-2481 2480 66 0
-2481 -2480 -66 0
2481 -2480 66 0
2481 2480 -66 0
-2482 2481 67 0
-2482 -2481 -67 0
2482 -2481 67 0
2482 2481 -67 0
-2483 2482 70 0
-2483 -2482 -70 0
2483 -2482 70 0
2483 2482 -70 0
-2484 2483 83 0
-2484 -2483 -83 0
2484 -2483 83 0
2484 2483 -83 0
-2485 2484 84 0
-2485 -2484 -84 0
2485 -2484 84 0
2485 2484 -84 0
-2486 2485 85 0
-2486 -2485 -85 0
2486 -2485 85 0
2486 2485 -85 0
-2487 2486 86 0
-2487 -2486 -86 0
2487 -2486 86 0
2487 2486 -86 0
-2488 2487 87 0
-2488 -2487 -87 0
2488 -2487 87 0
2488 2487 -87 0
-2489 2488 89 0
-2489 -2488 -89 0
2489 -2488 89 0
2489 2488 -89 0
-2490 2489 90 0
-2490 -2489 -90 0
2490 -2489 90 0
2490 2489 -90 0
-2491 2490 93 0
-2491 -2490 -93 0
2491 -2490 93 0
2491 2490 -93 0
-2492 2491 94 0
-2492 -2491 -94 0
2492 -2491 94 0
2492 2491 -94 0
-2493 2492 95 0
-2493 -2492 -95 0
2493 -2492 95 0
2493 2492 -95 0
-2494 2493 99 0
-2494 -2493 -99 0
2494 -2493 99 0
2494 2493 -99 0
-2495 2494 100 0
-2495 -2494 -100 0
2495 -2494 100 0
2495 2494 -100 0
-2496 2495 101 0
-2496 -2495 -101 0
2496 -2495 101 0
2496 2495 -101 0
-2497 2496 102 0
-2497 -2496 -102 0
2497 -2496 102 0
2497 2496 -102 0
-2498 2497 103 0
-2498 -2497 -103 0
2498 -2497 103 0
2498 2497 -103 0
-2499 2498 104 0
-2499 -2498 -104 0
2499 -2498 104 0
2499 2498 -104 0
-2500 2499 108 0
-2500 -2499 -108 0
2500 -2499 108 0
2500 2499 -108 0
-2501 2500 150 0
-2501 -2500 -150 0
2501 -2500 150 0
2501 2500 -150 0
-2502 2501 161 0
-2502 -2501 -161 0
2502 -2501 161 0
2502 2501 -161 0
-2503 2502 163 0
-2503 -2502 -163 0
2503 -2502 163 0
2503 2502 -163 0
-2504 2503 165 0
-2504 -2503 -165 0
2504 -2503 165 0
2504 2503 -165 0
-2505 2504 168 0
-2505 -2504 -168 0
2505 -2504 168 0
2505 2504 -168 0
-2506 2505 169 0
-2506 -2505 -169 0
2506 -2505 169 0
2506 2505 -169 0
-2507 2506 170 0
-2507 -2506 -170 0
2507 -2506 170 0
2507 2506 -170 0
-2508 2507 174 0
-2508 -2507 -174 0
2508 -2507 174 0
2508 2507 -174 0
-2509 2508 179 0
-2509 -2508 -179 0
2509 -2508 179 0
2509 2508 -179 0
-2510 2509 180 0
-2510 -2509 -180 0
2510 -2509 180 0
2510 2509 -180 0
-2511 2510 181 0
-2511 -2510 -181 0
2511 -2510 181 0
2511 2510 -181 0
-2512 2511 182 0
-2512 -2511 -182 0
2512 -2511 182 0
2512 2511 -182 0
-2513 2512 184 0
-2513 -2512 -184 0
2513 -2512 184 0
2513 2512 -184 0
-2514 2513 185 0
-2514 -2513 -185 0
2514 -2513 185 0
2514 2513 -185 0
-2515 2514 186 0
-2515 -2514 -186 0
2515 -2514 186 0
2515 2514 -186 0
-2516 2515 189 0
-2516 -2515 -189 0
2516 -2515 189 0
2516 2515 -189 0
-2517 2516 190 0
-2517 -2516 -190 0
2517 -2516 190 0
2517 2516 -190 0
-2518 2517 191 0
-2518 -2517 -191 0
2518 -2517 191 0
2518 2517 -191 0
-2519 2518 192 0
-2519 -2518 -192 0
2519 -2518 192 0
2519 2518 -192 0
-2520 2519 193 0
-2520 -2519 -193 0
2520 -2519 193 0
2520 2519 -193 0
-2521 2520 195 0
-2521 -2520 -195 0
2521 -2520 195 0
2521 2520 -195 0
-2522 2521 196 0
-2522 -2521 -196 0
2522 -2521 196 0
2522 2521 -196 0
-2523 2522 197 0
-2523 -2522 -197 0
2523 -2522 197 0
2523 2522 -197 0
-2524 2523 200 0
-2524 -2523 -200 0
2524 -2523 200 0
2524 2523 -200 0
-2525 2524 202 0
-2525 -2524 -202 0
2525 -2524 202 0
2525 2524 -202 0
-2526 2525 205 0
-2526 -2525 -205 0
2526 -2525 205 0
2526 2525 -205 0
-2527 2526 206 0
-2527 -2526 -206 0
2527 -2526 206 0
2527 2526 -206 0
-2528 2527 211 0
-2528 -2527 -211 0
2528 -2527 211 0
2528 2527 -211 0
-2529 2528 214 0
-2529 -2528 -214 0
2529 -2528 214 0
2529 2528 -214 0
-2530 2529 216 0
-2530 -2529 -216 0
2530 -2529 216 0
2530 2529 -216 0
-2530 0
-2531 57 58 0
-2531 -57 -58 0
2531 -57 58 0
2531 57 -58 0
-2532 2531 59 0
-2532 -2531 -59 0
2532 -2531 59 0
2532 2531 -59 0
-2533 2532 60 0
-2533 -2532 -60 0
2533 -2532 60 0
2533 2532 -60 0
-2534 2533 61 0
-2534 -2533 -61 0
2534 -2533 61 0
2534 2533 -61 0
-2535 2534 63 0
-2535 -2534 -63 0
2535 -2534 63 0
2535 2534 -63 0
-2536 2535 64 0
-2536 -2535 -64 0
2536 -2535 64 0
2536 2535 -64 0
-2537 2536 67 0
-2537 -2536 -67 0
2537 -2536 67 0
2537 2536 -67 0
-2538 2537 68 0
-2538 -2537 -68 0
2538 -2537 68 0
2538 2537 -68 0
-2539 2538 70 0
-2539 -2538 -70 0
2539 -2538 70 0
2539 2538 -70 0
-2540 2539 71 0
-2540 -2539 -71 0
2540 -2539 71 0
2540 2539 -71 0
-2541 2540 73 0
-2541 -2540 -73 0
2541 -2540 73 0
2541 2540 -73 0
-2542 2541 74 0
-2542 -2541 -74 0
2542 -2541 74 0
2542 2541 -74 0
-2543 2542 79 0
-2543 -2542 -79 0
2543 -2542 79 0
2543 2542 -79 0
-2544 2543 82 0
-2544 -2543 -82 0
2544 -2543 82 0
2544 2543 -82 0
-2545 2544 85 0
-2545 -2544 -85 0
2545 -2544 85 0
2545 2544 -85 0
-2546 2545 86 0
-2546 -2545 -86 0
2546 -2545 86 0
2546 2545 -86 0
-2547 2546 87 0
-2547 -2546 -87 0
2547 -2546 87 0
2547 2546 -87 0
-2548 2547 88 0
-2548 -2547 -88 0
2548 -2547 88 0
2548 2547 -88 0
-2549 2548 89 0
-2549 -2548 -89 0
2549 -2548 89 0
2549 2548 -89 0
-2550 2549 90 0
-2550 -2549 -90 0
2550 -2549 90 0
2550 2549 -90 0
-2551 2550 91 0
-2551 -2550 -91 0
2551 -2550 91 0
2551 2550 -91 0
-2552 2551 94 0
-2552 -2551 -94 0
2552 -2551 94 0
2552 2551 -94 0
-2553 2552 95 0
-2553 -2552 -95 0
2553 -2552 95 0
2553 2552 -95 0
-2554 2553 96 0
-2554 -2553 -96 0
2554 -2553 96 0
2554 2553 -96 0
-2555 2554 98 0
-2555 -2554 -98 0
2555 -2554 98 0
2555 2554 -98 0
-2556 2555 100 0
-2556 -2555 -100 0
2556 -2555 100 0
2556 2555 -100 0
-2557 2556 102 0
-2557 -2556 -102 0
2557 -2556 102 0
2557 2556 -102 0
-2558 2557 104 0
-2558 -2557 -104 0
2558 -2557 104 0
2558 2557 -104 0
-2559 2558 106 0
-2559 -2558 -106 0
2559 -2558 106 0
2559 2558 -106 0
-2560 2559 107 0
-2560 -2559 -107 0
2560 -2559 107 0
2560 2559 -107 0
-2561 2560 108 0
-2561 -2560 -108 0
2561 -2560 108 0
2561 2560 -108 0
-2562 2561 151 0
-2562 -2561 -151 0
2562 -2561 151 0
2562 2561 -151 0
-2563 2562 161 0
-2563 -2562 -161 0
2563 -2562 161 0
2563 2562 -161 0
-2564 2563 163 0
-2564 -2563 -163 0
2564 -2563 163 0
2564 2563 -163 0
-2565 2564 164 0
-2565 -2564 -164 0
2565 -2564 164 0
2565 2564 -164 0
-2566 2565 165 0
-2566 -2565 -165 0
2566 -2565 165 0
2566 2565 -165 0
-2567 2566 168 0
-2567 -2566 -168 0
2567 -2566 168 0
2567 2566 -168 0
-2568 2567 170 0
-2568 -2567 -170 0
2568 -2567 170 0
2568 2567 -170 0
-2569 2568 173 0
-2569 -2568 -173 0
2569 -2568 173 0
2569 2568 -173 0
-2570 2569 174 0
-2570 -2569 -174 0
2570 -2569 174 0
2570 2569 -174 0
-2571 2570 176 0
-2571 -2570 -176 0
2571 -2570 176 0
2571 2570 -176 0
-2572 2571 177 0
-2572 -2571 -177 0
2572 -2571 177 0
2572 2571 -177 0
-2573 2572 181 0
-2573 -2572 -181 0
2573 -2572 181 0
2573 2572 -181 0
-2574 2573 184 0
-2574 -2573 -184 0
2574 -2573 184 0
2574 2573 -184 0
-2575 2574 189 0
-2575 -2574 -189 0
2575 -2574 189 0
2575 2574 -189 0
-2576 2575 190 0
-2576 -2575 -190 0
2576 -2575 190 0
2576 2575 -190 0
-2577 2576 192 0
-2577 -2576 -192 0
2577 -2576 192 0
2577 2576 -192 0
-2578 2577 198 0
-2578 -2577 -198 0
2578 -2577 198 0
2578 2577 -198 0
-2579 2578 200 0
-2579 -2578 -200 0
2579 -2578 200 0
2579 2578 -200 0
-2580 2579 203 0
-2580 -2579 -203 0
2580 -2579 203 0
2580 2579 -203 0
-2581 2580 204 0
-2581 -2580 -204 0
2581 -2580 204 0
2581 2580 -204 0
-2582 2581 206 0
-2582 -2581 -206 0
2582 -2581 206 0
2582 2581 -206 0
-2583 2582 208 0
-2583 -2582 -208 0
2583 -2582 208 0
2583 2582 -208 0
-2584 2583 210 0
-2584 -2583 -210 0
2584 -2583 210 0
2584 2583 -210 0
-2585 2584 212 0
-2585 -2584 -212 0
2585 -2584 212 0
2585 2584 -212 0
-2586 2585 214 0
-2586 -2585 -214 0
2586 -2585 214 0
2586 2585 -214 0
-2587 2586 215 0
-2587 -2586 -215 0
2587 -2586 215 0
2587 2586 -215 0
-2587 0
-2588 57 59 0
-2588 -57 -59 0
2588 -57 59 0
2588 57 -59 0
-2589 2588 61 0
-2589 -2588 -61 0
2589 -2588 61 0
2589 2588 -61 0
-2590 2589 73 0
-2590 -2589 -73 0
2590 -2589 73 0
2590 2589 -73 0
-2591 2590 74 0
-2591 -2590 -74 0
2591 -2590 74 0
2591 2590 -74 0
-2592 2591 76 0
-2592 -2591 -76 0
2592 -2591 76 0
2592 2591 -76 0
-2593 2592 78 0
-2593 -2592 -78 0
2593 -2592 78 0
2593 2592 -78 0
-2594 2593 79 0
-2594 -2593 -79 0
2594 -2593 79 0
2594 2593 -79 0
-2595 2594 82 0
-2595 -2594 -82 0
2595 -2594 82 0
2595 2594 -82 0
-2596 2595 85 0
-2596 -2595 -85 0
2596 -2595 85 0
2596 2595 -85 0
-2597 2596 88 0
-2597 -2596 -88 0
2597 -2596 88 0
2597 2596 -88 0
-2598 2597 92 0
-2598 -2597 -92 0
2598 -2597 92 0
2598 2597 -92 0
-2599 2598 93 0
-2599 -2598 -93 0
2599 -2598 93 0
2599 2598 -93 0
-2600 2599 94 0
-2600 -2599 -94 0
2600 -2599 94 0
2600 2599 -94 0
-2601 2600 95 0
-2601 -2600 -95 0
2601 -2600 95 0
2601 2600 -95 0
-2602 2601 98 0
-2602 -2601 -98 0
2602 -2601 98 0
2602 2601 -98 0
-2603 2602 99 0
-2603 -2602 -99 0
2603 -2602 99 0
2603 2602 -99 0
-2604 2603 100 0
-2604 -2603 -100 0
2604 -2603 100 0
2604 2603 -100 0
-2605 2604 103 0
-2605 -2604 -103 0
2605 -2604 103 0
2605 2604 -103 0
-2606 2605 104 0
-2606 -2605 -104 0
2606 -2605 104 0
2606 2605 -104 0
-2607 2606 152 0
-2607 -2606 -152 0
2607 -2606 152 0
2607 2606 -152 0
-2608 2607 162 0
-2608 -2607 -162 0
2608 -2607 162 0
2608 2607 -162 0
-2609 2608 163 0
-2609 -2608 -163 0
2609 -2608 163 0
2609 2608 -163 0
-2610 2609 164 0
-2610 -2609 -164 0
2610 -2609 164 0
2610 2609 -164 0
-2611 2610 165 0
-2611 -2610 -165 0
2611 -2610 165 0
2611 2610 -165 0
-2612 2611 166 0
-2612 -2611 -166 0
2612 -2611 166 0
2612 2611 -166 0
-2613 2612 169 0
-2613 -2612 -169 0
2613 -2612 169 0
2613 2612 -169 0
-2614 2613 171 0
-2614 -2613 -171 0
2614 -2613 171 0
2614 2613 -171 0
-2615 2614 174 0
-2615 -2614 -174 0
2615 -2614 174 0
2615 2614 -174 0
-2616 2615 177 0
-2616 -2615 -177 0
2616 -2615 177 0
2616 2615 -177 0
-2617 2616 178 0
-2617 -2616 -178 0
2617 -2616 178 0
2617 2616 -178 0
-2618 2617 182 0
-2618 -2617 -182 0
2618 -2617 182 0
2618 2617 -182 0
-2619 2618 185 0
-2619 -2618 -185 0
2619 -2618 185 0
2619 2618 -185 0
-2620 2619 187 0
-2620 -2619 -187 0
2620 -2619 187 0
2620 2619 -187 0
-2621 2620 190 0
-2621 -2620 -190 0
2621 -2620 190 0
2621 2620 -190 0
-2622 2621 191 0
-2622 -2621 -191 0
2622 -2621 191 0
2622 2621 -191 0
-2623 2622 193 0
-2623 -2622 -193 0
2623 -2622 193 0
2623 2622 -193 0
-2624 2623 199 0
-2624 -2623 -199 0
2624 -2623 199 0
2624 2623 -199 0
-2625 2624 201 0
-2625 -2624 -201 0
2625 -2624 201 0
2625 2624 -201 0
-2626 2625 204 0
-2626 -2625 -204 0
2626 -2625 204 0
2626 2625 -204 0
-2627 2626 205 0
-2627 -2626 -205 0
2627 -2626 205 0
2627 2626 -205 0
-2628 2627 207 0
-2628 -2627 -207 0
2628 -2627 207 0
2628 2627 -207 0
-2629 2628 209 0
-2629 -2628 -209 0
2629 -2628 209 0
2629 2628 -209 0
-2630 2629 213 0
-2630 -2629 -213 0
2630 -2629 213 0
2630 2629 -213 0
-2631 2630 215 0
-2631 -2630 -215 0
2631 -2630 215 0
2631 2630 -215 0
-2632 2631 216 0
-2632 -2631 -216 0
2632 -2631 216 0
2632 2631 -216 0
-2632 0
-2633 54 60 0
-2633 -54 -60 0
2633 -54 60 0
2633 54 -60 0
-2634 2633 61 0
-2634 -2633 -61 0
2634 -2633 61 0
2634 2633 -61 0
-2635 2634 63 0
-2635 -2634 -63 0
2635 -2634 63 0
2635 2634 -63 0
-2636 2635 64 0
-2636 -2635 -64 0
2636 -2635 64 0
2636 2635 -64 0
-2637 2636 66 0
-2637 -2636 -66 0
2637 -2636 66 0
2637 2636 -66 0
-2638 2637 67 0
-2638 -2637 -67 0
2638 -2637 67 0
2638 2637 -67 0
-2639 2638 68 0
-2639 -2638 -68 0
2639 -2638 68 0
2639 2638 -68 0
-2640 2639 73 0
-2640 -2639 -73 0
2640 -2639 73 0
2640 2639 -73 0
-2641 2640 74 0
-2641 -2640 -74 0
2641 -2640 74 0
2641 2640 -74 0
-2642 2641 75 0
-2642 -2641 -75 0
2642 -2641 75 0
2642 2641 -75 0
-2643 2642 78 0
-2643 -2642 -78 0
2643 -2642 78 0
2643 2642 -78 0
-2644 2643 79 0
-2644 -2643 -79 0
2644 -2643 79 0
2644 2643 -79 0
-2645 2644 80 0
-2645 -2644 -80 0
2645 -2644 80 0
2645 2644 -80 0
-2646 2645 83 0
-2646 -2645 -83 0
2646 -2645 83 0
2646 2645 -83 0
-2647 2646 84 0
-2647 -2646 -84 0
2647 -2646 84 0
2647 2646 -84 0
-2648 2647 85 0
-2648 -2647 -85 0
2648 -2647 85 0
2648 2647 -85 0
-2649 2648 86 0
-2649 -2648 -86 0
2649 -2648 86 0
2649 2648 -86 0
-2650 2649 87 0
-2650 -2649 -87 0
2650 -2649 87 0
2650 2649 -87 0
-2651 2650 88 0
-2651 -2650 -88 0
2651 -2650 88 0
2651 2650 -88 0
-2652 2651 89 0
-2652 -2651 -89 0
2652 -2651 89 0
2652 2651 -89 0
-2653 2652 92 0
-2653 -2652 -92 0
2653 -2652 92 0
2653 2652 -92 0
-2654 2653 93 0
-2654 -2653 -93 0
2654 -2653 93 0
2654 2653 -93 0
-2655 2654 100 0
-2655 -2654 -100 0
2655 -2654 100 0
2655 2654 -100 0
-2656 2655 101 0
-2656 -2655 -101 0
2656 -2655 101 0
2656 2655 -101 0
-2657 2656 104 0
-2657 -2656 -104 0
2657 -2656 104 0
2657 2656 -104 0
-2658 2657 108 0
-2658 -2657 -108 0
2658 -2657 108 0
2658 2657 -108 0
-2659 2658 153 0
-2659 -2658 -153 0
2659 -2658 153 0
2659 2658 -153 0
-2660 2659 161 0
-2660 -2659 -161 0
2660 -2659 161 0
2660 2659 -161 0
-2661 2660 162 0
-2661 -2660 -162 0
2661 -2660 162 0
2661 2660 -162 0
-2662 2661 163 0
-2662 -2661 -163 0
2662 -2661 163 0
2662 2661 -163 0
-2663 2662 168 0
-2663 -2662 -168 0
2663 -2662 168 0
2663 2662 -168 0
-2664 2663 169 0
-2664 -2663 -169 0
2664 -2663 169 0
2664 2663 -169 0
-2665 2664 172 0
-2665 -2664 -172 0
2665 -2664 172 0
2665 2664 -172 0
-2666 2665 173 0
-2666 -2665 -173 0
2666 -2665 173 0
2666 2665 -173 0
-2667 2666 175 0
-2667 -2666 -175 0
2667 -2666 175 0
2667 2666 -175 0
-2668 2667 176 0
-2668 -2667 -176 0
2668 -2667 176 0
2668 2667 -176 0
-2669 2668 178 0
-2669 -2668 -178 0
2669 -2668 178 0
2669 2668 -178 0
-2670 2669 179 0
-2670 -2669 -179 0
2670 -2669 179 0
2670 2669 -179 0
-2671 2670 180 0
-2671 -2670 -180 0
2671 -2670 180 0
2671 2670 -180 0
-2672 2671 184 0
-2672 -2671 -184 0
2672 -2671 184 0
2672 2671 -184 0
-2673 2672 185 0
-2673 -2672 -185 0
2673 -2672 185 0
2673 2672 -185 0
-2674 2673 186 0
-2674 -2673 -186 0
2674 -2673 186 0
2674 2673 -186 0
-2675 2674 188 0
-2675 -2674 -188 0
2675 -2674 188 0
2675 2674 -188 0
-2676 2675 190 0
-2676 -2675 -190 0
2676 -2675 190 0
2676 2675 -190 0
-2677 2676 193 0
-2677 -2676 -193 0
2677 -2676 193 0
2677 2676 -193 0
-2678 2677 195 0
-2678 -2677 -195 0
2678 -2677 195 0
2678 2677 -195 0
-2679 2678 196 0
-2679 -2678 -196 0
2679 -2678 196 0
2679 2678 -196 0
-2680 2679 197 0
-2680 -2679 -197 0
2680 -2679 197 0
2680 2679 -197 0
-2681 2680 198 0
-2681 -2680 -198 0
2681 -2680 198 0
2681 2680 -198 0
-2682 2681 201 0
-2682 -2681 -201 0
2682 -2681 201 0
2682 2681 -201 0
-2683 2682 202 0
-2683 -2682 -202 0
2683 -2682 202 0
2683 2682 -202 0
-2684 2683 207 0
-2684 -2683 -207 0
2684 -2683 207 0
2684 2683 -207 0
-2685 2684 208 0
-2685 -2684 -208 0
2685 -2684 208 0
2685 2684 -208 0
-2686 2685 209 0
-2686 -2685 -209 0
2686 -2685 209 0
2686 2685 -209 0
-2687 2686 211 0
-2687 -2686 -211 0
2687 -2686 211 0
2687 2686 -211 0
-2688 2687 215 0
-2688 -2687 -215 0
2688 -2687 215 0
2688 2687 -215 0
-2688 0
-2689 53 57 0
-2689 -53 -57 0
2689 -53 57 0
2689 53 -57 0
-2690 2689 60 0
-2690 -2689 -60 0
2690 -2689 60 0
2690 2689 -60 0
-2691 2690 61 0
-2691 -2690 -61 0
2691 -2690 61 0
2691 2690 -61 0
-2692 2691 62 0
-2692 -2691 -62 0
2692 -2691 62 0
2692 2691 -62 0
-2693 2692 63 0
-2693 -2692 -63 0
2693 -2692 63 0
2693 2692 -63 0
-2694 2693 64 0
-2694 -2693 -64 0
2694 -2693 64 0
2694 2693 -64 0
-2695 2694 66 0
-2695 -2694 -66 0
2695 -2694 66 0
2695 2694 -66 0
-2696 2695 67 0
-2696 -2695 -67 0
2696 -2695 67 0
2696 2695 -67 0
-2697 2696 68 0
-2697 -2696 -68 0
2697 -2696 68 0
2697 2696 -68 0
-2698 2697 71 0
-2698 -2697 -71 0
2698 -2697 71 0
2698 2697 -71 0
-2699 2698 72 0
-2699 -2698 -72 0
2699 -2698 72 0
2699 2698 -72 0
-2700 2699 74 0
-2700 -2699 -74 0
2700 -2699 74 0
2700 2699 -74 0
-2701 2700 77 0
-2701 -2700 -77 0
2701 -2700 77 0
2701 2700 -77 0
-2702 2701 80 0
-2702 -2701 -80 0
2702 -2701 80 0
2702 2701 -80 0
-2703 2702 84 0
-2703 -2702 -84 0
2703 -2702 84 0
2703 2702 -84 0
-2704 2703 89 0
-2704 -2703 -89 0
2704 -2703 89 0
2704 2703 -89 0
-2705 2704 91 0
-2705 -2704 -91 0
2705 -2704 91 0
2705 2704 -91 0
-2706 2705 92 0
-2706 -2705 -92 0
2706 -2705 92 0
2706 2705 -92 0
-2707 2706 93 0
-2707 -2706 -93 0
2707 -2706 93 0
2707 2706 -93 0
-2708 2707 94 0
-2708 -2707 -94 0
2708 -2707 94 0
2708 2707 -94 0
-2709 2708 95 0
-2709 -2708 -95 0
2709 -2708 95 0
2709 2708 -95 0
-2710 2709 96 0
-2710 -2709 -96 0
2710 -2709 96 0
2710 2709 -96 0
-2711 2710 99 0
-2711 -2710 -99 0
2711 -2710 99 0
2711 2710 -99 0
-2712 2711 100 0
-2712 -2711 -100 0
2712 -2711 100 0
2712 2711 -100 0
-2713 2712 104 0
-2713 -2712 -104 0
2713 -2712 104 0
2713 2712 -104 0
-2714 2713 105 0
-2714 -2713 -105 0
2714 -2713 105 0
2714 2713 -105 0
-2715 2714 108 0
-2715 -2714 -108 0
2715 -2714 108 0
2715 2714 -108 0
-2716 2715 154 0
-2716 -2715 -154 0
2716 -2715 154 0
2716 2715 -154 0
-2717 2716 161 0
-2717 -2716 -161 0
2717 -2716 161 0
2717 2716 -161 0
-2718 2717 165 0
-2718 -2717 -165 0
2718 -2717 165 0
2718 2717 -165 0
-2719 2718 166 0
-2719 -2718 -166 0
2719 -2718 166 0
2719 2718 -166 0
-2720 2719 167 0
-2720 -2719 -167 0
2720 -2719 167 0
2720 2719 -167 0
-2721 2720 168 0
-2721 -2720 -168 0
2721 -2720 168 0
2721 2720 -168 0
-2722 2721 174 0
-2722 -2721 -174 0
2722 -2721 174 0
2722 2721 -174 0
-2723 2722 177 0
-2723 -2722 -177 0
2723 -2722 177 0
2723 2722 -177 0
-2724 2723 179 0
-2724 -2723 -179 0
2724 -2723 179 0
2724 2723 -179 0
-2725 2724 181 0
-2725 -2724 -181 0
2725 -2724 181 0
2725 2724 -181 0
-2726 2725 183 0
-2726 -2725 -183 0
2726 -2725 183 0
2726 2725 -183 0
-2727 2726 184 0
-2727 -2726 -184 0
2727 -2726 184 0
2727 2726 -184 0
-2728 2727 186 0
-2728 -2727 -186 0
2728 -2727 186 0
2728 2727 -186 0
-2729 2728 189 0
-2729 -2728 -189 0
2729 -2728 189 0
2729 2728 -189 0
-2730 2729 190 0
-2730 -2729 -190 0
2730 -2729 190 0
2730 2729 -190 0
-2731 2730 192 0
-2731 -2730 -192 0
2731 -2730 192 0
2731 2730 -192 0
-2732 2731 195 0
-2732 -2731 -195 0
2732 -2731 195 0
2732 2731 -195 0
-2733 2732 199 0
-2733 -2732 -199 0
2733 -2732 199 0
2733 2732 -199 0
-2734 2733 200 0
-2734 -2733 -200 0
2734 -2733 200 0
2734 2733 -200 0
-2735 2734 201 0
-2735 -2734 -201 0
2735 -2734 201 0
2735 2734 -201 0
-2736 2735 202 0
-2736 -2735 -202 0
2736 -2735 202 0
2736 2735 -202 0
-2737 2736 203 0
-2737 -2736 -203 0
2737 -2736 203 0
2737 2736 -203 0
-2738 2737 206 0
-2738 -2737 -206 0
2738 -2737 206 0
2738 2737 -206 0
-2739 2738 207 0
-2739 -2738 -207 0
2739 -2738 207 0
2739 2738 -207 0
-2740 2739 208 0
-2740 -2739 -208 0
2740 -2739 208 0
2740 2739 -208 0
-2741 2740 212 0
-2741 -2740 -212 0
2741 -2740 212 0
2741 2740 -212 0
-2742 2741 214 0
-2742 -2741 -214 0
2742 -2741 214 0
2742 2741 -214 0
-2743 2742 215 0
-2743 -2742 -215 0
2743 -2742 215 0
2743 2742 -215 0
-2743 0
-2744 54 57 0
-2744 -54 -57 0
2744 -54 57 0
2744 54 -57 0
-2745 2744 60 0
-2745 -2744 -60 0
2745 -2744 60 0
2745 2744 -60 0
-2746 2745 63 0
-2746 -2745 -63 0
2746 -2745 63 0
2746 2745 -63 0
-2747 2746 67 0
-2747 -2746 -67 0
2747 -2746 67 0
2747 2746 -67 0
-2748 2747 71 0
-2748 -2747 -71 0
2748 -2747 71 0
2748 2747 -71 0
-2749 2748 73 0
-2749 -2748 -73 0
2749 -2748 73 0
2749 2748 -73 0
-2750 2749 76 0
-2750 -2749 -76 0
2750 -2749 76 0
2750 2749 -76 0
-2751 2750 80 0
-2751 -2750 -80 0
2751 -2750 80 0
2751 2750 -80 0
-2752 2751 81 0
-2752 -2751 -81 0
2752 -2751 81 0
2752 2751 -81 0
-2753 2752 82 0
-2753 -2752 -82 0
2753 -2752 82 0
2753 2752 -82 0
-2754 2753 83 0
-2754 -2753 -83 0
2754 -2753 83 0
2754 2753 -83 0
-2755 2754 86 0
-2755 -2754 -86 0
2755 -2754 86 0
2755 2754 -86 0
-2756 2755 87 0
-2756 -2755 -87 0
2756 -2755 87 0
2756 2755 -87 0
-2757 2756 89 0
-2757 -2756 -89 0
2757 -2756 89 0
2757 2756 -89 0
-2758 2757 92 0
-2758 -2757 -92 0
2758 -2757 92 0
2758 2757 -92 0
-2759 2758 95 0
-2759 -2758 -95 0
2759 -2758 95 0
2759 2758 -95 0
-2760 2759 97 0
-2760 -2759 -97 0
2760 -2759 97 0
2760 2759 -97 0
-2761 2760 98 0
-2761 -2760 -98 0
2761 -2760 98 0
2761 2760 -98 0
-2762 2761 103 0
-2762 -2761 -103 0
2762 -2761 103 0
2762 2761 -103 0
-2763 2762 104 0
-2763 -2762 -104 0
2763 -2762 104 0
2763 2762 -104 0
-2764 2763 106 0
-2764 -2763 -106 0
2764 -2763 106 0
2764 2763 -106 0
-2765 2764 107 0
-2765 -2764 -107 0
2765 -2764 107 0
2765 2764 -107 0
-2766 2765 108 0
-2766 -2765 -108 0
2766 -2765 108 0
2766 2765 -108 0
-2767 2766 155 0
-2767 -2766 -155 0
2767 -2766 155 0
2767 2766 -155 0
-2768 2767 162 0
-2768 -2767 -162 0
2768 -2767 162 0
2768 2767 -162 0
-2769 2768 163 0
-2769 -2768 -163 0
2769 -2768 163 0
2769 2768 -163 0
-2770 2769 166 0
-2770 -2769 -166 0
2770 -2769 166 0
2770 2769 -166 0
-2771 2770 167 0
-2771 -2770 -167 0
2771 -2770 167 0
2771 2770 -167 0
-2772 2771 168 0
-2772 -2771 -168 0
2772 -2771 168 0
2772 2771 -168 0
-2773 2772 169 0
-2773 -2772 -169 0
2773 -2772 169 0
2773 2772 -169 0
-2774 2773 178 0
-2774 -2773 -178 0
2774 -2773 178 0
2774 2773 -178 0
-2775 2774 180 0
-2775 -2774 -180 0
2775 -2774 180 0
2775 2774 -180 0
-2776 2775 181 0
-2776 -2775 -181 0
2776 -2775 181 0
2776 2775 -181 0
-2777 2776 182 0
-2777 -2776 -182 0
2777 -2776 182 0
2777 2776 -182 0
-2778 2777 184 0
-2778 -2777 -184 0
2778 -2777 184 0
2778 2777 -184 0
-2779 2778 185 0
-2779 -2778 -185 0
2779 -2778 185 0
2779 2778 -185 0
-2780 2779 187 0
-2780 -2779 -187 0
2780 -2779 187 0
2780 2779 -187 0
-2781 2780 190 0
-2781 -2780 -190 0
2781 -2780 190 0
2781 2780 -190 0
-2782 2781 191 0
-2782 -2781 -191 0
2782 -2781 191 0
2782 2781 -191 0
-2783 2782 196 0
-2783 -2782 -196 0
2783 -2782 196 0
2783 2782 -196 0
-2784 2783 200 0
-2784 -2783 -200 0
2784 -2783 200 0
2784 2783 -200 0
-2785 2784 201 0
-2785 -2784 -201 0
2785 -2784 201 0
2785 2784 -201 0
-2786 2785 202 0
-2786 -2785 -202 0
2786 -2785 202 0
2786 2785 -202 0
-2787 2786 203 0
-2787 -2786 -203 0
2787 -2786 203 0
2787 2786 -203 0
-2788 2787 204 0
-2788 -2787 -204 0
2788 -2787 204 0
2788 2787 -204 0
-2789 2788 207 0
-2789 -2788 -207 0
2789 -2788 207 0
2789 2788 -207 0
-2790 2789 208 0
-2790 -2789 -208 0
2790 -2789 208 0
2790 2789 -208 0
-2791 2790 209 0
-2791 -2790 -209 0
2791 -2790 209 0
2791 2790 -209 0
-2792 2791 213 0
-2792 -2791 -213 0
2792 -2791 213 0
2792 2791 -213 0
-2793 2792 215 0
-2793 -2792 -215 0
2793 -2792 215 0
2793 2792 -215 0
-2794 2793 216 0
-2794 -2793 -216 0
2794 -2793 216 0
2794 2793 -216 0
-2794 0
-2795 53 57 0
-2795 -53 -57 0
2795 -53 57 0
2795 53 -57 0
-2796 2795 58 0
-2796 -2795 -58 0
2796 -2795 58 0
2796 2795 -58 0
-2797 2796 60 0
-2797 -2796 -60 0
2797 -2796 60 0
2797 2796 -60 0
-2798 2797 63 0
-2798 -2797 -63 0
2798 -2797 63 0
2798 2797 -63 0
-2799 2798 64 0
-2799 -2798 -64 0
2799 -2798 64 0
2799 2798 -64 0
-2800 2799 65 0
-2800 -2799 -65 0
2800 -2799 65 0
2800 2799 -65 0
-2801 2800 66 0
-2801 -2800 -66 0
2801 -2800 66 0
2801 2800 -66 0
-2802 2801 67 0
-2802 -2801 -67 0
2802 -2801 67 0
2802 2801 -67 0
-2803 2802 68 0
-2803 -2802 -68 0
2803 -2802 68 0
2803 2802 -68 0
-2804 2803 69 0
-2804 -2803 -69 0
2804 -2803 69 0
2804 2803 -69 0
-2805 2804 71 0
-2805 -2804 -71 0
2805 -2804 71 0
2805 2804 -71 0
-2806 2805 73 0
-2806 -2805 -73 0
2806 -2805 73 0
2806 2805 -73 0
-2807 2806 74 0
-2807 -2806 -74 0
2807 -2806 74 0
2807 2806 -74 0
-2808 2807 75 0
-2808 -2807 -75 0
2808 -2807 75 0
2808 2807 -75 0
-2809 2808 76 0
-2809 -2808 -76 0
2809 -2808 76 0
2809 2808 -76 0
-2810 2809 79 0
-2810 -2809 -79 0
2810 -2809 79 0
2810 2809 -79 0
-2811 2810 82 0
-2811 -2810 -82 0
2811 -2810 82 0
2811 2810 -82 0
-2812 2811 83 0
-2812 -2811 -83 0
2812 -2811 83 0
2812 2811 -83 0
-2813 2812 84 0
-2813 -2812 -84 0
2813 -2812 84 0
2813 2812 -84 0
-2814 2813 86 0
-2814 -2813 -86 0
2814 -2813 86 0
2814 2813 -86 0
-2815 2814 91 0
-2815 -2814 -91 0
2815 -2814 91 0
2815 2814 -91 0
-2816 2815 92 0
-2816 -2815 -92 0
2816 -2815 92 0
2816 2815 -92 0
-2817 2816 93 0
-2817 -2816 -93 0
2817 -2816 93 0
2817 2816 -93 0
-2818 2817 95 0
-2818 -2817 -95 0
2818 -2817 95 0
2818 2817 -95 0
-2819 2818 98 0
-2819 -2818 -98 0
2819 -2818 98 0
2819 2818 -98 0
-2820 2819 100 0
-2820 -2819 -100 0
2820 -2819 100 0
2820 2819 -100 0
-2821 2820 101 0
-2821 -2820 -101 0
2821 -2820 101 0
2821 2820 -101 0
-2822 2821 102 0
-2822 -2821 -102 0
2822 -2821 102 0
2822 2821 -102 0
-2823 2822 105 0
-2823 -2822 -105 0
2823 -2822 105 0
2823 2822 -105 0
-2824 2823 107 0
-2824 -2823 -107 0
2824 -2823 107 0
2824 2823 -107 0
-2825 2824 156 0
-2825 -2824 -156 0
2825 -2824 156 0
2825 2824 -156 0
-2826 2825 161 0
-2826 -2825 -161 0
2826 -2825 161 0
2826 2825 -161 0
-2827 2826 162 0
-2827 -2826 -162 0
2827 -2826 162 0
2827 2826 -162 0
-2828 2827 165 0
-2828 -2827 -165 0
2828 -2827 165 0
2828 2827 -165 0
-2829 2828 166 0
-2829 -2828 -166 0
2829 -2828 166 0
2829 2828 -166 0
-2830 2829 173 0
-2830 -2829 -173 0
2830 -2829 173 0
2830 2829 -173 0
-2831 2830 176 0
-2831 -2830 -176 0
2831 -2830 176 0
2831 2830 -176 0
-2832 2831 179 0
-2832 -2831 -179 0
2832 -2831 179 0
2832 2831 -179 0
-2833 2832 180 0
-2833 -2832 -180 0
2833 -2832 180 0
2833 2832 -180 0
-2834 2833 182 0
-2834 -2833 -182 0
2834 -2833 182 0
2834 2833 -182 0
-2835 2834 184 0
-2835 -2834 -184 0
2835 -2834 184 0
2835 2834 -184 0
-2836 2835 186 0
-2836 -2835 -186 0
2836 -2835 186 0
2836 2835 -186 0
-2837 2836 188 0
-2837 -2836 -188 0
2837 -2836 188 0
2837 2836 -188 0
-2838 2837 190 0
-2838 -2837 -190 0
2838 -2837 190 0
2838 2837 -190 0
-2839 2838 193 0
-2839 -2838 -193 0
2839 -2838 193 0
2839 2838 -193 0
-2840 2839 194 0
-2840 -2839 -194 0
2840 -2839 194 0
2840 2839 -194 0
-2841 2840 195 0
-2841 -2840 -195 0
2841 -2840 195 0
2841 2840 -195 0
-2842 2841 196 0
-2842 -2841 -196 0
2842 -2841 196 0
2842 2841 -196 0
-2843 2842 198 0
-2843 -2842 -198 0
2843 -2842 198 0
2843 2842 -198 0
-2844 2843 200 0
-2844 -2843 -200 0
2844 -2843 200 0
2844 2843 -200 0
-2845 2844 202 0
-2845 -2844 -202 0
2845 -2844 202 0
2845 2844 -202 0
-2846 2845 203 0
-2846 -2845 -203 0
2846 -2845 203 0
2846 2845 -203 0
-2847 2846 204 0
-2847 -2846 -204 0
2847 -2846 204 0
2847 2846 -204 0
-2848 2847 206 0
-2848 -2847 -206 0
2848 -2847 206 0
2848 2847 -206 0
-2849 2848 207 0
-2849 -2848 -207 0
2849 -2848 207 0
2849 2848 -207 0
-2850 2849 208 0
-2850 -2849 -208 0
2850 -2849 208 0
2850 2849 -208 0
-2851 2850 211 0
-2851 -2850 -211 0
2851 -2850 211 0
2851 2850 -211 0
-2852 2851 215 0
-2852 -2851 -215 0
2852 -2851 215 0
2852 2851 -215 0
-2852 0
-2853 54 58 0
-2853 -54 -58 0
2853 -54 58 0
2853 54 -58 0
-2854 2853 61 0
-2854 -2853 -61 0
2854 -2853 61 0
2854 2853 -61 0
-2855 2854 62 0
-2855 -2854 -62 0
2855 -2854 62 0
2855 2854 -62 0
-2856 2855 63 0
-2856 -2855 -63 0
2856 -2855 63 0
2856 2855 -63 0
-2857 2856 64 0
-2857 -2856 -64 0
2857 -2856 64 0
2857 2856 -64 0
-2858 2857 66 0
-2858 -2857 -66 0
2858 -2857 66 0
2858 2857 -66 0
-2859 2858 67 0
-2859 -2858 -67 0
2859 -2858 67 0
2859 2858 -67 0
-2860 2859 68 0
-2860 -2859 -68 0
2860 -2859 68 0
2860 2859 -68 0
-2861 2860 77 0
-2861 -2860 -77 0
2861 -2860 77 0
2861 2860 -77 0
-2862 2861 78 0
-2862 -2861 -78 0
2862 -2861 78 0
2862 2861 -78 0
-2863 2862 79 0
-2863 -2862 -79 0
2863 -2862 79 0
2863 2862 -79 0
-2864 2863 84 0
-2864 -2863 -84 0
2864 -2863 84 0
2864 2863 -84 0
-2865 2864 85 0
-2865 -2864 -85 0
2865 -2864 85 0
2865 2864 -85 0
-2866 2865 87 0
-2866 -2865 -87 0
2866 -2865 87 0
2866 2865 -87 0
-2867 2866 88 0
-2867 -2866 -88 0
2867 -2866 88 0
2867 2866 -88 0
-2868 2867 92 0
-2868 -2867 -92 0
2868 -2867 92 0
2868 2867 -92 0
-2869 2868 94 0
-2869 -2868 -94 0
2869 -2868 94 0
2869 2868 -94 0
-2870 2869 95 0
-2870 -2869 -95 0
2870 -2869 95 0
2870 2869 -95 0
-2871 2870 96 0
-2871 -2870 -96 0
2871 -2870 96 0
2871 2870 -96 0
-2872 2871 99 0
-2872 -2871 -99 0
2872 -2871 99 0
2872 2871 -99 0
-2873 2872 105 0
-2873 -2872 -105 0
2873 -2872 105 0
2873 2872 -105 0
-2874 2873 108 0
-2874 -2873 -108 0
2874 -2873 108 0
2874 2873 -108 0
-2875 2874 157 0
-2875 -2874 -157 0
2875 -2874 157 0
2875 2874 -157 0
-2876 2875 161 0
-2876 -2875 -161 0
2876 -2875 161 0
2876 2875 -161 0
-2877 2876 162 0
-2877 -2876 -162 0
2877 -2876 162 0
2877 2876 -162 0
-2878 2877 163 0
-2878 -2877 -163 0
2878 -2877 163 0
2878 2877 -163 0
-2879 2878 164 0
-2879 -2878 -164 0
2879 -2878 164 0
2879 2878 -164 0
-2880 2879 165 0
-2880 -2879 -165 0
2880 -2879 165 0
2880 2879 -165 0
-2881 2880 166 0
-2881 -2880 -166 0
2881 -2880 166 0
2881 2880 -166 0
-2882 2881 167 0
-2882 -2881 -167 0
2882 -2881 167 0
2882 2881 -167 0
-2883 2882 168 0
-2883 -2882 -168 0
2883 -2882 168 0
2883 2882 -168 0
-2884 2883 170 0
-2884 -2883 -170 0
2884 -2883 170 0
2884 2883 -170 0
-2885 2884 173 0
-2885 -2884 -173 0
2885 -2884 173 0
2885 2884 -173 0
-2886 2885 175 0
-2886 -2885 -175 0
2886 -2885 175 0
2886 2885 -175 0
-2887 2886 176 0
-2887 -2886 -176 0
2887 -2886 176 0
2887 2886 -176 0
-2888 2887 180 0
-2888 -2887 -180 0
2888 -2887 180 0
2888 2887 -180 0
-2889 2888 183 0
-2889 -2888 -183 0
2889 -2888 183 0
2889 2888 -183 0
-2890 2889 184 0
-2890 -2889 -184 0
2890 -2889 184 0
2890 2889 -184 0
-2891 2890 185 0
-2891 -2890 -185 0
2891 -2890 185 0
2891 2890 -185 0
-2892 2891 190 0
-2892 -2891 -190 0
2892 -2891 190 0
2892 2891 -190 0
-2893 2892 191 0
-2893 -2892 -191 0
2893 -2892 191 0
2893 2892 -191 0
-2894 2893 192 0
-2894 -2893 -192 0
2894 -2893 192 0
2894 2893 -192 0
-2895 2894 193 0
-2895 -2894 -193 0
2895 -2894 193 0
2895 2894 -193 0
-2896 2895 194 0
-2896 -2895 -194 0
2896 -2895 194 0
2896 2895 -194 0
-2897 2896 195 0
-2897 -2896 -195 0
2897 -2896 195 0
2897 2896 -195 0
-2898 2897 196 0
-2898 -2897 -196 0
2898 -2897 196 0
2898 2897 -196 0
-2899 2898 197 0
-2899 -2898 -197 0
2899 -2898 197 0
2899 2898 -197 0
-2900 2899 198 0
-2900 -2899 -198 0
2900 -2899 198 0
2900 2899 -198 0
-2901 2900 199 0
-2901 -2900 -199 0
2901 -2900 199 0
2901 2900 -199 0
-2902 2901 200 0
-2902 -2901 -200 0
2902 -2901 200 0
2902 2901 -200 0
-2903 2902 201 0
-2903 -2902 -201 0
2903 -2902 201 0
2903 2902 -201 0
-2904 2903 206 0
-2904 -2903 -206 0
2904 -2903 206 0
2904 2903 -206 0
-2905 2904 207 0
-2905 -2904 -207 0
2905 -2904 207 0
2905 2904 -207 0
-2906 2905 209 0
-2906 -2905 -209 0
2906 -2905 209 0
2906 2905 -209 0
-2907 2906 210 0
-2907 -2906 -210 0
2907 -2906 210 0
2907 2906 -210 0
-2908 2907 214 0
-2908 -2907 -214 0
2908 -2907 214 0
2908 2907 -214 0
-2909 2908 215 0
-2909 -2908 -215 0
2909 -2908 215 0
2909 2908 -215 0
-2910 2909 216 0
-2910 -2909 -216 0
2910 -2909 216 0
2910 2909 -216 0
-2910 0
-2911 53 58 0
-2911 -53 -58 0
2911 -53 58 0
2911 53 -58 0
-2912 2911 59 0
-2912 -2911 -59 0
2912 -2911 59 0
2912 2911 -59 0
-2913 2912 65 0
-2913 -2912 -65 0
2913 -2912 65 0
2913 2912 -65 0
-2914 2913 66 0
-2914 -2913 -66 0
2914 -2913 66 0
2914 2913 -66 0
-2915 2914 67 0
-2915 -2914 -67 0
2915 -2914 67 0
2915 2914 -67 0
-2916 2915 69 0
-2916 -2915 -69 0
2916 -2915 69 0
2916 2915 -69 0
-2917 2916 73 0
-2917 -2916 -73 0
2917 -2916 73 0
2917 2916 -73 0
-2918 2917 77 0
-2918 -2917 -77 0
2918 -2917 77 0
2918 2917 -77 0
-2919 2918 79 0
-2919 -2918 -79 0
2919 -2918 79 0
2919 2918 -79 0
-2920 2919 81 0
-2920 -2919 -81 0
2920 -2919 81 0
2920 2919 -81 0
-2921 2920 82 0
-2921 -2920 -82 0
2921 -2920 82 0
2921 2920 -82 0
-2922 2921 83 0
-2922 -2921 -83 0
2922 -2921 83 0
2922 2921 -83 0
-2923 2922 86 0
-2923 -2922 -86 0
2923 -2922 86 0
2923 2922 -86 0
-2924 2923 91 0
-2924 -2923 -91 0
2924 -2923 91 0
2924 2923 -91 0
-2925 2924 92 0
-2925 -2924 -92 0
2925 -2924 92 0
2925 2924 -92 0
-2926 2925 94 0
-2926 -2925 -94 0
2926 -2925 94 0
2926 2925 -94 0
-2927 2926 96 0
-2927 -2926 -96 0
2927 -2926 96 0
2927 2926 -96 0
-2928 2927 97 0
-2928 -2927 -97 0
2928 -2927 97 0
2928 2927 -97 0
-2929 2928 98 0
-2929 -2928 -98 0
2929 -2928 98 0
2929 2928 -98 0
-2930 2929 99 0
-2930 -2929 -99 0
2930 -2929 99 0
2930 2929 -99 0
-2931 2930 100 0
-2931 -2930 -100 0
2931 -2930 100 0
2931 2930 -100 0
-2932 2931 102 0
-2932 -2931 -102 0
2932 -2931 102 0
2932 2931 -102 0
-2933 2932 105 0
-2933 -2932 -105 0
2933 -2932 105 0
2933 2932 -105 0
-2934 2933 106 0
-2934 -2933 -106 0
2934 -2933 106 0
2934 2933 -106 0
-2935 2934 107 0
-2935 -2934 -107 0
2935 -2934 107 0
2935 2934 -107 0
-2936 2935 158 0
-2936 -2935 -158 0
2936 -2935 158 0
2936 2935 -158 0
-2937 2936 161 0
-2937 -2936 -161 0
2937 -2936 161 0
2937 2936 -161 0
-2938 2937 170 0
-2938 -2937 -170 0
2938 -2937 170 0
2938 2937 -170 0
-2939 2938 171 0
-2939 -2938 -171 0
2939 -2938 171 0
2939 2938 -171 0
-2940 2939 173 0
-2940 -2939 -173 0
2940 -2939 173 0
2940 2939 -173 0
-2941 2940 174 0
-2941 -2940 -174 0
2941 -2940 174 0
2941 2940 -174 0
-2942 2941 177 0
-2942 -2941 -177 0
2942 -2941 177 0
2942 2941 -177 0
-2943 2942 180 0
-2943 -2942 -180 0
2943 -2942 180 0
2943 2942 -180 0
-2944 2943 183 0
-2944 -2943 -183 0
2944 -2943 183 0
2944 2943 -183 0
-2945 2944 186 0
-2945 -2944 -186 0
2945 -2944 186 0
2945 2944 -186 0
-2946 2945 187 0
-2946 -2945 -187 0
2946 -2945 187 0
2946 2945 -187 0
-2947 2946 190 0
-2947 -2946 -190 0
2947 -2946 190 0
2947 2946 -190 0
-2948 2947 199 0
-2948 -2947 -199 0
2948 -2947 199 0
2948 2947 -199 0
-2949 2948 202 0
-2949 -2948 -202 0
2949 -2948 202 0
2949 2948 -202 0
-2950 2949 205 0
-2950 -2949 -205 0
2950 -2949 205 0
2950 2949 -205 0
-2951 2950 206 0
-2951 -2950 -206 0
2951 -2950 206 0
2951 2950 -206 0
-2952 2951 208 0
-2952 -2951 -208 0
2952 -2951 208 0
2952 2951 -208 0
-2953 2952 209 0
-2953 -2952 -209 0
2953 -2952 209 0
2953 2952 -209 0
-2954 2953 211 0
-2954 -2953 -211 0
2954 -2953 211 0
2954 2953 -211 0
-2955 2954 214 0
-2955 -2954 -214 0
2955 -2954 214 0
2955 2954 -214 0
-2955 0
-2956 54 59 0
-2956 -54 -59 0
2956 -54 59 0
2956 54 -59 0
-2957 2956 60 0
-2957 -2956 -60 0
2957 -2956 60 0
2957 2956 -60 0
-2958 2957 61 0
-2958 -2957 -61 0
2958 -2957 61 0
2958 2957 -61 0
-2959 2958 66 0
-2959 -2958 -66 0
2959 -2958 66 0
2959 2958 -66 0
-2960 2959 68 0
-2960 -2959 -68 0
2960 -2959 68 0
2960 2959 -68 0
-2961 2960 70 0
-2961 -2960 -70 0
2961 -2960 70 0
2961 2960 -70 0
-2962 2961 74 0
-2962 -2961 -74 0
2962 -2961 74 0
2962 2961 -74 0
-2963 2962 78 0
-2963 -2962 -78 0
2963 -2962 78 0
2963 2962 -78 0
-2964 2963 80 0
-2964 -2963 -80 0
2964 -2963 80 0
2964 2963 -80 0
-2965 2964 82 0
-2965 -2964 -82 0
2965 -2964 82 0
2965 2964 -82 0
-2966 2965 83 0
-2966 -2965 -83 0
2966 -2965 83 0
2966 2965 -83 0
-2967 2966 84 0
-2967 -2966 -84 0
2967 -2966 84 0
2967 2966 -84 0
-2968 2967 87 0
-2968 -2967 -87 0
2968 -2967 87 0
2968 2967 -87 0
-2969 2968 91 0
-2969 -2968 -91 0
2969 -2968 91 0
2969 2968 -91 0
-2970 2969 92 0
-2970 -2969 -92 0
2970 -2969 92 0
2970 2969 -92 0
-2971 2970 93 0
-2971 -2970 -93 0
2971 -2970 93 0
2971 2970 -93 0
-2972 2971 95 0
-2972 -2971 -95 0
2972 -2971 95 0
2972 2971 -95 0
-2973 2972 97 0
-2973 -2972 -97 0
2973 -2972 97 0
2973 2972 -97 0
-2974 2973 98 0
-2974 -2973 -98 0
2974 -2973 98 0
2974 2973 -98 0
-2975 2974 99 0
-2975 -2974 -99 0
2975 -2974 99 0
2975 2974 -99 0
-2976 2975 100 0
-2976 -2975 -100 0
2976 -2975 100 0
2976 2975 -100 0
-2977 2976 101 0
-2977 -2976 -101 0
2977 -2976 101 0
2977 2976 -101 0
-2978 2977 106 0
-2978 -2977 -106 0
2978 -2977 106 0
2978 2977 -106 0
-2979 2978 107 0
-2979 -2978 -107 0
2979 -2978 107 0
2979 2978 -107 0
-2980 2979 108 0
-2980 -2979 -108 0
2980 -2979 108 0
2980 2979 -108 0
-2981 2980 159 0
-2981 -2980 -159 0
2981 -2980 159 0
2981 2980 -159 0
-2982 2981 162 0
-2982 -2981 -162 0
2982 -2981 162 0
2982 2981 -162 0
-2983 2982 169 0
-2983 -2982 -169 0
2983 -2982 169 0
2983 2982 -169 0
-2984 2983 171 0
-2984 -2983 -171 0
2984 -2983 171 0
2984 2983 -171 0
-2985 2984 172 0
-2985 -2984 -172 0
2985 -2984 172 0
2985 2984 -172 0
-2986 2985 174 0
-2986 -2985 -174 0
2986 -2985 174 0
2986 2985 -174 0
-2987 2986 175 0
-2987 -2986 -175 0
2987 -2986 175 0
2987 2986 -175 0
-2988 2987 178 0
-2988 -2987 -178 0
2988 -2987 178 0
2988 2987 -178 0
-2989 2988 181 0
-2989 -2988 -181 0
2989 -2988 181 0
2989 2988 -181 0
-2990 2989 184 0
-2990 -2989 -184 0
2990 -2989 184 0
2990 2989 -184 0
-2991 2990 188 0
-2991 -2990 -188 0
2991 -2990 188 0
2991 2990 -188 0
-2992 2991 191 0
-2992 -2991 -191 0
2992 -2991 191 0
2992 2991 -191 0
-2993 2992 200 0
-2993 -2992 -200 0
2993 -2992 200 0
2993 2992 -200 0
-2994 2993 203 0
-2994 -2993 -203 0
2994 -2993 203 0
2994 2993 -203 0
-2995 2994 206 0
-2995 -2994 -206 0
2995 -2994 206 0
2995 2994 -206 0
-2996 2995 207 0
-2996 -2995 -207 0
2996 -2995 207 0
2996 2995 -207 0
-2997 2996 209 0
-2997 -2996 -209 0
2997 -2996 209 0
2997 2996 -209 0
-2998 2997 210 0
-2998 -2997 -210 0
2998 -2997 210 0
2998 2997 -210 0
-2999 2998 212 0
-2999 -2998 -212 0
2999 -2998 212 0
2999 2998 -212 0
-3000 2999 215 0
-3000 -2999 -215 0
3000 -2999 215 0
3000 2999 -215 0
-3000 0
-3001 53 57 0
-3001 -53 -57 0
3001 -53 57 0
3001 53 -57 0
-3002 3001 61 0
-3002 -3001 -61 0
3002 -3001 61 0
3002 3001 -61 0
-3003 3002 62 0
-3003 -3002 -62 0
3003 -3002 62 0
3003 3002 -62 0
-3004 3003 63 0
-3004 -3003 -63 0
3004 -3003 63 0
3004 3003 -63 0
-3005 3004 65 0
-3005 -3004 -65 0
3005 -3004 65 0
3005 3004 -65 0
-3006 3005 66 0
-3006 -3005 -66 0
3006 -3005 66 0
3006 3005 -66 0
-3007 3006 67 0
-3007 -3006 -67 0
3007 -3006 67 0
3007 3006 -67 0
-3008 3007 72 0
-3008 -3007 -72 0
3008 -3007 72 0
3008 3007 -72 0
-3009 3008 76 0
-3009 -3008 -76 0
3009 -3008 76 0
3009 3008 -76 0
-3010 3009 77 0
-3010 -3009 -77 0
3010 -3009 77 0
3010 3009 -77 0
-3011 3010 83 0
-3011 -3010 -83 0
3011 -3010 83 0
3011 3010 -83 0
-3012 3011 84 0
-3012 -3011 -84 0
3012 -3011 84 0
3012 3011 -84 0
-3013 3012 86 0
-3013 -3012 -86 0
3013 -3012 86 0
3013 3012 -86 0
-3014 3013 87 0
-3014 -3013 -87 0
3014 -3013 87 0
3014 3013 -87 0
-3015 3014 90 0
-3015 -3014 -90 0
3015 -3014 90 0
3015 3014 -90 0
-3016 3015 91 0
-3016 -3015 -91 0
3016 -3015 91 0
3016 3015 -91 0
-3017 3016 93 0
-3017 -3016 -93 0
3017 -3016 93 0
3017 3016 -93 0
-3018 3017 94 0
-3018 -3017 -94 0
3018 -3017 94 0
3018 3017 -94 0
-3019 3018 95 0
-3019 -3018 -95 0
3019 -3018 95 0
3019 3018 -95 0
-3020 3019 98 0
-3020 -3019 -98 0
3020 -3019 98 0
3020 3019 -98 0
-3021 3020 104 0
-3021 -3020 -104 0
3021 -3020 104 0
3021 3020 -104 0
-3022 3021 107 0
-3022 -3021 -107 0
3022 -3021 107 0
3022 3021 -107 0
-3023 3022 160 0
-3023 -3022 -160 0
3023 -3022 160 0
3023 3022 -160 0
-3024 3023 161 0
-3024 -3023 -161 0
3024 -3023 161 0
3024 3023 -161 0
-3025 3024 162 0
-3025 -3024 -162 0
3025 -3024 162 0
3025 3024 -162 0
-3026 3025 163 0
-3026 -3025 -163 0
3026 -3025 163 0
3026 3025 -163 0
-3027 3026 164 0
-3027 -3026 -164 0
3027 -3026 164 0
3027 3026 -164 0
-3028 3027 165 0
-3028 -3027 -165 0
3028 -3027 165 0
3028 3027 -165 0
-3029 3028 166 0
-3029 -3028 -166 0
3029 -3028 166 0
3029 3028 -166 0
-3030 3029 167 0
-3030 -3029 -167 0
3030 -3029 167 0
3030 3029 -167 0
-3031 3030 168 0
-3031 -3030 -168 0
3031 -3030 168 0
3031 3030 -168 0
-3032 3031 169 0
-3032 -3031 -169 0
3032 -3031 169 0
3032 3031 -169 0
-3033 3032 172 0
-3033 -3032 -172 0
3033 -3032 172 0
3033 3032 -172 0
-3034 3033 175 0
-3034 -3033 -175 0
3034 -3033 175 0
3034 3033 -175 0
-3035 3034 179 0
-3035 -3034 -179 0
3035 -3034 179 0
3035 3034 -179 0
-3036 3035 180 0
-3036 -3035 -180 0
3036 -3035 180 0
3036 3035 -180 0
-3037 3036 182 0
-3037 -3036 -182 0
3037 -3036 182 0
3037 3036 -182 0
-3038 3037 183 0
-3038 -3037 -183 0
3038 -3037 183 0
3038 3037 -183 0
-3039 3038 184 0
-3039 -3038 -184 0
3039 -3038 184 0
3039 3038 -184 0
-3040 3039 189 0
-3040 -3039 -189 0
3040 -3039 189 0
3040 3039 -189 0
-3041 3040 190 0
-3041 -3040 -190 0
3041 -3040 190 0
3041 3040 -190 0
-3042 3041 191 0
-3042 -3041 -191 0
3042 -3041 191 0
3042 3041 -191 0
-3043 3042 193 0
-3043 -3042 -193 0
3043 -3042 193 0
3043 3042 -193 0
-3044 3043 194 0
-3044 -3043 -194 0
3044 -3043 194 0
3044 3043 -194 0
-3045 3044 195 0
-3045 -3044 -195 0
3045 -3044 195 0
3045 3044 -195 0
-3046 3045 196 0
-3046 -3045 -196 0
3046 -3045 196 0
3046 3045 -196 0
-3047 3046 197 0
-3047 -3046 -197 0
3047 -3046 197 0
3047 3046 -197 0
-3048 3047 198 0
-3048 -3047 -198 0
3048 -3047 198 0
3048 3047 -198 0
-3049 3048 199 0
-3049 -3048 -199 0
3049 -3048 199 0
3049 3048 -199 0
-3050 3049 200 0
-3050 -3049 -200 0
3050 -3049 200 0
3050 3049 -200 0
-3051 3050 204 0
-3051 -3050 -204 0
3051 -3050 204 0
3051 3050 -204 0
-3052 3051 205 0
-3052 -3051 -205 0
3052 -3051 205 0
3052 3051 -205 0
-3053 3052 206 0
-3053 -3052 -206 0
3053 -3052 206 0
3053 3052 -206 0
-3054 3053 208 0
-3054 -3053 -208 0
3054 -3053 208 0
3054 3053 -208 0
-3055 3054 209 0
-3055 -3054 -209 0
3055 -3054 209 0
3055 3054 -209 0
-3056 3055 213 0
-3056 -3055 -213 0
3056 -3055 213 0
3056 3055 -213 0
-3057 3056 214 0
-3057 -3056 -214 0
3057 -3056 214 0
3057 3056 -214 0
-3058 3057 215 0
-3058 -3057 -215 0
3058 -3057 215 0
3058 3057 -215 0
-3058 0
-3059 1 54 0
-3059 -1 -54 0
3059 -1 54 0
3059 1 -54 0
-3060 3059 57 0
-3060 -3059 -57 0
3060 -3059 57 0
3060 3059 -57 0
-3061 3060 58 0
-3061 -3060 -58 0
3061 -3060 58 0
3061 3060 -58 0
-3062 3061 60 0
-3062 -3061 -60 0
3062 -3061 60 0
3062 3061 -60 0
-3063 3062 61 0
-3063 -3062 -61 0
3063 -3062 61 0
3063 3062 -61 0
-3064 3063 62 0
-3064 -3063 -62 0
3064 -3063 62 0
3064 3063 -62 0
-3065 3064 64 0
-3065 -3064 -64 0
3065 -3064 64 0
3065 3064 -64 0
-3066 3065 65 0
-3066 -3065 -65 0
3066 -3065 65 0
3066 3065 -65 0
-3067 3066 68 0
-3067 -3066 -68 0
3067 -3066 68 0
3067 3066 -68 0
-3068 3067 69 0
-3068 -3067 -69 0
3068 -3067 69 0
3068 3067 -69 0
-3069 3068 71 0
-3069 -3068 -71 0
3069 -3068 71 0
3069 3068 -71 0
-3070 3069 72 0
-3070 -3069 -72 0
3070 -3069 72 0
3070 3069 -72 0
-3071 3070 73 0
-3071 -3070 -73 0
3071 -3070 73 0
3071 3070 -73 0
-3072 3071 75 0
-3072 -3071 -75 0
3072 -3071 75 0
3072 3071 -75 0
-3073 3072 76 0
-3073 -3072 -76 0
3073 -3072 76 0
3073 3072 -76 0
-3074 3073 78 0
-3074 -3073 -78 0
3074 -3073 78 0
3074 3073 -78 0
-3075 3074 81 0
-3075 -3074 -81 0
3075 -3074 81 0
3075 3074 -81 0
-3076 3075 84 0
-3076 -3075 -84 0
3076 -3075 84 0
3076 3075 -84 0
-3077 3076 87 0
-3077 -3076 -87 0
3077 -3076 87 0
3077 3076 -87 0
-3078 3077 88 0
-3078 -3077 -88 0
3078 -3077 88 0
3078 3077 -88 0
-3079 3078 89 0
-3079 -3078 -89 0
3079 -3078 89 0
3079 3078 -89 0
-3080 3079 93 0
-3080 -3079 -93 0
3080 -3079 93 0
3080 3079 -93 0
-3081 3080 99 0
-3081 -3080 -99 0
3081 -3080 99 0
3081 3080 -99 0
-3082 3081 100 0
-3082 -3081 -100 0
3082 -3081 100 0
3082 3081 -100 0
-3083 3082 101 0
-3083 -3082 -101 0
3083 -3082 101 0
3083 3082 -101 0
-3084 3083 105 0
-3084 -3083 -105 0
3084 -3083 105 0
3084 3083 -105 0
-3085 3084 107 0
-3085 -3084 -107 0
3085 -3084 107 0
3085 3084 -107 0
-3085 0
-3086 2 53 0
-3086 -2 -53 0
3086 -2 53 0
3086 2 -53 0
-3087 3086 54 0
-3087 -3086 -54 0
3087 -3086 54 0
3087 3086 -54 0
-3088 3087 57 0
-3088 -3087 -57 0
3088 -3087 57 0
3088 3087 -57 0
-3089 3088 59 0
-3089 -3088 -59 0
3089 -3088 59 0
3089 3088 -59 0
-3090 3089 60 0
-3090 -3089 -60 0
3090 -3089 60 0
3090 3089 -60 0
-3091 3090 61 0
-3091 -3090 -61 0
3091 -3090 61 0
3091 3090 -61 0
-3092 3091 63 0
-3092 -3091 -63 0
3092 -3091 63 0
3092 3091 -63 0
-3093 3092 64 0
-3093 -3092 -64 0
3093 -3092 64 0
3093 3092 -64 0
-3094 3093 66 0
-3094 -3093 -66 0
3094 -3093 66 0
3094 3093 -66 0
-3095 3094 67 0
-3095 -3094 -67 0
3095 -3094 67 0
3095 3094 -67 0
-3096 3095 68 0
-3096 -3095 -68 0
3096 -3095 68 0
3096 3095 -68 0
-3097 3096 70 0
-3097 -3096 -70 0
3097 -3096 70 0
3097 3096 -70 0
-3098 3097 71 0
-3098 -3097 -71 0
3098 -3097 71 0
3098 3097 -71 0
-3099 3098 74 0
-3099 -3098 -74 0
3099 -3098 74 0
3099 3098 -74 0
-3100 3099 75 0
-3100 -3099 -75 0
3100 -3099 75 0
3100 3099 -75 0
-3101 3100 77 0
-3101 -3100 -77 0
3101 -3100 77 0
3101 3100 -77 0
-3102 3101 78 0
-3102 -3101 -78 0
3102 -3101 78 0
3102 3101 -78 0
-3103 3102 79 0
-3103 -3102 -79 0
3103 -3102 79 0
3103 3102 -79 0
-3104 3103 81 0
-3104 -3103 -81 0
3104 -3103 81 0
3104 3103 -81 0
-3105 3104 82 0
-3105 -3104 -82 0
3105 -3104 82 0
3105 3104 -82 0
-3106 3105 84 0
-3106 -3105 -84 0
3106 -3105 84 0
3106 3105 -84 0
-3107 3106 85 0
-3107 -3106 -85 0
3107 -3106 85 0
3107 3106 -85 0
-3108 3107 86 0
-3108 -3107 -86 0
3108 -3107 86 0
3108 3107 -86 0
-3109 3108 88 0
-3109 -3108 -88 0
3109 -3108 88 0
3109 3108 -88 0
-3110 3109 89 0
-3110 -3109 -89 0
3110 -3109 89 0
3110 3109 -89 0
-3111 3110 91 0
-3111 -3110 -91 0
3111 -3110 91 0
3111 3110 -91 0
-3112 3111 103 0
-3112 -3111 -103 0
3112 -3111 103 0
3112 3111 -103 0
-3113 3112 104 0
-3113 -3112 -104 0
3113 -3112 104 0
3113 3112 -104 0
-3114 3113 105 0
-3114 -3113 -105 0
3114 -3113 105 0
3114 3113 -105 0
-3115 3114 106 0
-3115 -3114 -106 0
3115 -3114 106 0
3115 3114 -106 0
-3116 3115 108 0
-3116 -3115 -108 0
3116 -3115 108 0
3116 3115 -108 0
-3116 0
-3117 3 53 0
-3117 -3 -53 0
3117 -3 53 0
3117 3 -53 0
-3118 3117 57 0
-3118 -3117 -57 0
3118 -3117 57 0
3118 3117 -57 0
-3119 3118 79 0
-3119 -3118 -79 0
3119 -3118 79 0
3119 3118 -79 0
-3120 3119 80 0
-3120 -3119 -80 0
3120 -3119 80 0
3120 3119 -80 0
-3121 3120 81 0
-3121 -3120 -81 0
3121 -3120 81 0
3121 3120 -81 0
-3122 3121 82 0
-3122 -3121 -82 0
3122 -3121 82 0
3122 3121 -82 0
-3123 3122 83 0
-3123 -3122 -83 0
3123 -3122 83 0
3123 3122 -83 0
-3124 3123 84 0
-3124 -3123 -84 0
3124 -3123 84 0
3124 3123 -84 0
-3125 3124 85 0
-3125 -3124 -85 0
3125 -3124 85 0
3125 3124 -85 0
-3126 3125 87 0
-3126 -3125 -87 0
3126 -3125 87 0
3126 3125 -87 0
-3127 3126 89 0
-3127 -3126 -89 0
3127 -3126 89 0
3127 3126 -89 0
-3128 3127 91 0
-3128 -3127 -91 0
3128 -3127 91 0
3128 3127 -91 0
-3129 3128 92 0
-3129 -3128 -92 0
3129 -3128 92 0
3129 3128 -92 0
-3130 3129 94 0
-3130 -3129 -94 0
3130 -3129 94 0
3130 3129 -94 0
-3131 3130 100 0
-3131 -3130 -100 0
3131 -3130 100 0
3131 3130 -100 0
-3132 3131 101 0
-3132 -3131 -101 0
3132 -3131 101 0
3132 3131 -101 0
-3133 3132 102 0
-3133 -3132 -102 0
3133 -3132 102 0
3133 3132 -102 0
-3134 3133 106 0
-3134 -3133 -106 0
3134 -3133 106 0
3134 3133 -106 0
-3135 3134 107 0
-3135 -3134 -107 0
3135 -3134 107 0
3135 3134 -107 0
-3135 0
-3136 4 54 0
-3136 -4 -54 0
3136 -4 54 0
3136 4 -54 0
-3137 3136 58 0
-3137 -3136 -58 0
3137 -3136 58 0
3137 3136 -58 0
-3138 3137 79 0
-3138 -3137 -79 0
3138 -3137 79 0
3138 3137 -79 0
-3139 3138 80 0
-3139 -3138 -80 0
3139 -3138 80 0
3139 3138 -80 0
-3140 3139 81 0
-3140 -3139 -81 0
3140 -3139 81 0
3140 3139 -81 0
-3141 3140 82 0
-3141 -3140 -82 0
3141 -3140 82 0
3141 3140 -82 0
-3142 3141 83 0
-3142 -3141 -83 0
3142 -3141 83 0
3142 3141 -83 0
-3143 3142 84 0
-3143 -3142 -84 0
3143 -3142 84 0
3143 3142 -84 0
-3144 3143 86 0
-3144 -3143 -86 0
3144 -3143 86 0
3144 3143 -86 0
-3145 3144 88 0
-3145 -3144 -88 0
3145 -3144 88 0
3145 3144 -88 0
-3146 3145 90 0
-3146 -3145 -90 0
3146 -3145 90 0
3146 3145 -90 0
-3147 3146 92 0
-3147 -3146 -92 0
3147 -3146 92 0
3147 3146 -92 0
-3148 3147 93 0
-3148 -3147 -93 0
3148 -3147 93 0
3148 3147 -93 0
-3149 3148 95 0
-3149 -3148 -95 0
3149 -3148 95 0
3149 3148 -95 0
-3150 3149 97 0
-3150 -3149 -97 0
3150 -3149 97 0
3150 3149 -97 0
-3151 3150 101 0
-3151 -3150 -101 0
3151 -3150 101 0
3151 3150 -101 0
-3152 3151 102 0
-3152 -3151 -102 0
3152 -3151 102 0
3152 3151 -102 0
-3153 3152 107 0
-3153 -3152 -107 0
3153 -3152 107 0
3153 3152 -107 0
-3154 3153 108 0
-3154 -3153 -108 0
3154 -3153 108 0
3154 3153 -108 0
-3154 0
-3155 5 53 0
-3155 -5 -53 0
3155 -5 53 0
3155 5 -53 0
-3156 3155 54 0
-3156 -3155 -54 0
3156 -3155 54 0
3156 3155 -54 0
-3157 3156 59 0
-3157 -3156 -59 0
3157 -3156 59 0
3157 3156 -59 0
-3158 3157 94 0
-3158 -3157 -94 0
3158 -3157 94 0
3158 3157 -94 0
-3159 3158 107 0
-3159 -3158 -107 0
3159 -3158 107 0
3159 3158 -107 0
-3159 0
-3160 6 53 0
-3160 -6 -53 0
3160 -6 53 0
3160 6 -53 0
-3161 3160 60 0
-3161 -3160 -60 0
3161 -3160 60 0
3161 3160 -60 0
-3162 3161 79 0
-3162 -3161 -79 0
3162 -3161 79 0
3162 3161 -79 0
-3163 3162 80 0
-3163 -3162 -80 0
3163 -3162 80 0
3163 3162 -80 0
-3164 3163 81 0
-3164 -3163 -81 0
3164 -3163 81 0
3164 3163 -81 0
-3165 3164 82 0
-3165 -3164 -82 0
3165 -3164 82 0
3165 3164 -82 0
-3166 3165 83 0
-3166 -3165 -83 0
3166 -3165 83 0
3166 3165 -83 0
-3167 3166 84 0
-3167 -3166 -84 0
3167 -3166 84 0
3167 3166 -84 0
-3168 3167 85 0
-3168 -3167 -85 0
3168 -3167 85 0
3168 3167 -85 0
-3169 3168 87 0
-3169 -3168 -87 0
3169 -3168 87 0
3169 3168 -87 0
-3170 3169 89 0
-3170 -3169 -89 0
3170 -3169 89 0
3170 3169 -89 0
-3171 3170 93 0
-3171 -3170 -93 0
3171 -3170 93 0
3171 3170 -93 0
-3172 3171 95 0
-3172 -3171 -95 0
3172 -3171 95 0
3172 3171 -95 0
-3173 3172 96 0
-3173 -3172 -96 0
3173 -3172 96 0
3173 3172 -96 0
-3174 3173 97 0
-3174 -3173 -97 0
3174 -3173 97 0
3174 3173 -97 0
-3175 3174 98 0
-3175 -3174 -98 0
3175 -3174 98 0
3175 3174 -98 0
-3176 3175 102 0
-3176 -3175 -102 0
3176 -3175 102 0
3176 3175 -102 0
-3177 3176 103 0
-3177 -3176 -103 0
3177 -3176 103 0
3177 3176 -103 0
-3178 3177 107 0
-3178 -3177 -107 0
3178 -3177 107 0
3178 3177 -107 0
-3178 0
-3179 7 53 0
-3179 -7 -53 0
3179 -7 53 0
3179 7 -53 0
-3180 3179 57 0
-3180 -3179 -57 0
3180 -3179 57 0
3180 3179 -57 0
-3181 3180 59 0
-3181 -3180 -59 0
3181 -3180 59 0
3181 3180 -59 0
-3182 3181 60 0
-3182 -3181 -60 0
3182 -3181 60 0
3182 3181 -60 0
-3183 3182 63 0
-3183 -3182 -63 0
3183 -3182 63 0
3183 3182 -63 0
-3184 3183 64 0
-3184 -3183 -64 0
3184 -3183 64 0
3184 3183 -64 0
-3185 3184 66 0
-3185 -3184 -66 0
3185 -3184 66 0
3185 3184 -66 0
-3186 3185 67 0
-3186 -3185 -67 0
3186 -3185 67 0
3186 3185 -67 0
-3187 3186 68 0
-3187 -3186 -68 0
3187 -3186 68 0
3187 3186 -68 0
-3188 3187 70 0
-3188 -3187 -70 0
3188 -3187 70 0
3188 3187 -70 0
-3189 3188 71 0
-3189 -3188 -71 0
3189 -3188 71 0
3189 3188 -71 0
-3190 3189 74 0
-3190 -3189 -74 0
3190 -3189 74 0
3190 3189 -74 0
-3191 3190 75 0
-3191 -3190 -75 0
3191 -3190 75 0
3191 3190 -75 0
-3192 3191 77 0
-3192 -3191 -77 0
3192 -3191 77 0
3192 3191 -77 0
-3193 3192 78 0
-3193 -3192 -78 0
3193 -3192 78 0
3193 3192 -78 0
-3194 3193 80 0
-3194 -3193 -80 0
3194 -3193 80 0
3194 3193 -80 0
-3195 3194 83 0
-3195 -3194 -83 0
3195 -3194 83 0
3195 3194 -83 0
-3196 3195 85 0
-3196 -3195 -85 0
3196 -3195 85 0
3196 3195 -85 0
-3197 3196 89 0
-3197 -3196 -89 0
3197 -3196 89 0
3197 3196 -89 0
-3198 3197 90 0
-3198 -3197 -90 0
3198 -3197 90 0
3198 3197 -90 0
-3199 3198 94 0
-3199 -3198 -94 0
3199 -3198 94 0
3199 3198 -94 0
-3200 3199 96 0
-3200 -3199 -96 0
3200 -3199 96 0
3200 3199 -96 0
-3201 3200 97 0
-3201 -3200 -97 0
3201 -3200 97 0
3201 3200 -97 0
-3202 3201 98 0
-3202 -3201 -98 0
3202 -3201 98 0
3202 3201 -98 0
-3203 3202 99 0
-3203 -3202 -99 0
3203 -3202 99 0
3203 3202 -99 0
-3204 3203 102 0
-3204 -3203 -102 0
3204 -3203 102 0
3204 3203 -102 0
-3205 3204 103 0
-3205 -3204 -103 0
3205 -3204 103 0
3205 3204 -103 0
-3206 3205 105 0
-3206 -3205 -105 0
3206 -3205 105 0
3206 3205 -105 0
-3207 3206 106 0
-3207 -3206 -106 0
3207 -3206 106 0
3207 3206 -106 0
-3207 0
-3208 8 54 0
-3208 -8 -54 0
3208 -8 54 0
3208 8 -54 0
-3209 3208 57 0
-3209 -3208 -57 0
3209 -3208 57 0
3209 3208 -57 0
-3210 3209 62 0
-3210 -3209 -62 0
3210 -3209 62 0
3210 3209 -62 0
-3211 3210 79 0
-3211 -3210 -79 0
3211 -3210 79 0
3211 3210 -79 0
-3212 3211 80 0
-3212 -3211 -80 0
3212 -3211 80 0
3212 3211 -80 0
-3213 3212 81 0
-3213 -3212 -81 0
3213 -3212 81 0
3213 3212 -81 0
-3214 3213 82 0
-3214 -3213 -82 0
3214 -3213 82 0
3214 3213 -82 0
-3215 3214 83 0
-3215 -3214 -83 0
3215 -3214 83 0
3215 3214 -83 0
-3216 3215 84 0
-3216 -3215 -84 0
3216 -3215 84 0
3216 3215 -84 0
-3217 3216 85 0
-3217 -3216 -85 0
3217 -3216 85 0
3217 3216 -85 0
-3218 3217 87 0
-3218 -3217 -87 0
3218 -3217 87 0
3218 3217 -87 0
-3219 3218 89 0
-3219 -3218 -89 0
3219 -3218 89 0
3219 3218 -89 0
-3220 3219 93 0
-3220 -3219 -93 0
3220 -3219 93 0
3220 3219 -93 0
-3221 3220 94 0
-3221 -3220 -94 0
3221 -3220 94 0
3221 3220 -94 0
-3222 3221 95 0
-3222 -3221 -95 0
3222 -3221 95 0
3222 3221 -95 0
-3223 3222 96 0
-3223 -3222 -96 0
3223 -3222 96 0
3223 3222 -96 0
-3224 3223 99 0
-3224 -3223 -99 0
3224 -3223 99 0
3224 3223 -99 0
-3225 3224 101 0
-3225 -3224 -101 0
3225 -3224 101 0
3225 3224 -101 0
-3226 3225 105 0
-3226 -3225 -105 0
3226 -3225 105 0
3226 3225 -105 0
-3227 3226 106 0
-3227 -3226 -106 0
3227 -3226 106 0
3227 3226 -106 0
-3228 3227 108 0
-3228 -3227 -108 0
3228 -3227 108 0
3228 3227 -108 0
-3228 0
-3229 9 53 0
-3229 -9 -53 0
3229 -9 53 0
3229 9 -53 0
-3230 3229 54 0
-3230 -3229 -54 0
3230 -3229 54 0
3230 3229 -54 0
-3231 3230 58 0
-3231 -3230 -58 0
3231 -3230 58 0
3231 3230 -58 0
-3232 3231 63 0
-3232 -3231 -63 0
3232 -3231 63 0
3232 3231 -63 0
-3233 3232 85 0
-3233 -3232 -85 0
3233 -3232 85 0
3233 3232 -85 0
-3234 3233 86 0
-3234 -3233 -86 0
3234 -3233 86 0
3234 3233 -86 0
-3235 3234 87 0
-3235 -3234 -87 0
3235 -3234 87 0
3235 3234 -87 0
-3236 3235 88 0
-3236 -3235 -88 0
3236 -3235 88 0
3236 3235 -88 0
-3237 3236 89 0
-3237 -3236 -89 0
3237 -3236 89 0
3237 3236 -89 0
-3238 3237 90 0
-3238 -3237 -90 0
3238 -3237 90 0
3238 3237 -90 0
-3239 3238 91 0
-3239 -3238 -91 0
3239 -3238 91 0
3239 3238 -91 0
-3240 3239 93 0
-3240 -3239 -93 0
3240 -3239 93 0
3240 3239 -93 0
-3241 3240 94 0
-3241 -3240 -94 0
3241 -3240 94 0
3241 3240 -94 0
-3242 3241 95 0
-3242 -3241 -95 0
3242 -3241 95 0
3242 3241 -95 0
-3243 3242 97 0
-3243 -3242 -97 0
3243 -3242 97 0
3243 3242 -97 0
-3244 3243 98 0
-3244 -3243 -98 0
3244 -3243 98 0
3244 3243 -98 0
-3245 3244 100 0
-3245 -3244 -100 0
3245 -3244 100 0
3245 3244 -100 0
-3246 3245 106 0
-3246 -3245 -106 0
3246 -3245 106 0
3246 3245 -106 0
-3247 3246 108 0
-3247 -3246 -108 0
3247 -3246 108 0
3247 3246 -108 0
-3247 0
-3248 10 53 0
-3248 -10 -53 0
3248 -10 53 0
3248 10 -53 0
-3249 3248 59 0
-3249 -3248 -59 0
3249 -3248 59 0
3249 3248 -59 0
-3250 3249 64 0
-3250 -3249 -64 0
3250 -3249 64 0
3250 3249 -64 0
-3251 3250 79 0
-3251 -3250 -79 0
3251 -3250 79 0
3251 3250 -79 0
-3252 3251 80 0
-3252 -3251 -80 0
3252 -3251 80 0
3252 3251 -80 0
-3253 3252 81 0
-3253 -3252 -81 0
3253 -3252 81 0
3253 3252 -81 0
-3254 3253 82 0
-3254 -3253 -82 0
3254 -3253 82 0
3254 3253 -82 0
-3255 3254 83 0
-3255 -3254 -83 0
3255 -3254 83 0
3255 3254 -83 0
-3256 3255 84 0
-3256 -3255 -84 0
3256 -3255 84 0
3256 3255 -84 0
-3257 3256 86 0
-3257 -3256 -86 0
3257 -3256 86 0
3257 3256 -86 0
-3258 3257 88 0
-3258 -3257 -88 0
3258 -3257 88 0
3258 3257 -88 0
-3259 3258 90 0
-3259 -3258 -90 0
3259 -3258 90 0
3259 3258 -90 0
-3260 3259 92 0
-3260 -3259 -92 0
3260 -3259 92 0
3260 3259 -92 0
-3261 3260 93 0
-3261 -3260 -93 0
3261 -3260 93 0
3261 3260 -93 0
-3262 3261 94 0
-3262 -3261 -94 0
3262 -3261 94 0
3262 3261 -94 0
-3263 3262 95 0
-3263 -3262 -95 0
3263 -3262 95 0
3263 3262 -95 0
-3264 3263 97 0
-3264 -3263 -97 0
3264 -3263 97 0
3264 3263 -97 0
-3265 3264 99 0
-3265 -3264 -99 0
3265 -3264 99 0
3265 3264 -99 0
-3266 3265 101 0
-3266 -3265 -101 0
3266 -3265 101 0
3266 3265 -101 0
-3267 3266 102 0
-3267 -3266 -102 0
3267 -3266 102 0
3267 3266 -102 0
-3268 3267 108 0
-3268 -3267 -108 0
3268 -3267 108 0
3268 3267 -108 0
-3268 0
-3269 11 54 0
-3269 -11 -54 0
3269 -11 54 0
3269 11 -54 0
-3270 3269 60 0
-3270 -3269 -60 0
3270 -3269 60 0
3270 3269 -60 0
-3271 3270 65 0
-3271 -3270 -65 0
3271 -3270 65 0
3271 3270 -65 0
-3272 3271 79 0
-3272 -3271 -79 0
3272 -3271 79 0
3272 3271 -79 0
-3273 3272 80 0
-3273 -3272 -80 0
3273 -3272 80 0
3273 3272 -80 0
-3274 3273 81 0
-3274 -3273 -81 0
3274 -3273 81 0
3274 3273 -81 0
-3275 3274 82 0
-3275 -3274 -82 0
3275 -3274 82 0
3275 3274 -82 0
-3276 3275 83 0
-3276 -3275 -83 0
3276 -3275 83 0
3276 3275 -83 0
-3277 3276 84 0
-3277 -3276 -84 0
3277 -3276 84 0
3277 3276 -84 0
-3278 3277 85 0
-3278 -3277 -85 0
3278 -3277 85 0
3278 3277 -85 0
-3279 3278 87 0
-3279 -3278 -87 0
3279 -3278 87 0
3279 3278 -87 0
-3280 3279 89 0
-3280 -3279 -89 0
3280 -3279 89 0
3280 3279 -89 0
-3281 3280 93 0
-3281 -3280 -93 0
3281 -3280 93 0
3281 3280 -93 0
-3282 3281 94 0
-3282 -3281 -94 0
3282 -3281 94 0
3282 3281 -94 0
-3283 3282 95 0
-3283 -3282 -95 0
3283 -3282 95 0
3283 3282 -95 0
-3284 3283 96 0
-3284 -3283 -96 0
3284 -3283 96 0
3284 3283 -96 0
-3285 3284 97 0
-3285 -3284 -97 0
3285 -3284 97 0
3285 3284 -97 0
-3286 3285 98 0
-3286 -3285 -98 0
3286 -3285 98 0
3286 3285 -98 0
-3287 3286 100 0
-3287 -3286 -100 0
3287 -3286 100 0
3287 3286 -100 0
-3288 3287 102 0
-3288 -3287 -102 0
3288 -3287 102 0
3288 3287 -102 0
-3289 3288 103 0
-3289 -3288 -103 0
3289 -3288 103 0
3289 3288 -103 0
-3289 0
-3290 12 53 0
-3290 -12 -53 0
3290 -12 53 0
3290 12 -53 0
-3291 3290 54 0
-3291 -3290 -54 0
3291 -3290 54 0
3291 3290 -54 0
-3292 3291 57 0
-3292 -3291 -57 0
3292 -3291 57 0
3292 3291 -57 0
-3293 3292 58 0
-3293 -3292 -58 0
3293 -3292 58 0
3293 3292 -58 0
-3294 3293 60 0
-3294 -3293 -60 0
3294 -3293 60 0
3294 3293 -60 0
-3295 3294 61 0
-3295 -3294 -61 0
3295 -3294 61 0
3295 3294 -61 0
-3296 3295 62 0
-3296 -3295 -62 0
3296 -3295 62 0
3296 3295 -62 0
-3297 3296 64 0
-3297 -3296 -64 0
3297 -3296 64 0
3297 3296 -64 0
-3298 3297 65 0
-3298 -3297 -65 0
3298 -3297 65 0
3298 3297 -65 0
-3299 3298 66 0
-3299 -3298 -66 0
3299 -3298 66 0
3299 3298 -66 0
-3300 3299 68 0
-3300 -3299 -68 0
3300 -3299 68 0
3300 3299 -68 0
-3301 3300 69 0
-3301 -3300 -69 0
3301 -3300 69 0
3301 3300 -69 0
-3302 3301 71 0
-3302 -3301 -71 0
3302 -3301 71 0
3302 3301 -71 0
-3303 3302 72 0
-3303 -3302 -72 0
3303 -3302 72 0
3303 3302 -72 0
-3304 3303 73 0
-3304 -3303 -73 0
3304 -3303 73 0
3304 3303 -73 0
-3305 3304 75 0
-3305 -3304 -75 0
3305 -3304 75 0
3305 3304 -75 0
-3306 3305 76 0
-3306 -3305 -76 0
3306 -3305 76 0
3306 3305 -76 0
-3307 3306 78 0
-3307 -3306 -78 0
3307 -3306 78 0
3307 3306 -78 0
-3308 3307 79 0
-3308 -3307 -79 0
3308 -3307 79 0
3308 3307 -79 0
-3309 3308 80 0
-3309 -3308 -80 0
3309 -3308 80 0
3309 3308 -80 0
-3310 3309 82 0
-3310 -3309 -82 0
3310 -3309 82 0
3310 3309 -82 0
-3311 3310 83 0
-3311 -3310 -83 0
3311 -3310 83 0
3311 3310 -83 0
-3312 3311 85 0
-3312 -3311 -85 0
3312 -3311 85 0
3312 3311 -85 0
-3313 3312 88 0
-3313 -3312 -88 0
3313 -3312 88 0
3313 3312 -88 0
-3314 3313 95 0
-3314 -3313 -95 0
3314 -3313 95 0
3314 3313 -95 0
-3315 3314 96 0
-3315 -3314 -96 0
3315 -3314 96 0
3315 3314 -96 0
-3316 3315 97 0
-3316 -3315 -97 0
3316 -3315 97 0
3316 3315 -97 0
-3317 3316 98 0
-3317 -3316 -98 0
3317 -3316 98 0
3317 3316 -98 0
-3318 3317 99 0
-3318 -3317 -99 0
3318 -3317 99 0
3318 3317 -99 0
-3319 3318 100 0
-3319 -3318 -100 0
3319 -3318 100 0
3319 3318 -100 0
-3320 3319 102 0
-3320 -3319 -102 0
3320 -3319 102 0
3320 3319 -102 0
-3321 3320 103 0
-3321 -3320 -103 0
3321 -3320 103 0
3321 3320 -103 0
-3322 3321 105 0
-3322 -3321 -105 0
3322 -3321 105 0
3322 3321 -105 0
-3322 0
-3323 13 53 0
-3323 -13 -53 0
3323 -13 53 0
3323 13 -53 0
-3324 3323 54 0
-3324 -3323 -54 0
3324 -3323 54 0
3324 3323 -54 0
-3325 3324 59 0
-3325 -3324 -59 0
3325 -3324 59 0
3325 3324 -59 0
-3326 3325 60 0
-3326 -3325 -60 0
3326 -3325 60 0
3326 3325 -60 0
-3327 3326 61 0
-3327 -3326 -61 0
3327 -3326 61 0
3327 3326 -61 0
-3328 3327 62 0
-3328 -3327 -62 0
3328 -3327 62 0
3328 3327 -62 0
-3329 3328 63 0
-3329 -3328 -63 0
3329 -3328 63 0
3329 3328 -63 0
-3330 3329 64 0
-3330 -3329 -64 0
3330 -3329 64 0
3330 3329 -64 0
-3331 3330 66 0
-3331 -3330 -66 0
3331 -3330 66 0
3331 3330 -66 0
-3332 3331 68 0
-3332 -3331 -68 0
3332 -3331 68 0
3332 3331 -68 0
-3333 3332 70 0
-3333 -3332 -70 0
3333 -3332 70 0
3333 3332 -70 0
-3334 3333 71 0
-3334 -3333 -71 0
3334 -3333 71 0
3334 3333 -71 0
-3335 3334 74 0
-3335 -3334 -74 0
3335 -3334 74 0
3335 3334 -74 0
-3336 3335 75 0
-3336 -3335 -75 0
3336 -3335 75 0
3336 3335 -75 0
-3337 3336 77 0
-3337 -3336 -77 0
3337 -3336 77 0
3337 3336 -77 0
-3338 3337 78 0
-3338 -3337 -78 0
3338 -3337 78 0
3338 3337 -78 0
-3339 3338 79 0
-3339 -3338 -79 0
3339 -3338 79 0
3339 3338 -79 0
-3340 3339 81 0
-3340 -3339 -81 0
3340 -3339 81 0
3340 3339 -81 0
-3341 3340 82 0
-3341 -3340 -82 0
3341 -3340 82 0
3341 3340 -82 0
-3342 3341 84 0
-3342 -3341 -84 0
3342 -3341 84 0
3342 3341 -84 0
-3343 3342 87 0
-3343 -3342 -87 0
3343 -3342 87 0
3343 3342 -87 0
-3344 3343 90 0
-3344 -3343 -90 0
3344 -3343 90 0
3344 3343 -90 0
-3345 3344 93 0
-3345 -3344 -93 0
3345 -3344 93 0
3345 3344 -93 0
-3346 3345 95 0
-3346 -3345 -95 0
3346 -3345 95 0
3346 3345 -95 0
-3347 3346 97 0
-3347 -3346 -97 0
3347 -3346 97 0
3347 3346 -97 0
-3348 3347 98 0
-3348 -3347 -98 0
3348 -3347 98 0
3348 3347 -98 0
-3349 3348 101 0
-3349 -3348 -101 0
3349 -3348 101 0
3349 3348 -101 0
-3350 3349 102 0
-3350 -3349 -102 0
3350 -3349 102 0
3350 3349 -102 0
-3351 3350 103 0
-3351 -3350 -103 0
3351 -3350 103 0
3351 3350 -103 0
-3351 0
-3352 14 53 0
-3352 -14 -53 0
3352 -14 53 0
3352 14 -53 0
-3353 3352 57 0
-3353 -3352 -57 0
3353 -3352 57 0
3353 3352 -57 0
-3354 3353 58 0
-3354 -3353 -58 0
3354 -3353 58 0
3354 3353 -58 0
-3355 3354 63 0
-3355 -3354 -63 0
3355 -3354 63 0
3355 3354 -63 0
-3356 3355 68 0
-3356 -3355 -68 0
3356 -3355 68 0
3356 3355 -68 0
-3357 3356 79 0
-3357 -3356 -79 0
3357 -3356 79 0
3357 3356 -79 0
-3358 3357 80 0
-3358 -3357 -80 0
3358 -3357 80 0
3358 3357 -80 0
-3359 3358 81 0
-3359 -3358 -81 0
3359 -3358 81 0
3359 3358 -81 0
-3360 3359 82 0
-3360 -3359 -82 0
3360 -3359 82 0
3360 3359 -82 0
-3361 3360 83 0
-3361 -3360 -83 0
3361 -3360 83 0
3361 3360 -83 0
-3362 3361 84 0
-3362 -3361 -84 0
3362 -3361 84 0
3362 3361 -84 0
-3363 3362 86 0
-3363 -3362 -86 0
3363 -3362 86 0
3363 3362 -86 0
-3364 3363 88 0
-3364 -3363 -88 0
3364 -3363 88 0
3364 3363 -88 0
-3365 3364 90 0
-3365 -3364 -90 0
3365 -3364 90 0
3365 3364 -90 0
-3366 3365 91 0
-3366 -3365 -91 0
3366 -3365 91 0
3366 3365 -91 0
-3367 3366 96 0
-3367 -3366 -96 0
3367 -3366 96 0
3367 3366 -96 0
-3368 3367 97 0
-3368 -3367 -97 0
3368 -3367 97 0
3368 3367 -97 0
-3369 3368 98 0
-3369 -3368 -98 0
3369 -3368 98 0
3369 3368 -98 0
-3370 3369 99 0
-3370 -3369 -99 0
3370 -3369 99 0
3370 3369 -99 0
-3371 3370 100 0
-3371 -3370 -100 0
3371 -3370 100 0
3371 3370 -100 0
-3372 3371 101 0
-3372 -3371 -101 0
3372 -3371 101 0
3372 3371 -101 0
-3373 3372 103 0
-3373 -3372 -103 0
3373 -3372 103 0
3373 3372 -103 0
-3374 3373 105 0
-3374 -3373 -105 0
3374 -3373 105 0
3374 3373 -105 0
-3374 0
-3375 15 54 0
-3375 -15 -54 0
3375 -15 54 0
3375 15 -54 0
-3376 3375 58 0
-3376 -3375 -58 0
3376 -3375 58 0
3376 3375 -58 0
-3377 3376 59 0
-3377 -3376 -59 0
3377 -3376 59 0
3377 3376 -59 0
-3378 3377 64 0
-3378 -3377 -64 0
3378 -3377 64 0
3378 3377 -64 0
-3379 3378 69 0
-3379 -3378 -69 0
3379 -3378 69 0
3379 3378 -69 0
-3380 3379 79 0
-3380 -3379 -79 0
3380 -3379 79 0
3380 3379 -79 0
-3381 3380 80 0
-3381 -3380 -80 0
3381 -3380 80 0
3381 3380 -80 0
-3382 3381 81 0
-3382 -3381 -81 0
3382 -3381 81 0
3382 3381 -81 0
-3383 3382 82 0
-3383 -3382 -82 0
3383 -3382 82 0
3383 3382 -82 0
-3384 3383 83 0
-3384 -3383 -83 0
3384 -3383 83 0
3384 3383 -83 0
-3385 3384 84 0
-3385 -3384 -84 0
3385 -3384 84 0
3385 3384 -84 0
-3386 3385 85 0
-3386 -3385 -85 0
3386 -3385 85 0
3386 3385 -85 0
-3387 3386 87 0
-3387 -3386 -87 0
3387 -3386 87 0
3387 3386 -87 0
-3388 3387 89 0
-3388 -3387 -89 0
3388 -3387 89 0
3388 3387 -89 0
-3389 3388 91 0
-3389 -3388 -91 0
3389 -3388 91 0
3389 3388 -91 0
-3390 3389 92 0
-3390 -3389 -92 0
3390 -3389 92 0
3390 3389 -92 0
-3391 3390 98 0
-3391 -3390 -98 0
3391 -3390 98 0
3391 3390 -98 0
-3392 3391 99 0
-3392 -3391 -99 0
3392 -3391 99 0
3392 3391 -99 0
-3393 3392 100 0
-3393 -3392 -100 0
3393 -3392 100 0
3393 3392 -100 0
-3394 3393 101 0
-3394 -3393 -101 0
3394 -3393 101 0
3394 3393 -101 0
-3395 3394 102 0
-3395 -3394 -102 0
3395 -3394 102 0
3395 3394 -102 0
-3396 3395 104 0
-3396 -3395 -104 0
3396 -3395 104 0
3396 3395 -104 0
-3397 3396 106 0
-3397 -3396 -106 0
3397 -3396 106 0
3397 3396 -106 0
-3397 0
-3398 16 53 0
-3398 -16 -53 0
3398 -16 53 0
3398 16 -53 0
-3399 3398 54 0
-3399 -3398 -54 0
3399 -3398 54 0
3399 3398 -54 0
-3400 3399 59 0
-3400 -3399 -59 0
3400 -3399 59 0
3400 3399 -59 0
-3401 3400 60 0
-3401 -3400 -60 0
3401 -3400 60 0
3401 3400 -60 0
-3402 3401 65 0
-3402 -3401 -65 0
3402 -3401 65 0
3402 3401 -65 0
-3403 3402 70 0
-3403 -3402 -70 0
3403 -3402 70 0
3403 3402 -70 0
-3404 3403 85 0
-3404 -3403 -85 0
3404 -3403 85 0
3404 3403 -85 0
-3405 3404 86 0
-3405 -3404 -86 0
3405 -3404 86 0
3405 3404 -86 0
-3406 3405 87 0
-3406 -3405 -87 0
3406 -3405 87 0
3406 3405 -87 0
-3407 3406 88 0
-3407 -3406 -88 0
3407 -3406 88 0
3407 3406 -88 0
-3408 3407 89 0
-3408 -3407 -89 0
3408 -3407 89 0
3408 3407 -89 0
-3409 3408 90 0
-3409 -3408 -90 0
3409 -3408 90 0
3409 3408 -90 0
-3410 3409 92 0
-3410 -3409 -92 0
3410 -3409 92 0
3410 3409 -92 0
-3411 3410 96 0
-3411 -3410 -96 0
3411 -3410 96 0
3411 3410 -96 0
-3412 3411 98 0
-3412 -3411 -98 0
3412 -3411 98 0
3412 3411 -98 0
-3413 3412 99 0
-3413 -3412 -99 0
3413 -3412 99 0
3413 3412 -99 0
-3414 3413 100 0
-3414 -3413 -100 0
3414 -3413 100 0
3414 3413 -100 0
-3415 3414 101 0
-3415 -3414 -101 0
3415 -3414 101 0
3415 3414 -101 0
-3416 3415 103 0
-3416 -3415 -103 0
3416 -3415 103 0
3416 3415 -103 0
-3417 3416 105 0
-3417 -3416 -105 0
3417 -3416 105 0
3417 3416 -105 0
-3418 3417 108 0
-3418 -3417 -108 0
3418 -3417 108 0
3418 3417 -108 0
-3418 0
-3419 17 53 0
-3419 -17 -53 0
3419 -17 53 0
3419 17 -53 0
-3420 3419 57 0
-3420 -3419 -57 0
3420 -3419 57 0
3420 3419 -57 0
-3421 3420 58 0
-3421 -3420 -58 0
3421 -3420 58 0
3421 3420 -58 0
-3422 3421 61 0
-3422 -3421 -61 0
3422 -3421 61 0
3422 3421 -61 0
-3423 3422 62 0
-3423 -3422 -62 0
3423 -3422 62 0
3423 3422 -62 0
-3424 3423 64 0
-3424 -3423 -64 0
3424 -3423 64 0
3424 3423 -64 0
-3425 3424 65 0
-3425 -3424 -65 0
3425 -3424 65 0
3425 3424 -65 0
-3426 3425 66 0
-3426 -3425 -66 0
3426 -3425 66 0
3426 3425 -66 0
-3427 3426 68 0
-3427 -3426 -68 0
3427 -3426 68 0
3427 3426 -68 0
-3428 3427 69 0
-3428 -3427 -69 0
3428 -3427 69 0
3428 3427 -69 0
-3429 3428 72 0
-3429 -3428 -72 0
3429 -3428 72 0
3429 3428 -72 0
-3430 3429 73 0
-3430 -3429 -73 0
3430 -3429 73 0
3430 3429 -73 0
-3431 3430 75 0
-3431 -3430 -75 0
3431 -3430 75 0
3431 3430 -75 0
-3432 3431 76 0
-3432 -3431 -76 0
3432 -3431 76 0
3432 3431 -76 0
-3433 3432 78 0
-3433 -3432 -78 0
3433 -3432 78 0
3433 3432 -78 0
-3434 3433 81 0
-3434 -3433 -81 0
3434 -3433 81 0
3434 3433 -81 0
-3435 3434 84 0
-3435 -3434 -84 0
3435 -3434 84 0
3435 3434 -84 0
-3436 3435 87 0
-3436 -3435 -87 0
3436 -3435 87 0
3436 3435 -87 0
-3437 3436 88 0
-3437 -3436 -88 0
3437 -3436 88 0
3437 3436 -88 0
-3438 3437 89 0
-3438 -3437 -89 0
3438 -3437 89 0
3438 3437 -89 0
-3439 3438 93 0
-3439 -3438 -93 0
3439 -3438 93 0
3439 3438 -93 0
-3440 3439 94 0
-3440 -3439 -94 0
3440 -3439 94 0
3440 3439 -94 0
-3441 3440 99 0
-3441 -3440 -99 0
3441 -3440 99 0
3441 3440 -99 0
-3442 3441 105 0
-3442 -3441 -105 0
3442 -3441 105 0
3442 3441 -105 0
-3443 3442 106 0
-3443 -3442 -106 0
3443 -3442 106 0
3443 3442 -106 0
-3443 0
-3444 18 54 0
-3444 -18 -54 0
3444 -18 54 0
3444 18 -54 0
-3445 3444 58 0
-3445 -3444 -58 0
3445 -3444 58 0
3445 3444 -58 0
-3446 3445 59 0
-3446 -3445 -59 0
3446 -3445 59 0
3446 3445 -59 0
-3447 3446 61 0
-3447 -3446 -61 0
3447 -3446 61 0
3447 3446 -61 0
-3448 3447 62 0
-3448 -3447 -62 0
3448 -3447 62 0
3448 3447 -62 0
-3449 3448 63 0
-3449 -3448 -63 0
3449 -3448 63 0
3449 3448 -63 0
-3450 3449 65 0
-3450 -3449 -65 0
3450 -3449 65 0
3450 3449 -65 0
-3451 3450 66 0
-3451 -3450 -66 0
3451 -3450 66 0
3451 3450 -66 0
-3452 3451 67 0
-3452 -3451 -67 0
3452 -3451 67 0
3452 3451 -67 0
-3453 3452 69 0
-3453 -3452 -69 0
3453 -3452 69 0
3453 3452 -69 0
-3454 3453 70 0
-3454 -3453 -70 0
3454 -3453 70 0
3454 3453 -70 0
-3455 3454 73 0
-3455 -3454 -73 0
3455 -3454 73 0
3455 3454 -73 0
-3456 3455 74 0
-3456 -3455 -74 0
3456 -3455 74 0
3456 3455 -74 0
-3457 3456 76 0
-3457 -3456 -76 0
3457 -3456 76 0
3457 3456 -76 0
-3458 3457 77 0
-3458 -3457 -77 0
3458 -3457 77 0
3458 3457 -77 0
-3459 3458 79 0
-3459 -3458 -79 0
3459 -3458 79 0
3459 3458 -79 0
-3460 3459 82 0
-3460 -3459 -82 0
3460 -3459 82 0
3460 3459 -82 0
-3461 3460 88 0
-3461 -3460 -88 0
3461 -3460 88 0
3461 3460 -88 0
-3462 3461 89 0
-3462 -3461 -89 0
3462 -3461 89 0
3462 3461 -89 0
-3463 3462 90 0
-3463 -3462 -90 0
3463 -3462 90 0
3463 3462 -90 0
-3464 3463 94 0
-3464 -3463 -94 0
3464 -3463 94 0
3464 3463 -94 0
-3465 3464 95 0
-3465 -3464 -95 0
3465 -3464 95 0
3465 3464 -95 0
-3466 3465 100 0
-3466 -3465 -100 0
3466 -3465 100 0
3466 3465 -100 0
-3467 3466 106 0
-3467 -3466 -106 0
3467 -3466 106 0
3467 3466 -106 0
-3468 3467 107 0
-3468 -3467 -107 0
3468 -3467 107 0
3468 3467 -107 0
-3468 0
-3469 19 54 0
-3469 -19 -54 0
3469 -19 54 0
3469 19 -54 0
-3470 3469 57 0
-3470 -3469 -57 0
3470 -3469 57 0
3470 3469 -57 0
-3471 3470 58 0
-3471 -3470 -58 0
3471 -3470 58 0
3471 3470 -58 0
-3472 3471 59 0
-3472 -3471 -59 0
3472 -3471 59 0
3472 3471 -59 0
-3473 3472 61 0
-3473 -3472 -61 0
3473 -3472 61 0
3473 3472 -61 0
-3474 3473 62 0
-3474 -3473 -62 0
3474 -3473 62 0
3474 3473 -62 0
-3475 3474 64 0
-3475 -3474 -64 0
3475 -3474 64 0
3475 3474 -64 0
-3476 3475 66 0
-3476 -3475 -66 0
3476 -3475 66 0
3476 3475 -66 0
-3477 3476 67 0
-3477 -3476 -67 0
3477 -3476 67 0
3477 3476 -67 0
-3478 3477 70 0
-3478 -3477 -70 0
3478 -3477 70 0
3478 3477 -70 0
-3479 3478 71 0
-3479 -3478 -71 0
3479 -3478 71 0
3479 3478 -71 0
-3480 3479 73 0
-3480 -3479 -73 0
3480 -3479 73 0
3480 3479 -73 0
-3481 3480 74 0
-3481 -3480 -74 0
3481 -3480 74 0
3481 3480 -74 0
-3482 3481 75 0
-3482 -3481 -75 0
3482 -3481 75 0
3482 3481 -75 0
-3483 3482 77 0
-3483 -3482 -77 0
3483 -3482 77 0
3483 3482 -77 0
-3484 3483 78 0
-3484 -3483 -78 0
3484 -3483 78 0
3484 3483 -78 0
-3485 3484 80 0
-3485 -3484 -80 0
3485 -3484 80 0
3485 3484 -80 0
-3486 3485 83 0
-3486 -3485 -83 0
3486 -3485 83 0
3486 3485 -83 0
-3487 3486 86 0
-3487 -3486 -86 0
3487 -3486 86 0
3487 3486 -86 0
-3488 3487 87 0
-3488 -3487 -87 0
3488 -3487 87 0
3488 3487 -87 0
-3489 3488 88 0
-3489 -3488 -88 0
3489 -3488 88 0
3489 3488 -88 0
-3490 3489 91 0
-3490 -3489 -91 0
3490 -3489 91 0
3490 3489 -91 0
-3491 3490 93 0
-3491 -3490 -93 0
3491 -3490 93 0
3491 3490 -93 0
-3492 3491 95 0
-3492 -3491 -95 0
3492 -3491 95 0
3492 3491 -95 0
-3493 3492 96 0
-3493 -3492 -96 0
3493 -3492 96 0
3493 3492 -96 0
-3494 3493 99 0
-3494 -3493 -99 0
3494 -3493 99 0
3494 3493 -99 0
-3495 3494 100 0
-3495 -3494 -100 0
3495 -3494 100 0
3495 3494 -100 0
-3496 3495 102 0
-3496 -3495 -102 0
3496 -3495 102 0
3496 3495 -102 0
-3497 3496 105 0
-3497 -3496 -105 0
3497 -3496 105 0
3497 3496 -105 0
-3497 0
-3498 20 53 0
-3498 -20 -53 0
3498 -20 53 0
3498 20 -53 0
-3499 3498 54 0
-3499 -3498 -54 0
3499 -3498 54 0
3499 3498 -54 0
-3500 3499 58 0
-3500 -3499 -58 0
3500 -3499 58 0
3500 3499 -58 0
-3501 3500 59 0
-3501 -3500 -59 0
3501 -3500 59 0
3501 3500 -59 0
-3502 3501 60 0
-3502 -3501 -60 0
3502 -3501 60 0
3502 3501 -60 0
-3503 3502 61 0
-3503 -3502 -61 0
3503 -3502 61 0
3503 3502 -61 0
-3504 3503 62 0
-3504 -3503 -62 0
3504 -3503 62 0
3504 3503 -62 0
-3505 3504 63 0
-3505 -3504 -63 0
3505 -3504 63 0
3505 3504 -63 0
-3506 3505 65 0
-3506 -3505 -65 0
3506 -3505 65 0
3506 3505 -65 0
-3507 3506 68 0
-3507 -3506 -68 0
3507 -3506 68 0
3507 3506 -68 0
-3508 3507 71 0
-3508 -3507 -71 0
3508 -3507 71 0
3508 3507 -71 0
-3509 3508 72 0
-3509 -3508 -72 0
3509 -3508 72 0
3509 3508 -72 0
-3510 3509 73 0
-3510 -3509 -73 0
3510 -3509 73 0
3510 3509 -73 0
-3511 3510 74 0
-3511 -3510 -74 0
3511 -3510 74 0
3511 3510 -74 0
-3512 3511 75 0
-3512 -3511 -75 0
3512 -3511 75 0
3512 3511 -75 0
-3513 3512 76 0
-3513 -3512 -76 0
3513 -3512 76 0
3513 3512 -76 0
-3514 3513 78 0
-3514 -3513 -78 0
3514 -3513 78 0
3514 3513 -78 0
-3515 3514 79 0
-3515 -3514 -79 0
3515 -3514 79 0
3515 3514 -79 0
-3516 3515 80 0
-3516 -3515 -80 0
3516 -3515 80 0
3516 3515 -80 0
-3517 3516 82 0
-3517 -3516 -82 0
3517 -3516 82 0
3517 3516 -82 0
-3518 3517 83 0
-3518 -3517 -83 0
3518 -3517 83 0
3518 3517 -83 0
-3519 3518 85 0
-3519 -3518 -85 0
3519 -3518 85 0
3519 3518 -85 0
-3520 3519 88 0
-3520 -3519 -88 0
3520 -3519 88 0
3520 3519 -88 0
-3521 3520 91 0
-3521 -3520 -91 0
3521 -3520 91 0
3521 3520 -91 0
-3522 3521 92 0
-3522 -3521 -92 0
3522 -3521 92 0
3522 3521 -92 0
-3523 3522 93 0
-3523 -3522 -93 0
3523 -3522 93 0
3523 3522 -93 0
-3524 3523 94 0
-3524 -3523 -94 0
3524 -3523 94 0
3524 3523 -94 0
-3525 3524 98 0
-3525 -3524 -98 0
3525 -3524 98 0
3525 3524 -98 0
-3526 3525 100 0
-3526 -3525 -100 0
3526 -3525 100 0
3526 3525 -100 0
-3527 3526 101 0
-3527 -3526 -101 0
3527 -3526 101 0
3527 3526 -101 0
-3528 3527 102 0
-3528 -3527 -102 0
3528 -3527 102 0
3528 3527 -102 0
-3529 3528 103 0
-3529 -3528 -103 0
3529 -3528 103 0
3529 3528 -103 0
-3530 3529 106 0
-3530 -3529 -106 0
3530 -3529 106 0
3530 3529 -106 0
-3531 3530 107 0
-3531 -3530 -107 0
3531 -3530 107 0
3531 3530 -107 0
-3532 3531 108 0
-3532 -3531 -108 0
3532 -3531 108 0
3532 3531 -108 0
-3532 0
-3533 21 53 0
-3533 -21 -53 0
3533 -21 53 0
3533 21 -53 0
-3534 3533 57 0
-3534 -3533 -57 0
3534 -3533 57 0
3534 3533 -57 0
-3535 3534 58 0
-3535 -3534 -58 0
3535 -3534 58 0
3535 3534 -58 0
-3536 3535 59 0
-3536 -3535 -59 0
3536 -3535 59 0
3536 3535 -59 0
-3537 3536 61 0
-3537 -3536 -61 0
3537 -3536 61 0
3537 3536 -61 0
-3538 3537 63 0
-3538 -3537 -63 0
3538 -3537 63 0
3538 3537 -63 0
-3539 3538 65 0
-3539 -3538 -65 0
3539 -3538 65 0
3539 3538 -65 0
-3540 3539 66 0
-3540 -3539 -66 0
3540 -3539 66 0
3540 3539 -66 0
-3541 3540 67 0
-3541 -3540 -67 0
3541 -3540 67 0
3541 3540 -67 0
-3542 3541 68 0
-3542 -3541 -68 0
3542 -3541 68 0
3542 3541 -68 0
-3543 3542 71 0
-3543 -3542 -71 0
3543 -3542 71 0
3543 3542 -71 0
-3544 3543 74 0
-3544 -3543 -74 0
3544 -3543 74 0
3544 3543 -74 0
-3545 3544 77 0
-3545 -3544 -77 0
3545 -3544 77 0
3545 3544 -77 0
-3546 3545 78 0
-3546 -3545 -78 0
3546 -3545 78 0
3546 3545 -78 0
-3547 3546 80 0
-3547 -3546 -80 0
3547 -3546 80 0
3547 3546 -80 0
-3548 3547 83 0
-3548 -3547 -83 0
3548 -3547 83 0
3548 3547 -83 0
-3549 3548 85 0
-3549 -3548 -85 0
3549 -3548 85 0
3549 3548 -85 0
-3550 3549 89 0
-3550 -3549 -89 0
3550 -3549 89 0
3550 3549 -89 0
-3551 3550 90 0
-3551 -3550 -90 0
3551 -3550 90 0
3551 3550 -90 0
-3552 3551 91 0
-3552 -3551 -91 0
3552 -3551 91 0
3552 3551 -91 0
-3553 3552 92 0
-3553 -3552 -92 0
3553 -3552 92 0
3553 3552 -92 0
-3554 3553 93 0
-3554 -3553 -93 0
3554 -3553 93 0
3554 3553 -93 0
-3555 3554 95 0
-3555 -3554 -95 0
3555 -3554 95 0
3555 3554 -95 0
-3556 3555 97 0
-3556 -3555 -97 0
3556 -3555 97 0
3556 3555 -97 0
-3557 3556 99 0
-3557 -3556 -99 0
3557 -3556 99 0
3557 3556 -99 0
-3558 3557 100 0
-3558 -3557 -100 0
3558 -3557 100 0
3558 3557 -100 0
-3559 3558 105 0
-3559 -3558 -105 0
3559 -3558 105 0
3559 3558 -105 0
-3560 3559 107 0
-3560 -3559 -107 0
3560 -3559 107 0
3560 3559 -107 0
-3561 3560 108 0
-3561 -3560 -108 0
3561 -3560 108 0
3561 3560 -108 0
-3561 0
-3562 22 54 0
-3562 -22 -54 0
3562 -22 54 0
3562 22 -54 0
-3563 3562 58 0
-3563 -3562 -58 0
3563 -3562 58 0
3563 3562 -58 0
-3564 3563 59 0
-3564 -3563 -59 0
3564 -3563 59 0
3564 3563 -59 0
-3565 3564 60 0
-3565 -3564 -60 0
3565 -3564 60 0
3565 3564 -60 0
-3566 3565 61 0
-3566 -3565 -61 0
3566 -3565 61 0
3566 3565 -61 0
-3567 3566 62 0
-3567 -3566 -62 0
3567 -3566 62 0
3567 3566 -62 0
-3568 3567 64 0
-3568 -3567 -64 0
3568 -3567 64 0
3568 3567 -64 0
-3569 3568 66 0
-3569 -3568 -66 0
3569 -3568 66 0
3569 3568 -66 0
-3570 3569 68 0
-3570 -3569 -68 0
3570 -3569 68 0
3570 3569 -68 0
-3571 3570 69 0
-3571 -3570 -69 0
3571 -3570 69 0
3571 3570 -69 0
-3572 3571 72 0
-3572 -3571 -72 0
3572 -3571 72 0
3572 3571 -72 0
-3573 3572 73 0
-3573 -3572 -73 0
3573 -3572 73 0
3573 3572 -73 0
-3574 3573 75 0
-3574 -3573 -75 0
3574 -3573 75 0
3574 3573 -75 0
-3575 3574 78 0
-3575 -3574 -78 0
3575 -3574 78 0
3575 3574 -78 0
-3576 3575 81 0
-3576 -3575 -81 0
3576 -3575 81 0
3576 3575 -81 0
-3577 3576 84 0
-3577 -3576 -84 0
3577 -3576 84 0
3577 3576 -84 0
-3578 3577 85 0
-3578 -3577 -85 0
3578 -3577 85 0
3578 3577 -85 0
-3579 3578 86 0
-3579 -3578 -86 0
3579 -3578 86 0
3579 3578 -86 0
-3580 3579 90 0
-3580 -3579 -90 0
3580 -3579 90 0
3580 3579 -90 0
-3581 3580 92 0
-3581 -3580 -92 0
3581 -3580 92 0
3581 3580 -92 0
-3582 3581 93 0
-3582 -3581 -93 0
3582 -3581 93 0
3582 3581 -93 0
-3583 3582 94 0
-3583 -3582 -94 0
3583 -3582 94 0
3583 3582 -94 0
-3584 3583 96 0
-3584 -3583 -96 0
3584 -3583 96 0
3584 3583 -96 0
-3585 3584 98 0
-3585 -3584 -98 0
3585 -3584 98 0
3585 3584 -98 0
-3586 3585 100 0
-3586 -3585 -100 0
3586 -3585 100 0
3586 3585 -100 0
-3587 3586 101 0
-3587 -3586 -101 0
3587 -3586 101 0
3587 3586 -101 0
-3588 3587 103 0
-3588 -3587 -103 0
3588 -3587 103 0
3588 3587 -103 0
-3589 3588 106 0
-3589 -3588 -106 0
3589 -3588 106 0
3589 3588 -106 0
-3590 3589 108 0
-3590 -3589 -108 0
3590 -3589 108 0
3590 3589 -108 0
-3590 0
-3591 23 53 0
-3591 -23 -53 0
3591 -23 53 0
3591 23 -53 0
-3592 3591 54 0
-3592 -3591 -54 0
3592 -3591 54 0
3592 3591 -54 0
-3593 3592 57 0
-3593 -3592 -57 0
3593 -3592 57 0
3593 3592 -57 0
-3594 3593 58 0
-3594 -3593 -58 0
3594 -3593 58 0
3594 3593 -58 0
-3595 3594 59 0
-3595 -3594 -59 0
3595 -3594 59 0
3595 3594 -59 0
-3596 3595 63 0
-3596 -3595 -63 0
3596 -3595 63 0
3596 3595 -63 0
-3597 3596 64 0
-3597 -3596 -64 0
3597 -3596 64 0
3597 3596 -64 0
-3598 3597 67 0
-3598 -3597 -67 0
3598 -3597 67 0
3598 3597 -67 0
-3599 3598 68 0
-3599 -3598 -68 0
3599 -3598 68 0
3599 3598 -68 0
-3600 3599 70 0
-3600 -3599 -70 0
3600 -3599 70 0
3600 3599 -70 0
-3601 3600 71 0
-3601 -3600 -71 0
3601 -3600 71 0
3601 3600 -71 0
-3602 3601 72 0
-3602 -3601 -72 0
3602 -3601 72 0
3602 3601 -72 0
-3603 3602 74 0
-3603 -3602 -74 0
3603 -3602 74 0
3603 3602 -74 0
-3604 3603 75 0
-3604 -3603 -75 0
3604 -3603 75 0
3604 3603 -75 0
-3605 3604 78 0
-3605 -3604 -78 0
3605 -3604 78 0
3605 3604 -78 0
-3606 3605 79 0
-3606 -3605 -79 0
3606 -3605 79 0
3606 3605 -79 0
-3607 3606 81 0
-3607 -3606 -81 0
3607 -3606 81 0
3607 3606 -81 0
-3608 3607 82 0
-3608 -3607 -82 0
3608 -3607 82 0
3608 3607 -82 0
-3609 3608 84 0
-3609 -3608 -84 0
3609 -3608 84 0
3609 3608 -84 0
-3610 3609 87 0
-3610 -3609 -87 0
3610 -3609 87 0
3610 3609 -87 0
-3611 3610 90 0
-3611 -3610 -90 0
3611 -3610 90 0
3611 3610 -90 0
-3612 3611 93 0
-3612 -3611 -93 0
3612 -3611 93 0
3612 3611 -93 0
-3613 3612 95 0
-3613 -3612 -95 0
3613 -3612 95 0
3613 3612 -95 0
-3614 3613 99 0
-3614 -3613 -99 0
3614 -3613 99 0
3614 3613 -99 0
-3615 3614 100 0
-3615 -3614 -100 0
3615 -3614 100 0
3615 3614 -100 0
-3616 3615 105 0
-3616 -3615 -105 0
3616 -3615 105 0
3616 3615 -105 0
-3617 3616 107 0
-3617 -3616 -107 0
3617 -3616 107 0
3617 3616 -107 0
-3617 0
-3618 24 53 0
-3618 -24 -53 0
3618 -24 53 0
3618 24 -53 0
-3619 3618 58 0
-3619 -3618 -58 0
3619 -3618 58 0
3619 3618 -58 0
-3620 3619 59 0
-3620 -3619 -59 0
3620 -3619 59 0
3620 3619 -59 0
-3621 3620 60 0
-3621 -3620 -60 0
3621 -3620 60 0
3621 3620 -60 0
-3622 3621 64 0
-3622 -3621 -64 0
3622 -3621 64 0
3622 3621 -64 0
-3623 3622 65 0
-3623 -3622 -65 0
3623 -3622 65 0
3623 3622 -65 0
-3624 3623 67 0
-3624 -3623 -67 0
3624 -3623 67 0
3624 3623 -67 0
-3625 3624 68 0
-3625 -3624 -68 0
3625 -3624 68 0
3625 3624 -68 0
-3626 3625 69 0
-3626 -3625 -69 0
3626 -3625 69 0
3626 3625 -69 0
-3627 3626 71 0
-3627 -3626 -71 0
3627 -3626 71 0
3627 3626 -71 0
-3628 3627 72 0
-3628 -3627 -72 0
3628 -3627 72 0
3628 3627 -72 0
-3629 3628 73 0
-3629 -3628 -73 0
3629 -3628 73 0
3629 3628 -73 0
-3630 3629 75 0
-3630 -3629 -75 0
3630 -3629 75 0
3630 3629 -75 0
-3631 3630 76 0
-3631 -3630 -76 0
3631 -3630 76 0
3631 3630 -76 0
-3632 3631 81 0
-3632 -3631 -81 0
3632 -3631 81 0
3632 3631 -81 0
-3633 3632 84 0
-3633 -3632 -84 0
3633 -3632 84 0
3633 3632 -84 0
-3634 3633 87 0
-3634 -3633 -87 0
3634 -3633 87 0
3634 3633 -87 0
-3635 3634 88 0
-3635 -3634 -88 0
3635 -3634 88 0
3635 3634 -88 0
-3636 3635 89 0
-3636 -3635 -89 0
3636 -3635 89 0
3636 3635 -89 0
-3637 3636 93 0
-3637 -3636 -93 0
3637 -3636 93 0
3637 3636 -93 0
-3638 3637 94 0
-3638 -3637 -94 0
3638 -3637 94 0
3638 3637 -94 0
-3639 3638 97 0
-3639 -3638 -97 0
3639 -3638 97 0
3639 3638 -97 0
-3640 3639 98 0
-3640 -3639 -98 0
3640 -3639 98 0
3640 3639 -98 0
-3641 3640 100 0
-3641 -3640 -100 0
3641 -3640 100 0
3641 3640 -100 0
-3642 3641 101 0
-3642 -3641 -101 0
3642 -3641 101 0
3642 3641 -101 0
-3643 3642 102 0
-3643 -3642 -102 0
3643 -3642 102 0
3643 3642 -102 0
-3644 3643 103 0
-3644 -3643 -103 0
3644 -3643 103 0
3644 3643 -103 0
-3645 3644 106 0
-3645 -3644 -106 0
3645 -3644 106 0
3645 3644 -106 0
-3646 3645 107 0
-3646 -3645 -107 0
3646 -3645 107 0
3646 3645 -107 0
-3646 0
-3647 25 53 0
-3647 -25 -53 0
3647 -25 53 0
3647 25 -53 0
-3648 3647 57 0
-3648 -3647 -57 0
3648 -3647 57 0
3648 3647 -57 0
-3649 3648 60 0
-3649 -3648 -60 0
3649 -3648 60 0
3649 3648 -60 0
-3650 3649 63 0
-3650 -3649 -63 0
3650 -3649 63 0
3650 3649 -63 0
-3651 3650 64 0
-3651 -3650 -64 0
3651 -3650 64 0
3651 3650 -64 0
-3652 3651 65 0
-3652 -3651 -65 0
3652 -3651 65 0
3652 3651 -65 0
-3653 3652 67 0
-3653 -3652 -67 0
3653 -3652 67 0
3653 3652 -67 0
-3654 3653 68 0
-3654 -3653 -68 0
3654 -3653 68 0
3654 3653 -68 0
-3655 3654 70 0
-3655 -3654 -70 0
3655 -3654 70 0
3655 3654 -70 0
-3656 3655 72 0
-3656 -3655 -72 0
3656 -3655 72 0
3656 3655 -72 0
-3657 3656 73 0
-3657 -3656 -73 0
3657 -3656 73 0
3657 3656 -73 0
-3658 3657 76 0
-3658 -3657 -76 0
3658 -3657 76 0
3658 3657 -76 0
-3659 3658 77 0
-3659 -3658 -77 0
3659 -3658 77 0
3659 3658 -77 0
-3660 3659 82 0
-3660 -3659 -82 0
3660 -3659 82 0
3660 3659 -82 0
-3661 3660 85 0
-3661 -3660 -85 0
3661 -3660 85 0
3661 3660 -85 0
-3662 3661 86 0
-3662 -3661 -86 0
3662 -3661 86 0
3662 3661 -86 0
-3663 3662 87 0
-3663 -3662 -87 0
3663 -3662 87 0
3663 3662 -87 0
-3664 3663 92 0
-3664 -3663 -92 0
3664 -3663 92 0
3664 3663 -92 0
-3665 3664 94 0
-3665 -3664 -94 0
3665 -3664 94 0
3665 3664 -94 0
-3666 3665 95 0
-3666 -3665 -95 0
3666 -3665 95 0
3666 3665 -95 0
-3667 3666 96 0
-3667 -3666 -96 0
3667 -3666 96 0
3667 3666 -96 0
-3668 3667 98 0
-3668 -3667 -98 0
3668 -3667 98 0
3668 3667 -98 0
-3669 3668 99 0
-3669 -3668 -99 0
3669 -3668 99 0
3669 3668 -99 0
-3670 3669 101 0
-3670 -3669 -101 0
3670 -3669 101 0
3670 3669 -101 0
-3671 3670 103 0
-3671 -3670 -103 0
3671 -3670 103 0
3671 3670 -103 0
-3672 3671 105 0
-3672 -3671 -105 0
3672 -3671 105 0
3672 3671 -105 0
-3673 3672 106 0
-3673 -3672 -106 0
3673 -3672 106 0
3673 3672 -106 0
-3674 3673 107 0
-3674 -3673 -107 0
3674 -3673 107 0
3674 3673 -107 0
-3675 3674 108 0
-3675 -3674 -108 0
3675 -3674 108 0
3675 3674 -108 0
-3675 0
-3676 26 54 0
-3676 -26 -54 0
3676 -26 54 0
3676 26 -54 0
-3677 3676 57 0
-3677 -3676 -57 0
3677 -3676 57 0
3677 3676 -57 0
-3678 3677 60 0
-3678 -3677 -60 0
3678 -3677 60 0
3678 3677 -60 0
-3679 3678 61 0
-3679 -3678 -61 0
3679 -3678 61 0
3679 3678 -61 0
-3680 3679 62 0
-3680 -3679 -62 0
3680 -3679 62 0
3680 3679 -62 0
-3681 3680 66 0
-3681 -3680 -66 0
3681 -3680 66 0
3681 3680 -66 0
-3682 3681 67 0
-3682 -3681 -67 0
3682 -3681 67 0
3682 3681 -67 0
-3683 3682 72 0
-3683 -3682 -72 0
3683 -3682 72 0
3683 3682 -72 0
-3684 3683 73 0
-3684 -3683 -73 0
3684 -3683 73 0
3684 3683 -73 0
-3685 3684 74 0
-3685 -3684 -74 0
3685 -3684 74 0
3685 3684 -74 0
-3686 3685 75 0
-3686 -3685 -75 0
3686 -3685 75 0
3686 3685 -75 0
-3687 3686 76 0
-3687 -3686 -76 0
3687 -3686 76 0
3687 3686 -76 0
-3688 3687 77 0
-3688 -3687 -77 0
3688 -3687 77 0
3688 3687 -77 0
-3689 3688 79 0
-3689 -3688 -79 0
3689 -3688 79 0
3689 3688 -79 0
-3690 3689 80 0
-3690 -3689 -80 0
3690 -3689 80 0
3690 3689 -80 0
-3691 3690 82 0
-3691 -3690 -82 0
3691 -3690 82 0
3691 3690 -82 0
-3692 3691 88 0
-3692 -3691 -88 0
3692 -3691 88 0
3692 3691 -88 0
-3693 3692 89 0
-3693 -3692 -89 0
3693 -3692 89 0
3693 3692 -89 0
-3694 3693 90 0
-3694 -3693 -90 0
3694 -3693 90 0
3694 3693 -90 0
-3695 3694 94 0
-3695 -3694 -94 0
3695 -3694 94 0
3695 3694 -94 0
-3696 3695 95 0
-3696 -3695 -95 0
3696 -3695 95 0
3696 3695 -95 0
-3697 3696 97 0
-3697 -3696 -97 0
3697 -3696 97 0
3697 3696 -97 0
-3698 3697 98 0
-3698 -3697 -98 0
3698 -3697 98 0
3698 3697 -98 0
-3699 3698 99 0
-3699 -3698 -99 0
3699 -3698 99 0
3699 3698 -99 0
-3700 3699 101 0
-3700 -3699 -101 0
3700 -3699 101 0
3700 3699 -101 0
-3701 3700 102 0
-3701 -3700 -102 0
3701 -3700 102 0
3701 3700 -102 0
-3702 3701 103 0
-3702 -3701 -103 0
3702 -3701 103 0
3702 3701 -103 0
-3703 3702 105 0
-3703 -3702 -105 0
3703 -3702 105 0
3703 3702 -105 0
-3704 3703 106 0
-3704 -3703 -106 0
3704 -3703 106 0
3704 3703 -106 0
-3704 0
-3705 27 53 0
-3705 -27 -53 0
3705 -27 53 0
3705 27 -53 0
-3706 3705 54 0
-3706 -3705 -54 0
3706 -3705 54 0
3706 3705 -54 0
-3707 3706 57 0
-3707 -3706 -57 0
3707 -3706 57 0
3707 3706 -57 0
-3708 3707 60 0
-3708 -3707 -60 0
3708 -3707 60 0
3708 3707 -60 0
-3709 3708 63 0
-3709 -3708 -63 0
3709 -3708 63 0
3709 3708 -63 0
-3710 3709 64 0
-3710 -3709 -64 0
3710 -3709 64 0
3710 3709 -64 0
-3711 3710 65 0
-3711 -3710 -65 0
3711 -3710 65 0
3711 3710 -65 0
-3712 3711 67 0
-3712 -3711 -67 0
3712 -3711 67 0
3712 3711 -67 0
-3713 3712 69 0
-3713 -3712 -69 0
3713 -3712 69 0
3713 3712 -69 0
-3714 3713 71 0
-3714 -3713 -71 0
3714 -3713 71 0
3714 3713 -71 0
-3715 3714 72 0
-3715 -3714 -72 0
3715 -3714 72 0
3715 3714 -72 0
-3716 3715 73 0
-3716 -3715 -73 0
3716 -3715 73 0
3716 3715 -73 0
-3717 3716 74 0
-3717 -3716 -74 0
3717 -3716 74 0
3717 3716 -74 0
-3718 3717 77 0
-3718 -3717 -77 0
3718 -3717 77 0
3718 3717 -77 0
-3719 3718 80 0
-3719 -3718 -80 0
3719 -3718 80 0
3719 3718 -80 0
-3720 3719 83 0
-3720 -3719 -83 0
3720 -3719 83 0
3720 3719 -83 0
-3721 3720 84 0
-3721 -3720 -84 0
3721 -3720 84 0
3721 3720 -84 0
-3722 3721 86 0
-3722 -3721 -86 0
3722 -3721 86 0
3722 3721 -86 0
-3723 3722 89 0
-3723 -3722 -89 0
3723 -3722 89 0
3723 3722 -89 0
-3724 3723 91 0
-3724 -3723 -91 0
3724 -3723 91 0
3724 3723 -91 0
-3725 3724 94 0
-3725 -3724 -94 0
3725 -3724 94 0
3725 3724 -94 0
-3726 3725 95 0
-3726 -3725 -95 0
3726 -3725 95 0
3726 3725 -95 0
-3727 3726 96 0
-3727 -3726 -96 0
3727 -3726 96 0
3727 3726 -96 0
-3728 3727 97 0
-3728 -3727 -97 0
3728 -3727 97 0
3728 3727 -97 0
-3729 3728 98 0
-3729 -3728 -98 0
3729 -3728 98 0
3729 3728 -98 0
-3730 3729 99 0
-3730 -3729 -99 0
3730 -3729 99 0
3730 3729 -99 0
-3731 3730 101 0
-3731 -3730 -101 0
3731 -3730 101 0
3731 3730 -101 0
-3732 3731 103 0
-3732 -3731 -103 0
3732 -3731 103 0
3732 3731 -103 0
-3733 3732 105 0
-3733 -3732 -105 0
3733 -3732 105 0
3733 3732 -105 0
-3734 3733 106 0
-3734 -3733 -106 0
3734 -3733 106 0
3734 3733 -106 0
-3735 3734 107 0
-3735 -3734 -107 0
3735 -3734 107 0
3735 3734 -107 0
-3735 0
-3736 28 53 0
-3736 -28 -53 0
3736 -28 53 0
3736 28 -53 0
-3737 3736 57 0
-3737 -3736 -57 0
3737 -3736 57 0
3737 3736 -57 0
-3738 3737 60 0
-3738 -3737 -60 0
3738 -3737 60 0
3738 3737 -60 0
-3739 3738 61 0
-3739 -3738 -61 0
3739 -3738 61 0
3739 3738 -61 0
-3740 3739 62 0
-3740 -3739 -62 0
3740 -3739 62 0
3740 3739 -62 0
-3741 3740 66 0
-3741 -3740 -66 0
3741 -3740 66 0
3741 3740 -66 0
-3742 3741 67 0
-3742 -3741 -67 0
3742 -3741 67 0
3742 3741 -67 0
-3743 3742 69 0
-3743 -3742 -69 0
3743 -3742 69 0
3743 3742 -69 0
-3744 3743 70 0
-3744 -3743 -70 0
3744 -3743 70 0
3744 3743 -70 0
-3745 3744 71 0
-3745 -3744 -71 0
3745 -3744 71 0
3745 3744 -71 0
-3746 3745 73 0
-3746 -3745 -73 0
3746 -3745 73 0
3746 3745 -73 0
-3747 3746 74 0
-3747 -3746 -74 0
3747 -3746 74 0
3747 3746 -74 0
-3748 3747 76 0
-3748 -3747 -76 0
3748 -3747 76 0
3748 3747 -76 0
-3749 3748 79 0
-3749 -3748 -79 0
3749 -3748 79 0
3749 3748 -79 0
-3750 3749 85 0
-3750 -3749 -85 0
3750 -3749 85 0
3750 3749 -85 0
-3751 3750 86 0
-3751 -3750 -86 0
3751 -3750 86 0
3751 3750 -86 0
-3752 3751 87 0
-3752 -3751 -87 0
3752 -3751 87 0
3752 3751 -87 0
-3753 3752 92 0
-3753 -3752 -92 0
3753 -3752 92 0
3753 3752 -92 0
-3754 3753 94 0
-3754 -3753 -94 0
3754 -3753 94 0
3754 3753 -94 0
-3755 3754 95 0
-3755 -3754 -95 0
3755 -3754 95 0
3755 3754 -95 0
-3756 3755 96 0
-3756 -3755 -96 0
3756 -3755 96 0
3756 3755 -96 0
-3757 3756 98 0
-3757 -3756 -98 0
3757 -3756 98 0
3757 3756 -98 0
-3758 3757 99 0
-3758 -3757 -99 0
3758 -3757 99 0
3758 3757 -99 0
-3759 3758 101 0
-3759 -3758 -101 0
3759 -3758 101 0
3759 3758 -101 0
-3760 3759 103 0
-3760 -3759 -103 0
3760 -3759 103 0
3760 3759 -103 0
-3761 3760 105 0
-3761 -3760 -105 0
3761 -3760 105 0
3761 3760 -105 0
-3762 3761 106 0
-3762 -3761 -106 0
3762 -3761 106 0
3762 3761 -106 0
-3763 3762 107 0
-3763 -3762 -107 0
3763 -3762 107 0
3763 3762 -107 0
-3764 3763 108 0
-3764 -3763 -108 0
3764 -3763 108 0
3764 3763 -108 0
-3764 0
-3765 29 54 0
-3765 -29 -54 0
3765 -29 54 0
3765 29 -54 0
-3766 3765 57 0
-3766 -3765 -57 0
3766 -3765 57 0
3766 3765 -57 0
-3767 3766 60 0
-3767 -3766 -60 0
3767 -3766 60 0
3767 3766 -60 0
-3768 3767 63 0
-3768 -3767 -63 0
3768 -3767 63 0
3768 3767 -63 0
-3769 3768 64 0
-3769 -3768 -64 0
3769 -3768 64 0
3769 3768 -64 0
-3770 3769 65 0
-3770 -3769 -65 0
3770 -3769 65 0
3770 3769 -65 0
-3771 3770 69 0
-3771 -3770 -69 0
3771 -3770 69 0
3771 3770 -69 0
-3772 3771 70 0
-3772 -3771 -70 0
3772 -3771 70 0
3772 3771 -70 0
-3773 3772 73 0
-3773 -3772 -73 0
3773 -3772 73 0
3773 3772 -73 0
-3774 3773 74 0
-3774 -3773 -74 0
3774 -3773 74 0
3774 3773 -74 0
-3775 3774 76 0
-3775 -3774 -76 0
3775 -3774 76 0
3775 3774 -76 0
-3776 3775 77 0
-3776 -3775 -77 0
3776 -3775 77 0
3776 3775 -77 0
-3777 3776 78 0
-3777 -3776 -78 0
3777 -3776 78 0
3777 3776 -78 0
-3778 3777 79 0
-3778 -3777 -79 0
3778 -3777 79 0
3778 3777 -79 0
-3779 3778 82 0
-3779 -3778 -82 0
3779 -3778 82 0
3779 3778 -82 0
-3780 3779 83 0
-3780 -3779 -83 0
3780 -3779 83 0
3780 3779 -83 0
-3781 3780 88 0
-3781 -3780 -88 0
3781 -3780 88 0
3781 3780 -88 0
-3782 3781 89 0
-3782 -3781 -89 0
3782 -3781 89 0
3782 3781 -89 0
-3783 3782 90 0
-3783 -3782 -90 0
3783 -3782 90 0
3783 3782 -90 0
-3784 3783 94 0
-3784 -3783 -94 0
3784 -3783 94 0
3784 3783 -94 0
-3785 3784 95 0
-3785 -3784 -95 0
3785 -3784 95 0
3785 3784 -95 0
-3786 3785 97 0
-3786 -3785 -97 0
3786 -3785 97 0
3786 3785 -97 0
-3787 3786 98 0
-3787 -3786 -98 0
3787 -3786 98 0
3787 3786 -98 0
-3788 3787 99 0
-3788 -3787 -99 0
3788 -3787 99 0
3788 3787 -99 0
-3789 3788 101 0
-3789 -3788 -101 0
3789 -3788 101 0
3789 3788 -101 0
-3790 3789 102 0
-3790 -3789 -102 0
3790 -3789 102 0
3790 3789 -102 0
-3791 3790 103 0
-3791 -3790 -103 0
3791 -3790 103 0
3791 3790 -103 0
-3792 3791 105 0
-3792 -3791 -105 0
3792 -3791 105 0
3792 3791 -105 0
-3793 3792 106 0
-3793 -3792 -106 0
3793 -3792 106 0
3793 3792 -106 0
-3793 0
-3794 30 53 0
-3794 -30 -53 0
3794 -30 53 0
3794 30 -53 0
-3795 3794 54 0
-3795 -3794 -54 0
3795 -3794 54 0
3795 3794 -54 0
-3796 3795 57 0
-3796 -3795 -57 0
3796 -3795 57 0
3796 3795 -57 0
-3797 3796 60 0
-3797 -3796 -60 0
3797 -3796 60 0
3797 3796 -60 0
-3798 3797 61 0
-3798 -3797 -61 0
3798 -3797 61 0
3798 3797 -61 0
-3799 3798 62 0
-3799 -3798 -62 0
3799 -3798 62 0
3799 3798 -62 0
-3800 3799 66 0
-3800 -3799 -66 0
3800 -3799 66 0
3800 3799 -66 0
-3801 3800 68 0
-3801 -3800 -68 0
3801 -3800 68 0
3801 3800 -68 0
-3802 3801 69 0
-3802 -3801 -69 0
3802 -3801 69 0
3802 3801 -69 0
-3803 3802 70 0
-3803 -3802 -70 0
3803 -3802 70 0
3803 3802 -70 0
-3804 3803 72 0
-3804 -3803 -72 0
3804 -3803 72 0
3804 3803 -72 0
-3805 3804 74 0
-3805 -3804 -74 0
3805 -3804 74 0
3805 3804 -74 0
-3806 3805 76 0
-3806 -3805 -76 0
3806 -3805 76 0
3806 3805 -76 0
-3807 3806 77 0
-3807 -3806 -77 0
3807 -3806 77 0
3807 3806 -77 0
-3808 3807 80 0
-3808 -3807 -80 0
3808 -3807 80 0
3808 3807 -80 0
-3809 3808 81 0
-3809 -3808 -81 0
3809 -3808 81 0
3809 3808 -81 0
-3810 3809 83 0
-3810 -3809 -83 0
3810 -3809 83 0
3810 3809 -83 0
-3811 3810 86 0
-3811 -3810 -86 0
3811 -3810 86 0
3811 3810 -86 0
-3812 3811 89 0
-3812 -3811 -89 0
3812 -3811 89 0
3812 3811 -89 0
-3813 3812 91 0
-3813 -3812 -91 0
3813 -3812 91 0
3813 3812 -91 0
-3814 3813 94 0
-3814 -3813 -94 0
3814 -3813 94 0
3814 3813 -94 0
-3815 3814 95 0
-3815 -3814 -95 0
3815 -3814 95 0
3815 3814 -95 0
-3816 3815 96 0
-3816 -3815 -96 0
3816 -3815 96 0
3816 3815 -96 0
-3817 3816 97 0
-3817 -3816 -97 0
3817 -3816 97 0
3817 3816 -97 0
-3818 3817 98 0
-3818 -3817 -98 0
3818 -3817 98 0
3818 3817 -98 0
-3819 3818 99 0
-3819 -3818 -99 0
3819 -3818 99 0
3819 3818 -99 0
-3820 3819 101 0
-3820 -3819 -101 0
3820 -3819 101 0
3820 3819 -101 0
-3821 3820 103 0
-3821 -3820 -103 0
3821 -3820 103 0
3821 3820 -103 0
-3822 3821 105 0
-3822 -3821 -105 0
3822 -3821 105 0
3822 3821 -105 0
-3823 3822 106 0
-3823 -3822 -106 0
3823 -3822 106 0
3823 3822 -106 0
-3824 3823 107 0
-3824 -3823 -107 0
3824 -3823 107 0
3824 3823 -107 0
-3824 0
-3825 31 53 0
-3825 -31 -53 0
3825 -31 53 0
3825 31 -53 0
-3826 3825 54 0
-3826 -3825 -54 0
3826 -3825 54 0
3826 3825 -54 0
-3827 3826 61 0
-3827 -3826 -61 0
3827 -3826 61 0
3827 3826 -61 0
-3828 3827 62 0
-3828 -3827 -62 0
3828 -3827 62 0
3828 3827 -62 0
-3829 3828 63 0
-3829 -3828 -63 0
3829 -3828 63 0
3829 3828 -63 0
-3830 3829 64 0
-3830 -3829 -64 0
3830 -3829 64 0
3830 3829 -64 0
-3831 3830 65 0
-3831 -3830 -65 0
3831 -3830 65 0
3831 3830 -65 0
-3832 3831 66 0
-3832 -3831 -66 0
3832 -3831 66 0
3832 3831 -66 0
-3833 3832 68 0
-3833 -3832 -68 0
3833 -3832 68 0
3833 3832 -68 0
-3834 3833 70 0
-3834 -3833 -70 0
3834 -3833 70 0
3834 3833 -70 0
-3835 3834 72 0
-3835 -3834 -72 0
3835 -3834 72 0
3835 3834 -72 0
-3836 3835 74 0
-3836 -3835 -74 0
3836 -3835 74 0
3836 3835 -74 0
-3837 3836 75 0
-3837 -3836 -75 0
3837 -3836 75 0
3837 3836 -75 0
-3838 3837 80 0
-3838 -3837 -80 0
3838 -3837 80 0
3838 3837 -80 0
-3839 3838 86 0
-3839 -3838 -86 0
3839 -3838 86 0
3839 3838 -86 0
-3840 3839 87 0
-3840 -3839 -87 0
3840 -3839 87 0
3840 3839 -87 0
-3841 3840 88 0
-3841 -3840 -88 0
3841 -3840 88 0
3841 3840 -88 0
-3842 3841 89 0
-3842 -3841 -89 0
3842 -3841 89 0
3842 3841 -89 0
-3843 3842 90 0
-3843 -3842 -90 0
3843 -3842 90 0
3843 3842 -90 0
-3844 3843 92 0
-3844 -3843 -92 0
3844 -3843 92 0
3844 3843 -92 0
-3845 3844 96 0
-3845 -3844 -96 0
3845 -3844 96 0
3845 3844 -96 0
-3846 3845 97 0
-3846 -3845 -97 0
3846 -3845 97 0
3846 3845 -97 0
-3847 3846 102 0
-3847 -3846 -102 0
3847 -3846 102 0
3847 3846 -102 0
-3848 3847 107 0
-3848 -3847 -107 0
3848 -3847 107 0
3848 3847 -107 0
-3849 3848 108 0
-3849 -3848 -108 0
3849 -3848 108 0
3849 3848 -108 0
-3849 0
-3850 32 53 0
-3850 -32 -53 0
3850 -32 53 0
3850 32 -53 0
-3851 3850 61 0
-3851 -3850 -61 0
3851 -3850 61 0
3851 3850 -61 0
-3852 3851 62 0
-3852 -3851 -62 0
3852 -3851 62 0
3852 3851 -62 0
-3853 3852 63 0
-3853 -3852 -63 0
3853 -3852 63 0
3853 3852 -63 0
-3854 3853 64 0
-3854 -3853 -64 0
3854 -3853 64 0
3854 3853 -64 0
-3855 3854 65 0
-3855 -3854 -65 0
3855 -3854 65 0
3855 3854 -65 0
-3856 3855 66 0
-3856 -3855 -66 0
3856 -3855 66 0
3856 3855 -66 0
-3857 3856 67 0
-3857 -3856 -67 0
3857 -3856 67 0
3857 3856 -67 0
-3858 3857 69 0
-3858 -3857 -69 0
3858 -3857 69 0
3858 3857 -69 0
-3859 3858 71 0
-3859 -3858 -71 0
3859 -3858 71 0
3859 3858 -71 0
-3860 3859 75 0
-3860 -3859 -75 0
3860 -3859 75 0
3860 3859 -75 0
-3861 3860 76 0
-3861 -3860 -76 0
3861 -3860 76 0
3861 3860 -76 0
-3862 3861 79 0
-3862 -3861 -79 0
3862 -3861 79 0
3862 3861 -79 0
-3863 3862 80 0
-3863 -3862 -80 0
3863 -3862 80 0
3863 3862 -80 0
-3864 3863 82 0
-3864 -3863 -82 0
3864 -3863 82 0
3864 3863 -82 0
-3865 3864 83 0
-3865 -3864 -83 0
3865 -3864 83 0
3865 3864 -83 0
-3866 3865 84 0
-3866 -3865 -84 0
3866 -3865 84 0
3866 3865 -84 0
-3867 3866 88 0
-3867 -3866 -88 0
3867 -3866 88 0
3867 3866 -88 0
-3868 3867 90 0
-3868 -3867 -90 0
3868 -3867 90 0
3868 3867 -90 0
-3869 3868 91 0
-3869 -3868 -91 0
3869 -3868 91 0
3869 3868 -91 0
-3870 3869 96 0
-3870 -3869 -96 0
3870 -3869 96 0
3870 3869 -96 0
-3871 3870 102 0
-3871 -3870 -102 0
3871 -3870 102 0
3871 3870 -102 0
-3872 3871 107 0
-3872 -3871 -107 0
3872 -3871 107 0
3872 3871 -107 0
-3872 0
-3873 33 54 0
-3873 -33 -54 0
3873 -33 54 0
3873 33 -54 0
-3874 3873 61 0
-3874 -3873 -61 0
3874 -3873 61 0
3874 3873 -61 0
-3875 3874 62 0
-3875 -3874 -62 0
3875 -3874 62 0
3875 3874 -62 0
-3876 3875 63 0
-3876 -3875 -63 0
3876 -3875 63 0
3876 3875 -63 0
-3877 3876 64 0
-3877 -3876 -64 0
3877 -3876 64 0
3877 3876 -64 0
-3878 3877 65 0
-3878 -3877 -65 0
3878 -3877 65 0
3878 3877 -65 0
-3879 3878 66 0
-3879 -3878 -66 0
3879 -3878 66 0
3879 3878 -66 0
-3880 3879 68 0
-3880 -3879 -68 0
3880 -3879 68 0
3880 3879 -68 0
-3881 3880 70 0
-3881 -3880 -70 0
3881 -3880 70 0
3881 3880 -70 0
-3882 3881 72 0
-3882 -3881 -72 0
3882 -3881 72 0
3882 3881 -72 0
-3883 3882 76 0
-3883 -3882 -76 0
3883 -3882 76 0
3883 3882 -76 0
-3884 3883 77 0
-3884 -3883 -77 0
3884 -3883 77 0
3884 3883 -77 0
-3885 3884 79 0
-3885 -3884 -79 0
3885 -3884 79 0
3885 3884 -79 0
-3886 3885 80 0
-3886 -3885 -80 0
3886 -3885 80 0
3886 3885 -80 0
-3887 3886 81 0
-3887 -3886 -81 0
3887 -3886 81 0
3887 3886 -81 0
-3888 3887 83 0
-3888 -3887 -83 0
3888 -3887 83 0
3888 3887 -83 0
-3889 3888 84 0
-3889 -3888 -84 0
3889 -3888 84 0
3889 3888 -84 0
-3890 3889 85 0
-3890 -3889 -85 0
3890 -3889 85 0
3890 3889 -85 0
-3891 3890 89 0
-3891 -3890 -89 0
3891 -3890 89 0
3891 3890 -89 0
-3892 3891 91 0
-3892 -3891 -91 0
3892 -3891 91 0
3892 3891 -91 0
-3893 3892 92 0
-3893 -3892 -92 0
3893 -3892 92 0
3893 3892 -92 0
-3894 3893 97 0
-3894 -3893 -97 0
3894 -3893 97 0
3894 3893 -97 0
-3895 3894 108 0
-3895 -3894 -108 0
3895 -3894 108 0
3895 3894 -108 0
-3895 0
-3896 34 53 0
-3896 -34 -53 0
3896 -34 53 0
3896 34 -53 0
-3897 3896 54 0
-3897 -3896 -54 0
3897 -3896 54 0
3897 3896 -54 0
-3898 3897 61 0
-3898 -3897 -61 0
3898 -3897 61 0
3898 3897 -61 0
-3899 3898 62 0
-3899 -3898 -62 0
3899 -3898 62 0
3899 3898 -62 0
-3900 3899 63 0
-3900 -3899 -63 0
3900 -3899 63 0
3900 3899 -63 0
-3901 3900 64 0
-3901 -3900 -64 0
3901 -3900 64 0
3901 3900 -64 0
-3902 3901 65 0
-3902 -3901 -65 0
3902 -3901 65 0
3902 3901 -65 0
-3903 3902 66 0
-3903 -3902 -66 0
3903 -3902 66 0
3903 3902 -66 0
-3904 3903 67 0
-3904 -3903 -67 0
3904 -3903 67 0
3904 3903 -67 0
-3905 3904 69 0
-3905 -3904 -69 0
3905 -3904 69 0
3905 3904 -69 0
-3906 3905 71 0
-3906 -3905 -71 0
3906 -3905 71 0
3906 3905 -71 0
-3907 3906 77 0
-3907 -3906 -77 0
3907 -3906 77 0
3907 3906 -77 0
-3908 3907 78 0
-3908 -3907 -78 0
3908 -3907 78 0
3908 3907 -78 0
-3909 3908 83 0
-3909 -3908 -83 0
3909 -3908 83 0
3909 3908 -83 0
-3910 3909 85 0
-3910 -3909 -85 0
3910 -3909 85 0
3910 3909 -85 0
-3911 3910 86 0
-3911 -3910 -86 0
3911 -3910 86 0
3911 3910 -86 0
-3912 3911 87 0
-3912 -3911 -87 0
3912 -3911 87 0
3912 3911 -87 0
-3913 3912 89 0
-3913 -3912 -89 0
3913 -3912 89 0
3913 3912 -89 0
-3914 3913 90 0
-3914 -3913 -90 0
3914 -3913 90 0
3914 3913 -90 0
-3915 3914 92 0
-3915 -3914 -92 0
3915 -3914 92 0
3915 3914 -92 0
-3916 3915 96 0
-3916 -3915 -96 0
3916 -3915 96 0
3916 3915 -96 0
-3917 3916 97 0
-3917 -3916 -97 0
3917 -3916 97 0
3917 3916 -97 0
-3918 3917 102 0
-3918 -3917 -102 0
3918 -3917 102 0
3918 3917 -102 0
-3919 3918 107 0
-3919 -3918 -107 0
3919 -3918 107 0
3919 3918 -107 0
-3920 3919 108 0
-3920 -3919 -108 0
3920 -3919 108 0
3920 3919 -108 0
-3920 0
-3921 35 53 0
-3921 -35 -53 0
3921 -35 53 0
3921 35 -53 0
-3922 3921 61 0
-3922 -3921 -61 0
3922 -3921 61 0
3922 3921 -61 0
-3923 3922 62 0
-3923 -3922 -62 0
3923 -3922 62 0
3923 3922 -62 0
-3924 3923 63 0
-3924 -3923 -63 0
3924 -3923 63 0
3924 3923 -63 0
-3925 3924 64 0
-3925 -3924 -64 0
3925 -3924 64 0
3925 3924 -64 0
-3926 3925 65 0
-3926 -3925 -65 0
3926 -3925 65 0
3926 3925 -65 0
-3927 3926 66 0
-3927 -3926 -66 0
3927 -3926 66 0
3927 3926 -66 0
-3928 3927 68 0
-3928 -3927 -68 0
3928 -3927 68 0
3928 3927 -68 0
-3929 3928 70 0
-3929 -3928 -70 0
3929 -3928 70 0
3929 3928 -70 0
-3930 3929 72 0
-3930 -3929 -72 0
3930 -3929 72 0
3930 3929 -72 0
-3931 3930 73 0
-3931 -3930 -73 0
3931 -3930 73 0
3931 3930 -73 0
-3932 3931 78 0
-3932 -3931 -78 0
3932 -3931 78 0
3932 3931 -78 0
-3933 3932 79 0
-3933 -3932 -79 0
3933 -3932 79 0
3933 3932 -79 0
-3934 3933 80 0
-3934 -3933 -80 0
3934 -3933 80 0
3934 3933 -80 0
-3935 3934 81 0
-3935 -3934 -81 0
3935 -3934 81 0
3935 3934 -81 0
-3936 3935 82 0
-3936 -3935 -82 0
3936 -3935 82 0
3936 3935 -82 0
-3937 3936 83 0
-3937 -3936 -83 0
3937 -3936 83 0
3937 3936 -83 0
-3938 3937 86 0
-3938 -3937 -86 0
3938 -3937 86 0
3938 3937 -86 0
-3939 3938 88 0
-3939 -3938 -88 0
3939 -3938 88 0
3939 3938 -88 0
-3940 3939 89 0
-3940 -3939 -89 0
3940 -3939 89 0
3940 3939 -89 0
-3941 3940 90 0
-3941 -3940 -90 0
3941 -3940 90 0
3941 3940 -90 0
-3942 3941 91 0
-3942 -3941 -91 0
3942 -3941 91 0
3942 3941 -91 0
-3943 3942 96 0
-3943 -3942 -96 0
3943 -3942 96 0
3943 3942 -96 0
-3944 3943 102 0
-3944 -3943 -102 0
3944 -3943 102 0
3944 3943 -102 0
-3945 3944 107 0
-3945 -3944 -107 0
3945 -3944 107 0
3945 3944 -107 0
-3945 0
-3946 36 54 0
-3946 -36 -54 0
3946 -36 54 0
3946 36 -54 0
-3947 3946 61 0
-3947 -3946 -61 0
3947 -3946 61 0
3947 3946 -61 0
-3948 3947 62 0
-3948 -3947 -62 0
3948 -3947 62 0
3948 3947 -62 0
-3949 3948 63 0
-3949 -3948 -63 0
3949 -3948 63 0
3949 3948 -63 0
-3950 3949 64 0
-3950 -3949 -64 0
3950 -3949 64 0
3950 3949 -64 0
-3951 3950 65 0
-3951 -3950 -65 0
3951 -3950 65 0
3951 3950 -65 0
-3952 3951 66 0
-3952 -3951 -66 0
3952 -3951 66 0
3952 3951 -66 0
-3953 3952 67 0
-3953 -3952 -67 0
3953 -3952 67 0
3953 3952 -67 0
-3954 3953 69 0
-3954 -3953 -69 0
3954 -3953 69 0
3954 3953 -69 0
-3955 3954 71 0
-3955 -3954 -71 0
3955 -3954 71 0
3955 3954 -71 0
-3956 3955 73 0
-3956 -3955 -73 0
3956 -3955 73 0
3956 3955 -73 0
-3957 3956 74 0
-3957 -3956 -74 0
3957 -3956 74 0
3957 3956 -74 0
-3958 3957 80 0
-3958 -3957 -80 0
3958 -3957 80 0
3958 3957 -80 0
-3959 3958 81 0
-3959 -3958 -81 0
3959 -3958 81 0
3959 3958 -81 0
-3960 3959 82 0
-3960 -3959 -82 0
3960 -3959 82 0
3960 3959 -82 0
-3961 3960 83 0
-3961 -3960 -83 0
3961 -3960 83 0
3961 3960 -83 0
-3962 3961 84 0
-3962 -3961 -84 0
3962 -3961 84 0
3962 3961 -84 0
-3963 3962 85 0
-3963 -3962 -85 0
3963 -3962 85 0
3963 3962 -85 0
-3964 3963 87 0
-3964 -3963 -87 0
3964 -3963 87 0
3964 3963 -87 0
-3965 3964 89 0
-3965 -3964 -89 0
3965 -3964 89 0
3965 3964 -89 0
-3966 3965 90 0
-3966 -3965 -90 0
3966 -3965 90 0
3966 3965 -90 0
-3967 3966 91 0
-3967 -3966 -91 0
3967 -3966 91 0
3967 3966 -91 0
-3968 3967 92 0
-3968 -3967 -92 0
3968 -3967 92 0
3968 3967 -92 0
-3969 3968 97 0
-3969 -3968 -97 0
3969 -3968 97 0
3969 3968 -97 0
-3970 3969 108 0
-3970 -3969 -108 0
3970 -3969 108 0
3970 3969 -108 0
-3970 0
-3971 37 54 0
-3971 -37 -54 0
3971 -37 54 0
3971 37 -54 0
-3972 3971 67 0
-3972 -3971 -67 0
3972 -3971 67 0
3972 3971 -67 0
-3973 3972 68 0
-3973 -3972 -68 0
3973 -3972 68 0
3973 3972 -68 0
-3974 3973 69 0
-3974 -3973 -69 0
3974 -3973 69 0
3974 3973 -69 0
-3975 3974 70 0
-3975 -3974 -70 0
3975 -3974 70 0
3975 3974 -70 0
-3976 3975 71 0
-3976 -3975 -71 0
3976 -3975 71 0
3976 3975 -71 0
-3977 3976 72 0
-3977 -3976 -72 0
3977 -3976 72 0
3977 3976 -72 0
-3978 3977 74 0
-3978 -3977 -74 0
3978 -3977 74 0
3978 3977 -74 0
-3979 3978 76 0
-3979 -3978 -76 0
3979 -3978 76 0
3979 3978 -76 0
-3980 3979 78 0
-3980 -3979 -78 0
3980 -3979 78 0
3980 3979 -78 0
-3981 3980 79 0
-3981 -3980 -79 0
3981 -3980 79 0
3981 3980 -79 0
-3982 3981 82 0
-3982 -3981 -82 0
3982 -3981 82 0
3982 3981 -82 0
-3983 3982 83 0
-3983 -3982 -83 0
3983 -3982 83 0
3983 3982 -83 0
-3984 3983 84 0
-3984 -3983 -84 0
3984 -3983 84 0
3984 3983 -84 0
-3985 3984 85 0
-3985 -3984 -85 0
3985 -3984 85 0
3985 3984 -85 0
-3986 3985 86 0
-3986 -3985 -86 0
3986 -3985 86 0
3986 3985 -86 0
-3987 3986 87 0
-3987 -3986 -87 0
3987 -3986 87 0
3987 3986 -87 0
-3988 3987 89 0
-3988 -3987 -89 0
3988 -3987 89 0
3988 3987 -89 0
-3989 3988 92 0
-3989 -3988 -92 0
3989 -3988 92 0
3989 3988 -92 0
-3990 3989 97 0
-3990 -3989 -97 0
3990 -3989 97 0
3990 3989 -97 0
-3991 3990 108 0
-3991 -3990 -108 0
3991 -3990 108 0
3991 3990 -108 0
-3991 0
-3992 38 53 0
-3992 -38 -53 0
3992 -38 53 0
3992 38 -53 0
-3993 3992 54 0
-3993 -3992 -54 0
3993 -3992 54 0
3993 3992 -54 0
-3994 3993 67 0
-3994 -3993 -67 0
3994 -3993 67 0
3994 3993 -67 0
-3995 3994 68 0
-3995 -3994 -68 0
3995 -3994 68 0
3995 3994 -68 0
-3996 3995 69 0
-3996 -3995 -69 0
3996 -3995 69 0
3996 3995 -69 0
-3997 3996 70 0
-3997 -3996 -70 0
3997 -3996 70 0
3997 3996 -70 0
-3998 3997 71 0
-3998 -3997 -71 0
3998 -3997 71 0
3998 3997 -71 0
-3999 3998 72 0
-3999 -3998 -72 0
3999 -3998 72 0
3999 3998 -72 0
-4000 3999 73 0
-4000 -3999 -73 0
4000 -3999 73 0
4000 3999 -73 0
-4001 4000 75 0
-4001 -4000 -75 0
4001 -4000 75 0
4001 4000 -75 0
-4002 4001 77 0
-4002 -4001 -77 0
4002 -4001 77 0
4002 4001 -77 0
-4003 4002 81 0
-4003 -4002 -81 0
4003 -4002 81 0
4003 4002 -81 0
-4004 4003 82 0
-4004 -4003 -82 0
4004 -4003 82 0
4004 4003 -82 0
-4005 4004 85 0
-4005 -4004 -85 0
4005 -4004 85 0
4005 4004 -85 0
-4006 4005 86 0
-4006 -4005 -86 0
4006 -4005 86 0
4006 4005 -86 0
-4007 4006 88 0
-4007 -4006 -88 0
4007 -4006 88 0
4007 4006 -88 0
-4008 4007 89 0
-4008 -4007 -89 0
4008 -4007 89 0
4008 4007 -89 0
-4009 4008 90 0
-4009 -4008 -90 0
4009 -4008 90 0
4009 4008 -90 0
-4010 4009 96 0
-4010 -4009 -96 0
4010 -4009 96 0
4010 4009 -96 0
-4011 4010 97 0
-4011 -4010 -97 0
4011 -4010 97 0
4011 4010 -97 0
-4012 4011 102 0
-4012 -4011 -102 0
4012 -4011 102 0
4012 4011 -102 0
-4013 4012 107 0
-4013 -4012 -107 0
4013 -4012 107 0
4013 4012 -107 0
-4014 4013 108 0
-4014 -4013 -108 0
4014 -4013 108 0
4014 4013 -108 0
-4014 0
-4015 39 53 0
-4015 -39 -53 0
4015 -39 53 0
4015 39 -53 0
-4016 4015 67 0
-4016 -4015 -67 0
4016 -4015 67 0
4016 4015 -67 0
-4017 4016 68 0
-4017 -4016 -68 0
4017 -4016 68 0
4017 4016 -68 0
-4018 4017 69 0
-4018 -4017 -69 0
4018 -4017 69 0
4018 4017 -69 0
-4019 4018 70 0
-4019 -4018 -70 0
4019 -4018 70 0
4019 4018 -70 0
-4020 4019 71 0
-4020 -4019 -71 0
4020 -4019 71 0
4020 4019 -71 0
-4021 4020 72 0
-4021 -4020 -72 0
4021 -4020 72 0
4021 4020 -72 0
-4022 4021 74 0
-4022 -4021 -74 0
4022 -4021 74 0
4022 4021 -74 0
-4023 4022 76 0
-4023 -4022 -76 0
4023 -4022 76 0
4023 4022 -76 0
-4024 4023 78 0
-4024 -4023 -78 0
4024 -4023 78 0
4024 4023 -78 0
-4025 4024 79 0
-4025 -4024 -79 0
4025 -4024 79 0
4025 4024 -79 0
-4026 4025 80 0
-4026 -4025 -80 0
4026 -4025 80 0
4026 4025 -80 0
-4027 4026 81 0
-4027 -4026 -81 0
4027 -4026 81 0
4027 4026 -81 0
-4028 4027 84 0
-4028 -4027 -84 0
4028 -4027 84 0
4028 4027 -84 0
-4029 4028 86 0
-4029 -4028 -86 0
4029 -4028 86 0
4029 4028 -86 0
-4030 4029 90 0
-4030 -4029 -90 0
4030 -4029 90 0
4030 4029 -90 0
-4031 4030 91 0
-4031 -4030 -91 0
4031 -4030 91 0
4031 4030 -91 0
-4032 4031 93 0
-4032 -4031 -93 0
4032 -4031 93 0
4032 4031 -93 0
-4033 4032 96 0
-4033 -4032 -96 0
4033 -4032 96 0
4033 4032 -96 0
-4034 4033 102 0
-4034 -4033 -102 0
4034 -4033 102 0
4034 4033 -102 0
-4035 4034 107 0
-4035 -4034 -107 0
4035 -4034 107 0
4035 4034 -107 0
-4035 0
-4036 40 54 0
-4036 -40 -54 0
4036 -40 54 0
4036 40 -54 0
-4037 4036 67 0
-4037 -4036 -67 0
4037 -4036 67 0
4037 4036 -67 0
-4038 4037 68 0
-4038 -4037 -68 0
4038 -4037 68 0
4038 4037 -68 0
-4039 4038 69 0
-4039 -4038 -69 0
4039 -4038 69 0
4039 4038 -69 0
-4040 4039 70 0
-4040 -4039 -70 0
4040 -4039 70 0
4040 4039 -70 0
-4041 4040 71 0
-4041 -4040 -71 0
4041 -4040 71 0
4041 4040 -71 0
-4042 4041 72 0
-4042 -4041 -72 0
4042 -4041 72 0
4042 4041 -72 0
-4043 4042 73 0
-4043 -4042 -73 0
4043 -4042 73 0
4043 4042 -73 0
-4044 4043 75 0
-4044 -4043 -75 0
4044 -4043 75 0
4044 4043 -75 0
-4045 4044 77 0
-4045 -4044 -77 0
4045 -4044 77 0
4045 4044 -77 0
-4046 4045 79 0
-4046 -4045 -79 0
4046 -4045 79 0
4046 4045 -79 0
-4047 4046 80 0
-4047 -4046 -80 0
4047 -4046 80 0
4047 4046 -80 0
-4048 4047 81 0
-4048 -4047 -81 0
4048 -4047 81 0
4048 4047 -81 0
-4049 4048 82 0
-4049 -4048 -82 0
4049 -4048 82 0
4049 4048 -82 0
-4050 4049 85 0
-4050 -4049 -85 0
4050 -4049 85 0
4050 4049 -85 0
-4051 4050 87 0
-4051 -4050 -87 0
4051 -4050 87 0
4051 4050 -87 0
-4052 4051 91 0
-4052 -4051 -91 0
4052 -4051 91 0
4052 4051 -91 0
-4053 4052 92 0
-4053 -4052 -92 0
4053 -4052 92 0
4053 4052 -92 0
-4054 4053 94 0
-4054 -4053 -94 0
4054 -4053 94 0
4054 4053 -94 0
-4055 4054 97 0
-4055 -4054 -97 0
4055 -4054 97 0
4055 4054 -97 0
-4056 4055 108 0
-4056 -4055 -108 0
4056 -4055 108 0
4056 4055 -108 0
-4056 0
-4057 41 53 0
-4057 -41 -53 0
4057 -41 53 0
4057 41 -53 0
-4058 4057 54 0
-4058 -4057 -54 0
4058 -4057 54 0
4058 4057 -54 0
-4059 4058 67 0
-4059 -4058 -67 0
4059 -4058 67 0
4059 4058 -67 0
-4060 4059 68 0
-4060 -4059 -68 0
4060 -4059 68 0
4060 4059 -68 0
-4061 4060 69 0
-4061 -4060 -69 0
4061 -4060 69 0
4061 4060 -69 0
-4062 4061 70 0
-4062 -4061 -70 0
4062 -4061 70 0
4062 4061 -70 0
-4063 4062 71 0
-4063 -4062 -71 0
4063 -4062 71 0
4063 4062 -71 0
-4064 4063 72 0
-4064 -4063 -72 0
4064 -4063 72 0
4064 4063 -72 0
-4065 4064 74 0
-4065 -4064 -74 0
4065 -4064 74 0
4065 4064 -74 0
-4066 4065 76 0
-4066 -4065 -76 0
4066 -4065 76 0
4066 4065 -76 0
-4067 4066 78 0
-4067 -4066 -78 0
4067 -4066 78 0
4067 4066 -78 0
-4068 4067 79 0
-4068 -4067 -79 0
4068 -4067 79 0
4068 4067 -79 0
-4069 4068 84 0
-4069 -4068 -84 0
4069 -4068 84 0
4069 4068 -84 0
-4070 4069 85 0
-4070 -4069 -85 0
4070 -4069 85 0
4070 4069 -85 0
-4071 4070 86 0
-4071 -4070 -86 0
4071 -4070 86 0
4071 4070 -86 0
-4072 4071 87 0
-4072 -4071 -87 0
4072 -4071 87 0
4072 4071 -87 0
-4073 4072 88 0
-4073 -4072 -88 0
4073 -4072 88 0
4073 4072 -88 0
-4074 4073 89 0
-4074 -4073 -89 0
4074 -4073 89 0
4074 4073 -89 0
-4075 4074 92 0
-4075 -4074 -92 0
4075 -4074 92 0
4075 4074 -92 0
-4076 4075 95 0
-4076 -4075 -95 0
4076 -4075 95 0
4076 4075 -95 0
-4077 4076 96 0
-4077 -4076 -96 0
4077 -4076 96 0
4077 4076 -96 0
-4078 4077 97 0
-4078 -4077 -97 0
4078 -4077 97 0
4078 4077 -97 0
-4079 4078 102 0
-4079 -4078 -102 0
4079 -4078 102 0
4079 4078 -102 0
-4080 4079 107 0
-4080 -4079 -107 0
4080 -4079 107 0
4080 4079 -107 0
-4081 4080 108 0
-4081 -4080 -108 0
4081 -4080 108 0
4081 4080 -108 0
-4081 0
-4082 42 53 0
-4082 -42 -53 0
4082 -42 53 0
4082 42 -53 0
-4083 4082 67 0
-4083 -4082 -67 0
4083 -4082 67 0
4083 4082 -67 0
-4084 4083 68 0
-4084 -4083 -68 0
4084 -4083 68 0
4084 4083 -68 0
-4085 4084 69 0
-4085 -4084 -69 0
4085 -4084 69 0
4085 4084 -69 0
-4086 4085 70 0
-4086 -4085 -70 0
4086 -4085 70 0
4086 4085 -70 0
-4087 4086 71 0
-4087 -4086 -71 0
4087 -4086 71 0
4087 4086 -71 0
-4088 4087 72 0
-4088 -4087 -72 0
4088 -4087 72 0
4088 4087 -72 0
-4089 4088 73 0
-4089 -4088 -73 0
4089 -4088 73 0
4089 4088 -73 0
-4090 4089 75 0
-4090 -4089 -75 0
4090 -4089 75 0
4090 4089 -75 0
-4091 4090 77 0
-4091 -4090 -77 0
4091 -4090 77 0
4091 4090 -77 0
-4092 4091 81 0
-4092 -4091 -81 0
4092 -4091 81 0
4092 4091 -81 0
-4093 4092 82 0
-4093 -4092 -82 0
4093 -4092 82 0
4093 4092 -82 0
-4094 4093 83 0
-4094 -4093 -83 0
4094 -4093 83 0
4094 4093 -83 0
-4095 4094 84 0
-4095 -4094 -84 0
4095 -4094 84 0
4095 4094 -84 0
-4096 4095 85 0
-4096 -4095 -85 0
4096 -4095 85 0
4096 4095 -85 0
-4097 4096 86 0
-4097 -4096 -86 0
4097 -4096 86 0
4097 4096 -86 0
-4098 4097 88 0
-4098 -4097 -88 0
4098 -4097 88 0
4098 4097 -88 0
-4099 4098 90 0
-4099 -4098 -90 0
4099 -4098 90 0
4099 4098 -90 0
-4100 4099 91 0
-4100 -4099 -91 0
4100 -4099 91 0
4100 4099 -91 0
-4101 4100 102 0
-4101 -4100 -102 0
4101 -4100 102 0
4101 4100 -102 0
-4102 4101 107 0
-4102 -4101 -107 0
4102 -4101 107 0
4102 4101 -107 0
-4102 0
-4103 43 53 0
-4103 -43 -53 0
4103 -43 53 0
4103 43 -53 0
-4104 4103 73 0
-4104 -4103 -73 0
4104 -4103 73 0
4104 4103 -73 0
-4105 4104 74 0
-4105 -4104 -74 0
4105 -4104 74 0
4105 4104 -74 0
-4106 4105 75 0
-4106 -4105 -75 0
4106 -4105 75 0
4106 4105 -75 0
-4107 4106 76 0
-4107 -4106 -76 0
4107 -4106 76 0
4107 4106 -76 0
-4108 4107 77 0
-4108 -4107 -77 0
4108 -4107 77 0
4108 4107 -77 0
-4109 4108 78 0
-4109 -4108 -78 0
4109 -4108 78 0
4109 4108 -78 0
-4110 4109 79 0
-4110 -4109 -79 0
4110 -4109 79 0
4110 4109 -79 0
-4111 4110 81 0
-4111 -4110 -81 0
4111 -4110 81 0
4111 4110 -81 0
-4112 4111 83 0
-4112 -4111 -83 0
4112 -4111 83 0
4112 4111 -83 0
-4113 4112 87 0
-4113 -4112 -87 0
4113 -4112 87 0
4113 4112 -87 0
-4114 4113 88 0
-4114 -4113 -88 0
4114 -4113 88 0
4114 4113 -88 0
-4115 4114 90 0
-4115 -4114 -90 0
4115 -4114 90 0
4115 4114 -90 0
-4116 4115 91 0
-4116 -4115 -91 0
4116 -4115 91 0
4116 4115 -91 0
-4117 4116 92 0
-4117 -4116 -92 0
4117 -4116 92 0
4117 4116 -92 0
-4118 4117 96 0
-4118 -4117 -96 0
4118 -4117 96 0
4118 4117 -96 0
-4119 4118 97 0
-4119 -4118 -97 0
4119 -4118 97 0
4119 4118 -97 0
-4120 4119 102 0
-4120 -4119 -102 0
4120 -4119 102 0
4120 4119 -102 0
-4121 4120 107 0
-4121 -4120 -107 0
4121 -4120 107 0
4121 4120 -107 0
-4121 0
-4122 44 54 0
-4122 -44 -54 0
4122 -44 54 0
4122 44 -54 0
-4123 4122 73 0
-4123 -4122 -73 0
4123 -4122 73 0
4123 4122 -73 0
-4124 4123 74 0
-4124 -4123 -74 0
4124 -4123 74 0
4124 4123 -74 0
-4125 4124 75 0
-4125 -4124 -75 0
4125 -4124 75 0
4125 4124 -75 0
-4126 4125 76 0
-4126 -4125 -76 0
4126 -4125 76 0
4126 4125 -76 0
-4127 4126 77 0
-4127 -4126 -77 0
4127 -4126 77 0
4127 4126 -77 0
-4128 4127 78 0
-4128 -4127 -78 0
4128 -4127 78 0
4128 4127 -78 0
-4129 4128 80 0
-4129 -4128 -80 0
4129 -4128 80 0
4129 4128 -80 0
-4130 4129 82 0
-4130 -4129 -82 0
4130 -4129 82 0
4130 4129 -82 0
-4131 4130 84 0
-4131 -4130 -84 0
4131 -4130 84 0
4131 4130 -84 0
-4132 4131 85 0
-4132 -4131 -85 0
4132 -4131 85 0
4132 4131 -85 0
-4133 4132 88 0
-4133 -4132 -88 0
4133 -4132 88 0
4133 4132 -88 0
-4134 4133 89 0
-4134 -4133 -89 0
4134 -4133 89 0
4134 4133 -89 0
-4135 4134 91 0
-4135 -4134 -91 0
4135 -4134 91 0
4135 4134 -91 0
-4136 4135 92 0
-4136 -4135 -92 0
4136 -4135 92 0
4136 4135 -92 0
-4137 4136 93 0
-4137 -4136 -93 0
4137 -4136 93 0
4137 4136 -93 0
-4138 4137 97 0
-4138 -4137 -97 0
4138 -4137 97 0
4138 4137 -97 0
-4139 4138 98 0
-4139 -4138 -98 0
4139 -4138 98 0
4139 4138 -98 0
-4140 4139 108 0
-4140 -4139 -108 0
4140 -4139 108 0
4140 4139 -108 0
-4140 0
-4141 45 53 0
-4141 -45 -53 0
4141 -45 53 0
4141 45 -53 0
-4142 4141 54 0
-4142 -4141 -54 0
4142 -4141 54 0
4142 4141 -54 0
-4143 4142 73 0
-4143 -4142 -73 0
4143 -4142 73 0
4143 4142 -73 0
-4144 4143 74 0
-4144 -4143 -74 0
4144 -4143 74 0
4144 4143 -74 0
-4145 4144 75 0
-4145 -4144 -75 0
4145 -4144 75 0
4145 4144 -75 0
-4146 4145 76 0
-4146 -4145 -76 0
4146 -4145 76 0
4146 4145 -76 0
-4147 4146 77 0
-4147 -4146 -77 0
4147 -4146 77 0
4147 4146 -77 0
-4148 4147 78 0
-4148 -4147 -78 0
4148 -4147 78 0
4148 4147 -78 0
-4149 4148 80 0
-4149 -4148 -80 0
4149 -4148 80 0
4149 4148 -80 0
-4150 4149 82 0
-4150 -4149 -82 0
4150 -4149 82 0
4150 4149 -82 0
-4151 4150 84 0
-4151 -4150 -84 0
4151 -4150 84 0
4151 4150 -84 0
-4152 4151 85 0
-4152 -4151 -85 0
4152 -4151 85 0
4152 4151 -85 0
-4153 4152 86 0
-4153 -4152 -86 0
4153 -4152 86 0
4153 4152 -86 0
-4154 4153 87 0
-4154 -4153 -87 0
4154 -4153 87 0
4154 4153 -87 0
-4155 4154 90 0
-4155 -4154 -90 0
4155 -4154 90 0
4155 4154 -90 0
-4156 4155 92 0
-4156 -4155 -92 0
4156 -4155 92 0
4156 4155 -92 0
-4157 4156 94 0
-4157 -4156 -94 0
4157 -4156 94 0
4157 4156 -94 0
-4158 4157 96 0
-4158 -4157 -96 0
4158 -4157 96 0
4158 4157 -96 0
-4159 4158 97 0
-4159 -4158 -97 0
4159 -4158 97 0
4159 4158 -97 0
-4160 4159 99 0
-4160 -4159 -99 0
4160 -4159 99 0
4160 4159 -99 0
-4161 4160 102 0
-4161 -4160 -102 0
4161 -4160 102 0
4161 4160 -102 0
-4162 4161 107 0
-4162 -4161 -107 0
4162 -4161 107 0
4162 4161 -107 0
-4163 4162 108 0
-4163 -4162 -108 0
4163 -4162 108 0
4163 4162 -108 0
-4163 0
-4164 46 53 0
-4164 -46 -53 0
4164 -46 53 0
4164 46 -53 0
-4165 4164 73 0
-4165 -4164 -73 0
4165 -4164 73 0
4165 4164 -73 0
-4166 4165 74 0
-4166 -4165 -74 0
4166 -4165 74 0
4166 4165 -74 0
-4167 4166 75 0
-4167 -4166 -75 0
4167 -4166 75 0
4167 4166 -75 0
-4168 4167 76 0
-4168 -4167 -76 0
4168 -4167 76 0
4168 4167 -76 0
-4169 4168 77 0
-4169 -4168 -77 0
4169 -4168 77 0
4169 4168 -77 0
-4170 4169 78 0
-4170 -4169 -78 0
4170 -4169 78 0
4170 4169 -78 0
-4171 4170 80 0
-4171 -4170 -80 0
4171 -4170 80 0
4171 4170 -80 0
-4172 4171 82 0
-4172 -4171 -82 0
4172 -4171 82 0
4172 4171 -82 0
-4173 4172 84 0
-4173 -4172 -84 0
4173 -4172 84 0
4173 4172 -84 0
-4174 4173 86 0
-4174 -4173 -86 0
4174 -4173 86 0
4174 4173 -86 0
-4175 4174 88 0
-4175 -4174 -88 0
4175 -4174 88 0
4175 4174 -88 0
-4176 4175 89 0
-4176 -4175 -89 0
4176 -4175 89 0
4176 4175 -89 0
-4177 4176 91 0
-4177 -4176 -91 0
4177 -4176 91 0
4177 4176 -91 0
-4178 4177 95 0
-4178 -4177 -95 0
4178 -4177 95 0
4178 4177 -95 0
-4179 4178 96 0
-4179 -4178 -96 0
4179 -4178 96 0
4179 4178 -96 0
-4180 4179 100 0
-4180 -4179 -100 0
4180 -4179 100 0
4180 4179 -100 0
-4181 4180 102 0
-4181 -4180 -102 0
4181 -4180 102 0
4181 4180 -102 0
-4182 4181 107 0
-4182 -4181 -107 0
4182 -4181 107 0
4182 4181 -107 0
-4182 0
-4183 47 54 0
-4183 -47 -54 0
4183 -47 54 0
4183 47 -54 0
-4184 4183 73 0
-4184 -4183 -73 0
4184 -4183 73 0
4184 4183 -73 0
-4185 4184 74 0
-4185 -4184 -74 0
4185 -4184 74 0
4185 4184 -74 0
-4186 4185 75 0
-4186 -4185 -75 0
4186 -4185 75 0
4186 4185 -75 0
-4187 4186 76 0
-4187 -4186 -76 0
4187 -4186 76 0
4187 4186 -76 0
-4188 4187 77 0
-4188 -4187 -77 0
4188 -4187 77 0
4188 4187 -77 0
-4189 4188 78 0
-4189 -4188 -78 0
4189 -4188 78 0
4189 4188 -78 0
-4190 4189 79 0
-4190 -4189 -79 0
4190 -4189 79 0
4190 4189 -79 0
-4191 4190 81 0
-4191 -4190 -81 0
4191 -4190 81 0
4191 4190 -81 0
-4192 4191 83 0
-4192 -4191 -83 0
4192 -4191 83 0
4192 4191 -83 0
-4193 4192 87 0
-4193 -4192 -87 0
4193 -4192 87 0
4193 4192 -87 0
-4194 4193 89 0
-4194 -4193 -89 0
4194 -4193 89 0
4194 4193 -89 0
-4195 4194 90 0
-4195 -4194 -90 0
4195 -4194 90 0
4195 4194 -90 0
-4196 4195 91 0
-4196 -4195 -91 0
4196 -4195 91 0
4196 4195 -91 0
-4197 4196 92 0
-4197 -4196 -92 0
4197 -4196 92 0
4197 4196 -92 0
-4198 4197 96 0
-4198 -4197 -96 0
4198 -4197 96 0
4198 4197 -96 0
-4199 4198 97 0
-4199 -4198 -97 0
4199 -4198 97 0
4199 4198 -97 0
-4200 4199 101 0
-4200 -4199 -101 0
4200 -4199 101 0
4200 4199 -101 0
-4201 4200 108 0
-4201 -4200 -108 0
4201 -4200 108 0
4201 4200 -108 0
-4201 0
-4202 48 53 0
-4202 -48 -53 0
4202 -48 53 0
4202 48 -53 0
-4203 4202 54 0
-4203 -4202 -54 0
4203 -4202 54 0
4203 4202 -54 0
-4204 4203 73 0
-4204 -4203 -73 0
4204 -4203 73 0
4204 4203 -73 0
-4205 4204 74 0
-4205 -4204 -74 0
4205 -4204 74 0
4205 4204 -74 0
-4206 4205 75 0
-4206 -4205 -75 0
4206 -4205 75 0
4206 4205 -75 0
-4207 4206 76 0
-4207 -4206 -76 0
4207 -4206 76 0
4207 4206 -76 0
-4208 4207 77 0
-4208 -4207 -77 0
4208 -4207 77 0
4208 4207 -77 0
-4209 4208 78 0
-4209 -4208 -78 0
4209 -4208 78 0
4209 4208 -78 0
-4210 4209 79 0
-4210 -4209 -79 0
4210 -4209 79 0
4210 4209 -79 0
-4211 4210 81 0
-4211 -4210 -81 0
4211 -4210 81 0
4211 4210 -81 0
-4212 4211 83 0
-4212 -4211 -83 0
4212 -4211 83 0
4212 4211 -83 0
-4213 4212 87 0
-4213 -4212 -87 0
4213 -4212 87 0
4213 4212 -87 0
-4214 4213 88 0
-4214 -4213 -88 0
4214 -4213 88 0
4214 4213 -88 0
-4215 4214 89 0
-4215 -4214 -89 0
4215 -4214 89 0
4215 4214 -89 0
-4216 4215 90 0
-4216 -4215 -90 0
4216 -4215 90 0
4216 4215 -90 0
-4217 4216 91 0
-4217 -4216 -91 0
4217 -4216 91 0
4217 4216 -91 0
-4218 4217 92 0
-4218 -4217 -92 0
4218 -4217 92 0
4218 4217 -92 0
-4219 4218 96 0
-4219 -4218 -96 0
4219 -4218 96 0
4219 4218 -96 0
-4220 4219 97 0
-4220 -4219 -97 0
4220 -4219 97 0
4220 4219 -97 0
-4221 4220 107 0
-4221 -4220 -107 0
4221 -4220 107 0
4221 4220 -107 0
-4222 4221 108 0
-4222 -4221 -108 0
4222 -4221 108 0
4222 4221 -108 0
-4222 0
-4223 49 53 0
-4223 -49 -53 0
4223 -49 53 0
4223 49 -53 0
-4224 4223 54 0
-4224 -4223 -54 0
4224 -4223 54 0
4224 4223 -54 0
-4225 4224 79 0
-4225 -4224 -79 0
4225 -4224 79 0
4225 4224 -79 0
-4226 4225 80 0
-4226 -4225 -80 0
4226 -4225 80 0
4226 4225 -80 0
-4227 4226 81 0
-4227 -4226 -81 0
4227 -4226 81 0
4227 4226 -81 0
-4228 4227 82 0
-4228 -4227 -82 0
4228 -4227 82 0
4228 4227 -82 0
-4229 4228 83 0
-4229 -4228 -83 0
4229 -4228 83 0
4229 4228 -83 0
-4230 4229 84 0
-4230 -4229 -84 0
4230 -4229 84 0
4230 4229 -84 0
-4231 4230 85 0
-4231 -4230 -85 0
4231 -4230 85 0
4231 4230 -85 0
-4232 4231 87 0
-4232 -4231 -87 0
4232 -4231 87 0
4232 4231 -87 0
-4233 4232 89 0
-4233 -4232 -89 0
4233 -4232 89 0
4233 4232 -89 0
-4234 4233 93 0
-4234 -4233 -93 0
4234 -4233 93 0
4234 4233 -93 0
-4235 4234 96 0
-4235 -4234 -96 0
4235 -4234 96 0
4235 4234 -96 0
-4236 4235 97 0
-4236 -4235 -97 0
4236 -4235 97 0
4236 4235 -97 0
-4237 4236 98 0
-4237 -4236 -98 0
4237 -4236 98 0
4237 4236 -98 0
-4238 4237 102 0
-4238 -4237 -102 0
4238 -4237 102 0
4238 4237 -102 0
-4239 4238 103 0
-4239 -4238 -103 0
4239 -4238 103 0
4239 4238 -103 0
-4240 4239 107 0
-4240 -4239 -107 0
4240 -4239 107 0
4240 4239 -107 0
-4241 4240 108 0
-4241 -4240 -108 0
4241 -4240 108 0
4241 4240 -108 0
-4241 0
-4242 50 53 0
-4242 -50 -53 0
4242 -50 53 0
4242 50 -53 0
-4243 4242 85 0
-4243 -4242 -85 0
4243 -4242 85 0
4243 4242 -85 0
-4244 4243 86 0
-4244 -4243 -86 0
4244 -4243 86 0
4244 4243 -86 0
-4245 4244 87 0
-4245 -4244 -87 0
4245 -4244 87 0
4245 4244 -87 0
-4246 4245 88 0
-4246 -4245 -88 0
4246 -4245 88 0
4246 4245 -88 0
-4247 4246 89 0
-4247 -4246 -89 0
4247 -4246 89 0
4247 4246 -89 0
-4248 4247 90 0
-4248 -4247 -90 0
4248 -4247 90 0
4248 4247 -90 0
-4249 4248 91 0
-4249 -4248 -91 0
4249 -4248 91 0
4249 4248 -91 0
-4250 4249 93 0
-4250 -4249 -93 0
4250 -4249 93 0
4250 4249 -93 0
-4251 4250 94 0
-4251 -4250 -94 0
4251 -4250 94 0
4251 4250 -94 0
-4252 4251 96 0
-4252 -4251 -96 0
4252 -4251 96 0
4252 4251 -96 0
-4253 4252 99 0
-4253 -4252 -99 0
4253 -4252 99 0
4253 4252 -99 0
-4254 4253 102 0
-4254 -4253 -102 0
4254 -4253 102 0
4254 4253 -102 0
-4255 4254 104 0
-4255 -4254 -104 0
4255 -4254 104 0
4255 4254 -104 0
-4256 4255 107 0
-4256 -4255 -107 0
4256 -4255 107 0
4256 4255 -107 0
-4256 0
-4257 51 54 0
-4257 -51 -54 0
4257 -51 54 0
4257 51 -54 0
-4258 4257 85 0
-4258 -4257 -85 0
4258 -4257 85 0
4258 4257 -85 0
-4259 4258 86 0
-4259 -4258 -86 0
4259 -4258 86 0
4259 4258 -86 0
-4260 4259 87 0
-4260 -4259 -87 0
4260 -4259 87 0
4260 4259 -87 0
-4261 4260 88 0
-4261 -4260 -88 0
4261 -4260 88 0
4261 4260 -88 0
-4262 4261 89 0
-4262 -4261 -89 0
4262 -4261 89 0
4262 4261 -89 0
-4263 4262 90 0
-4263 -4262 -90 0
4263 -4262 90 0
4263 4262 -90 0
-4264 4263 91 0
-4264 -4263 -91 0
4264 -4263 91 0
4264 4263 -91 0
-4265 4264 92 0
-4265 -4264 -92 0
4265 -4264 92 0
4265 4264 -92 0
-4266 4265 94 0
-4266 -4265 -94 0
4266 -4265 94 0
4266 4265 -94 0
-4267 4266 95 0
-4267 -4266 -95 0
4267 -4266 95 0
4267 4266 -95 0
-4268 4267 97 0
-4268 -4267 -97 0
4268 -4267 97 0
4268 4267 -97 0
-4269 4268 100 0
-4269 -4268 -100 0
4269 -4268 100 0
4269 4268 -100 0
-4270 4269 105 0
-4270 -4269 -105 0
4270 -4269 105 0
4270 4269 -105 0
-4271 4270 108 0
-4271 -4270 -108 0
4271 -4270 108 0
4271 4270 -108 0
-4271 0
-4272 52 53 0
-4272 -52 -53 0
4272 -52 53 0
4272 52 -53 0
-4273 4272 54 0
-4273 -4272 -54 0
4273 -4272 54 0
4273 4272 -54 0
-4274 4273 79 0
-4274 -4273 -79 0
4274 -4273 79 0
4274 4273 -79 0
-4275 4274 80 0
-4275 -4274 -80 0
4275 -4274 80 0
4275 4274 -80 0
-4276 4275 81 0
-4276 -4275 -81 0
4276 -4275 81 0
4276 4275 -81 0
-4277 4276 82 0
-4277 -4276 -82 0
4277 -4276 82 0
4277 4276 -82 0
-4278 4277 83 0
-4278 -4277 -83 0
4278 -4277 83 0
4278 4277 -83 0
-4279 4278 84 0
-4279 -4278 -84 0
4279 -4278 84 0
4279 4278 -84 0
-4280 4279 86 0
-4280 -4279 -86 0
4280 -4279 86 0
4280 4279 -86 0
-4281 4280 88 0
-4281 -4280 -88 0
4281 -4280 88 0
4281 4280 -88 0
-4282 4281 90 0
-4282 -4281 -90 0
4282 -4281 90 0
4282 4281 -90 0
-4283 4282 92 0
-4283 -4282 -92 0
4283 -4282 92 0
4283 4282 -92 0
-4284 4283 95 0
-4284 -4283 -95 0
4284 -4283 95 0
4284 4283 -95 0
-4285 4284 97 0
-4285 -4284 -97 0
4285 -4284 97 0
4285 4284 -97 0
-4286 4285 101 0
-4286 -4285 -101 0
4286 -4285 101 0
4286 4285 -101 0
-4287 4286 102 0
-4287 -4286 -102 0
4287 -4286 102 0
4287 4286 -102 0
-4288 4287 106 0
-4288 -4287 -106 0
4288 -4287 106 0
4288 4287 -106 0
-4289 4288 107 0
-4289 -4288 -107 0
4289 -4288 107 0
4289 4288 -107 0
-4290 4289 108 0
-4290 -4289 -108 0
4290 -4289 108 0
4290 4289 -108 0
-4290 0
-4291 55 57 0
-4291 -55 -57 0
4291 -55 57 0
4291 55 -57 0
-4292 4291 58 0
-4292 -4291 -58 0
4292 -4291 58 0
4292 4291 -58 0
-4293 4292 60 0
-4293 -4292 -60 0
4293 -4292 60 0
4293 4292 -60 0
-4294 4293 61 0
-4294 -4293 -61 0
4294 -4293 61 0
4294 4293 -61 0
-4295 4294 62 0
-4295 -4294 -62 0
4295 -4294 62 0
4295 4294 -62 0
-4296 4295 64 0
-4296 -4295 -64 0
4296 -4295 64 0
4296 4295 -64 0
-4297 4296 65 0
-4297 -4296 -65 0
4297 -4296 65 0
4297 4296 -65 0
-4298 4297 68 0
-4298 -4297 -68 0
4298 -4297 68 0
4298 4297 -68 0
-4299 4298 69 0
-4299 -4298 -69 0
4299 -4298 69 0
4299 4298 -69 0
-4300 4299 71 0
-4300 -4299 -71 0
4300 -4299 71 0
4300 4299 -71 0
-4301 4300 72 0
-4301 -4300 -72 0
4301 -4300 72 0
4301 4300 -72 0
-4302 4301 73 0
-4302 -4301 -73 0
4302 -4301 73 0
4302 4301 -73 0
-4303 4302 75 0
-4303 -4302 -75 0
4303 -4302 75 0
4303 4302 -75 0
-4304 4303 76 0
-4304 -4303 -76 0
4304 -4303 76 0
4304 4303 -76 0
-4305 4304 78 0
-4305 -4304 -78 0
4305 -4304 78 0
4305 4304 -78 0
-4306 4305 79 0
-4306 -4305 -79 0
4306 -4305 79 0
4306 4305 -79 0
-4307 4306 80 0
-4307 -4306 -80 0
4307 -4306 80 0
4307 4306 -80 0
-4308 4307 82 0
-4308 -4307 -82 0
4308 -4307 82 0
4308 4307 -82 0
-4309 4308 83 0
-4309 -4308 -83 0
4309 -4308 83 0
4309 4308 -83 0
-4310 4309 86 0
-4310 -4309 -86 0
4310 -4309 86 0
4310 4309 -86 0
-4311 4310 87 0
-4311 -4310 -87 0
4311 -4310 87 0
4311 4310 -87 0
-4312 4311 89 0
-4312 -4311 -89 0
4312 -4311 89 0
4312 4311 -89 0
-4313 4312 90 0
-4313 -4312 -90 0
4313 -4312 90 0
4313 4312 -90 0
-4314 4313 91 0
-4314 -4313 -91 0
4314 -4313 91 0
4314 4313 -91 0
-4315 4314 93 0
-4315 -4314 -93 0
4315 -4314 93 0
4315 4314 -93 0
-4316 4315 94 0
-4316 -4315 -94 0
4316 -4315 94 0
4316 4315 -94 0
-4317 4316 96 0
-4317 -4316 -96 0
4317 -4316 96 0
4317 4316 -96 0
-4318 4317 97 0
-4318 -4317 -97 0
4318 -4317 97 0
4318 4317 -97 0
-4319 4318 98 0
-4319 -4318 -98 0
4319 -4318 98 0
4319 4318 -98 0
-4320 4319 100 0
-4320 -4319 -100 0
4320 -4319 100 0
4320 4319 -100 0
-4321 4320 101 0
-4321 -4320 -101 0
4321 -4320 101 0
4321 4320 -101 0
-4322 4321 104 0
-4322 -4321 -104 0
4322 -4321 104 0
4322 4321 -104 0
-4323 4322 105 0
-4323 -4322 -105 0
4323 -4322 105 0
4323 4322 -105 0
-4324 4323 107 0
-4324 -4323 -107 0
4324 -4323 107 0
4324 4323 -107 0
-4325 4324 108 0
-4325 -4324 -108 0
4325 -4324 108 0
4325 4324 -108 0
-4325 0
-4326 56 57 0
-4326 -56 -57 0
4326 -56 57 0
4326 56 -57 0
-4327 4326 59 0
-4327 -4326 -59 0
4327 -4326 59 0
4327 4326 -59 0
-4328 4327 60 0
-4328 -4327 -60 0
4328 -4327 60 0
4328 4327 -60 0
-4329 4328 61 0
-4329 -4328 -61 0
4329 -4328 61 0
4329 4328 -61 0
-4330 4329 63 0
-4330 -4329 -63 0
4330 -4329 63 0
4330 4329 -63 0
-4331 4330 64 0
-4331 -4330 -64 0
4331 -4330 64 0
4331 4330 -64 0
-4332 4331 66 0
-4332 -4331 -66 0
4332 -4331 66 0
4332 4331 -66 0
-4333 4332 67 0
-4333 -4332 -67 0
4333 -4332 67 0
4333 4332 -67 0
-4334 4333 68 0
-4334 -4333 -68 0
4334 -4333 68 0
4334 4333 -68 0
-4335 4334 70 0
-4335 -4334 -70 0
4335 -4334 70 0
4335 4334 -70 0
-4336 4335 71 0
-4336 -4335 -71 0
4336 -4335 71 0
4336 4335 -71 0
-4337 4336 74 0
-4337 -4336 -74 0
4337 -4336 74 0
4337 4336 -74 0
-4338 4337 75 0
-4338 -4337 -75 0
4338 -4337 75 0
4338 4337 -75 0
-4339 4338 77 0
-4339 -4338 -77 0
4339 -4338 77 0
4339 4338 -77 0
-4340 4339 78 0
-4340 -4339 -78 0
4340 -4339 78 0
4340 4339 -78 0
-4341 4340 79 0
-4341 -4340 -79 0
4341 -4340 79 0
4341 4340 -79 0
-4342 4341 81 0
-4342 -4341 -81 0
4342 -4341 81 0
4342 4341 -81 0
-4343 4342 82 0
-4343 -4342 -82 0
4343 -4342 82 0
4343 4342 -82 0
-4344 4343 84 0
-4344 -4343 -84 0
4344 -4343 84 0
4344 4343 -84 0
-4345 4344 85 0
-4345 -4344 -85 0
4345 -4344 85 0
4345 4344 -85 0
-4346 4345 86 0
-4346 -4345 -86 0
4346 -4345 86 0
4346 4345 -86 0
-4347 4346 88 0
-4347 -4346 -88 0
4347 -4346 88 0
4347 4346 -88 0
-4348 4347 89 0
-4348 -4347 -89 0
4348 -4347 89 0
4348 4347 -89 0
-4349 4348 92 0
-4349 -4348 -92 0
4349 -4348 92 0
4349 4348 -92 0
-4350 4349 93 0
-4350 -4349 -93 0
4350 -4349 93 0
4350 4349 -93 0
-4351 4350 95 0
-4351 -4350 -95 0
4351 -4350 95 0
4351 4350 -95 0
-4352 4351 96 0
-4352 -4351 -96 0
4352 -4351 96 0
4352 4351 -96 0
-4353 4352 97 0
-4353 -4352 -97 0
4353 -4352 97 0
4353 4352 -97 0
-4354 4353 99 0
-4354 -4353 -99 0
4354 -4353 99 0
4354 4353 -99 0
-4355 4354 100 0
-4355 -4354 -100 0
4355 -4354 100 0
4355 4354 -100 0
-4356 4355 102 0
-4356 -4355 -102 0
4356 -4355 102 0
4356 4355 -102 0
-4357 4356 103 0
-4357 -4356 -103 0
4357 -4356 103 0
4357 4356 -103 0
-4358 4357 104 0
-4358 -4357 -104 0
4358 -4357 104 0
4358 4357 -104 0
-4359 4358 106 0
-4359 -4358 -106 0
4359 -4358 106 0
4359 4358 -106 0
-4360 4359 107 0
-4360 -4359 -107 0
4360 -4359 107 0
4360 4359 -107 0
-4360 0
-4362 109 111 0
-4362 -109 -111 0
4362 -109 111 0
4362 109 -111 0
-4363 4362 112 0
-4363 -4362 -112 0
4363 -4362 112 0
4363 4362 -112 0
-4364 4363 114 0
-4364 -4363 -114 0
4364 -4363 114 0
4364 4363 -114 0
-4365 4364 116 0
-4365 -4364 -116 0
4365 -4364 116 0
4365 4364 -116 0
-4366 4365 119 0
-4366 -4365 -119 0
4366 -4365 119 0
4366 4365 -119 0
-4367 4366 122 0
-4367 -4366 -122 0
4367 -4366 122 0
4367 4366 -122 0
-4368 4367 125 0
-4368 -4367 -125 0
4368 -4367 125 0
4368 4367 -125 0
-4369 4368 127 0
-4369 -4368 -127 0
4369 -4368 127 0
4369 4368 -127 0
-4370 4369 129 0
-4370 -4369 -129 0
4370 -4369 129 0
4370 4369 -129 0
-4371 4370 130 0
-4371 -4370 -130 0
4371 -4370 130 0
4371 4370 -130 0
-4372 4371 132 0
-4372 -4371 -132 0
4372 -4371 132 0
4372 4371 -132 0
-4373 4372 134 0
-4373 -4372 -134 0
4373 -4372 134 0
4373 4372 -134 0
-4374 4373 137 0
-4374 -4373 -137 0
4374 -4373 137 0
4374 4373 -137 0
-4375 4374 140 0
-4375 -4374 -140 0
4375 -4374 140 0
4375 4374 -140 0
-4376 4375 143 0
-4376 -4375 -143 0
4376 -4375 143 0
4376 4375 -143 0
-4377 4376 145 0
-4377 -4376 -145 0
4377 -4376 145 0
4377 4376 -145 0
-4378 4377 147 0
-4378 -4377 -147 0
4378 -4377 147 0
4378 4377 -147 0
-4379 4378 148 0
-4379 -4378 -148 0
4379 -4378 148 0
4379 4378 -148 0
-4380 4379 150 0
-4380 -4379 -150 0
4380 -4379 150 0
4380 4379 -150 0
-4381 4380 152 0
-4381 -4380 -152 0
4381 -4380 152 0
4381 4380 -152 0
-4382 4381 155 0
-4382 -4381 -155 0
4382 -4381 155 0
4382 4381 -155 0
-4383 4382 158 0
-4383 -4382 -158 0
4383 -4382 158 0
4383 4382 -158 0
-4384 4383 161 0
-4384 -4383 -161 0
4384 -4383 161 0
4384 4383 -161 0
-4385 4384 164 0
-4385 -4384 -164 0
4385 -4384 164 0
4385 4384 -164 0
-4386 4385 167 0
-4386 -4385 -167 0
4386 -4385 167 0
4386 4385 -167 0
-4387 4386 169 0
-4387 -4386 -169 0
4387 -4386 169 0
4387 4386 -169 0
-4388 4387 172 0
-4388 -4387 -172 0
4388 -4387 172 0
4388 4387 -172 0
-4389 4388 182 0
-4389 -4388 -182 0
4389 -4388 182 0
4389 4388 -182 0
-4390 4389 185 0
-4390 -4389 -185 0
4390 -4389 185 0
4390 4389 -185 0
-4391 4390 187 0
-4391 -4390 -187 0
4391 -4390 187 0
4391 4390 -187 0
-4392 4391 190 0
-4392 -4391 -190 0
4392 -4391 190 0
4392 4391 -190 0
-4393 4392 200 0
-4393 -4392 -200 0
4393 -4392 200 0
4393 4392 -200 0
-4394 4393 203 0
-4394 -4393 -203 0
4394 -4393 203 0
4394 4393 -203 0
-4395 4394 205 0
-4395 -4394 -205 0
4395 -4394 205 0
4395 4394 -205 0
-4396 4395 208 0
-4396 -4395 -208 0
4396 -4395 208 0
4396 4395 -208 0
-4361 4396 0
4361 -4396 0
-4398 109 110 0
-4398 -109 -110 0
4398 -109 110 0
4398 109 -110 0
-4399 4398 112 0
-4399 -4398 -112 0
4399 -4398 112 0
4399 4398 -112 0
-4400 4399 113 0
-4400 -4399 -113 0
4400 -4399 113 0
4400 4399 -113 0
-4401 4400 117 0
-4401 -4400 -117 0
4401 -4400 117 0
4401 4400 -117 0
-4402 4401 120 0
-4402 -4401 -120 0
4402 -4401 120 0
4402 4401 -120 0
-4403 4402 123 0
-4403 -4402 -123 0
4403 -4402 123 0
4403 4402 -123 0
-4404 4403 126 0
-4404 -4403 -126 0
4404 -4403 126 0
4404 4403 -126 0
-4405 4404 127 0
-4405 -4404 -127 0
4405 -4404 127 0
4405 4404 -127 0
-4406 4405 128 0
-4406 -4405 -128 0
4406 -4405 128 0
4406 4405 -128 0
-4407 4406 130 0
-4407 -4406 -130 0
4407 -4406 130 0
4407 4406 -130 0
-4408 4407 131 0
-4408 -4407 -131 0
4408 -4407 131 0
4408 4407 -131 0
-4409 4408 135 0
-4409 -4408 -135 0
4409 -4408 135 0
4409 4408 -135 0
-4410 4409 138 0
-4410 -4409 -138 0
4410 -4409 138 0
4410 4409 -138 0
-4411 4410 141 0
-4411 -4410 -141 0
4411 -4410 141 0
4411 4410 -141 0
-4412 4411 144 0
-4412 -4411 -144 0
4412 -4411 144 0
4412 4411 -144 0
-4413 4412 145 0
-4413 -4412 -145 0
4413 -4412 145 0
4413 4412 -145 0
-4414 4413 146 0
-4414 -4413 -146 0
4414 -4413 146 0
4414 4413 -146 0
-4415 4414 148 0
-4415 -4414 -148 0
4415 -4414 148 0
4415 4414 -148 0
-4416 4415 149 0
-4416 -4415 -149 0
4416 -4415 149 0
4416 4415 -149 0
-4417 4416 153 0
-4417 -4416 -153 0
4417 -4416 153 0
4417 4416 -153 0
-4418 4417 156 0
-4418 -4417 -156 0
4418 -4417 156 0
4418 4417 -156 0
-4419 4418 159 0
-4419 -4418 -159 0
4419 -4418 159 0
4419 4418 -159 0
-4420 4419 162 0
-4420 -4419 -162 0
4420 -4419 162 0
4420 4419 -162 0
-4421 4420 165 0
-4421 -4420 -165 0
4421 -4420 165 0
4421 4420 -165 0
-4422 4421 168 0
-4422 -4421 -168 0
4422 -4421 168 0
4422 4421 -168 0
-4423 4422 170 0
-4423 -4422 -170 0
4423 -4422 170 0
4423 4422 -170 0
-4424 4423 173 0
-4424 -4423 -173 0
4424 -4423 173 0
4424 4423 -173 0
-4425 4424 183 0
-4425 -4424 -183 0
4425 -4424 183 0
4425 4424 -183 0
-4426 4425 186 0
-4426 -4425 -186 0
4426 -4425 186 0
4426 4425 -186 0
-4427 4426 188 0
-4427 -4426 -188 0
4427 -4426 188 0
4427 4426 -188 0
-4428 4427 191 0
-4428 -4427 -191 0
4428 -4427 191 0
4428 4427 -191 0
-4429 4428 201 0
-4429 -4428 -201 0
4429 -4428 201 0
4429 4428 -201 0
-4430 4429 204 0
-4430 -4429 -204 0
4430 -4429 204 0
4430 4429 -204 0
-4431 4430 206 0
-4431 -4430 -206 0
4431 -4430 206 0
4431 4430 -206 0
-4432 4431 209 0
-4432 -4431 -209 0
4432 -4431 209 0
4432 4431 -209 0
-4397 4432 0
4397 -4432 0
-4434 1 3 0
-4434 -1 -3 0
4434 -1 3 0
4434 1 -3 0
-4435 4434 7 0
-4435 -4434 -7 0
4435 -4434 7 0
4435 4434 -7 0
-4436 4435 55 0
-4436 -4435 -55 0
4436 -4435 55 0
4436 4435 -55 0
-4437 4436 109 0
-4437 -4436 -109 0
4437 -4436 109 0
4437 4436 -109 0
-4438 4437 110 0
-4438 -4437 -110 0
4438 -4437 110 0
4438 4437 -110 0
-4439 4438 114 0
-4439 -4438 -114 0
4439 -4438 114 0
4439 4438 -114 0
-4440 4439 115 0
-4440 -4439 -115 0
4440 -4439 115 0
4440 4439 -115 0
-4441 4440 122 0
-4441 -4440 -122 0
4441 -4440 122 0
4441 4440 -122 0
-4442 4441 125 0
-4442 -4441 -125 0
4442 -4441 125 0
4442 4441 -125 0
-4443 4442 128 0
-4443 -4442 -128 0
4443 -4442 128 0
4443 4442 -128 0
-4444 4443 129 0
-4444 -4443 -129 0
4444 -4443 129 0
4444 4443 -129 0
-4445 4444 130 0
-4445 -4444 -130 0
4445 -4444 130 0
4445 4444 -130 0
-4446 4445 131 0
-4446 -4445 -131 0
4446 -4445 131 0
4446 4445 -131 0
-4447 4446 132 0
-4447 -4446 -132 0
4447 -4446 132 0
4447 4446 -132 0
-4448 4447 138 0
-4448 -4447 -138 0
4448 -4447 138 0
4448 4447 -138 0
-4449 4448 139 0
-4449 -4448 -139 0
4449 -4448 139 0
4449 4448 -139 0
-4450 4449 142 0
-4450 -4449 -142 0
4450 -4449 142 0
4450 4449 -142 0
-4451 4450 143 0
-4451 -4450 -143 0
4451 -4450 143 0
4451 4450 -143 0
-4452 4451 144 0
-4452 -4451 -144 0
4452 -4451 144 0
4452 4451 -144 0
-4453 4452 145 0
-4453 -4452 -145 0
4453 -4452 145 0
4453 4452 -145 0
-4454 4453 148 0
-4454 -4453 -148 0
4454 -4453 148 0
4454 4453 -148 0
-4455 4454 149 0
-4455 -4454 -149 0
4455 -4454 149 0
4455 4454 -149 0
-4456 4455 153 0
-4456 -4455 -153 0
4456 -4455 153 0
4456 4455 -153 0
-4457 4456 156 0
-4457 -4456 -156 0
4457 -4456 156 0
4457 4456 -156 0
-4458 4457 158 0
-4458 -4457 -158 0
4458 -4457 158 0
4458 4457 -158 0
-4459 4458 160 0
-4459 -4458 -160 0
4459 -4458 160 0
4459 4458 -160 0
-4460 4459 162 0
-4460 -4459 -162 0
4460 -4459 162 0
4460 4459 -162 0
-4461 4460 165 0
-4461 -4460 -165 0
4461 -4460 165 0
4461 4460 -165 0
-4462 4461 166 0
-4462 -4461 -166 0
4462 -4461 166 0
4462 4461 -166 0
-4463 4462 168 0
-4463 -4462 -168 0
4463 -4462 168 0
4463 4462 -168 0
-4464 4463 169 0
-4464 -4463 -169 0
4464 -4463 169 0
4464 4463 -169 0
-4465 4464 173 0
-4465 -4464 -173 0
4465 -4464 173 0
4465 4464 -173 0
-4466 4465 174 0
-4466 -4465 -174 0
4466 -4465 174 0
4466 4465 -174 0
-4467 4466 178 0
-4467 -4466 -178 0
4467 -4466 178 0
4467 4466 -178 0
-4468 4467 183 0
-4468 -4467 -183 0
4468 -4467 183 0
4468 4467 -183 0
-4469 4468 185 0
-4469 -4468 -185 0
4469 -4468 185 0
4469 4468 -185 0
-4470 4469 186 0
-4470 -4469 -186 0
4470 -4469 186 0
4470 4469 -186 0
-4471 4470 188 0
-4471 -4470 -188 0
4471 -4470 188 0
4471 4470 -188 0
-4472 4471 189 0
-4472 -4471 -189 0
4472 -4471 189 0
4472 4471 -189 0
-4473 4472 191 0
-4473 -4472 -191 0
4473 -4472 191 0
4473 4472 -191 0
-4474 4473 193 0
-4474 -4473 -193 0
4474 -4473 193 0
4474 4473 -193 0
-4475 4474 194 0
-4475 -4474 -194 0
4475 -4474 194 0
4475 4474 -194 0
-4476 4475 195 0
-4476 -4475 -195 0
4476 -4475 195 0
4476 4475 -195 0
-4477 4476 196 0
-4477 -4476 -196 0
4477 -4476 196 0
4477 4476 -196 0
-4478 4477 200 0
-4478 -4477 -200 0
4478 -4477 200 0
4478 4477 -200 0
-4479 4478 202 0
-4479 -4478 -202 0
4479 -4478 202 0
4479 4478 -202 0
-4480 4479 203 0
-4480 -4479 -203 0
4480 -4479 203 0
4480 4479 -203 0
-4481 4480 204 0
-4481 -4480 -204 0
4481 -4480 204 0
4481 4480 -204 0
-4482 4481 205 0
-4482 -4481 -205 0
4482 -4481 205 0
4482 4481 -205 0
-4483 4482 206 0
-4483 -4482 -206 0
4483 -4482 206 0
4483 4482 -206 0
-4484 4483 207 0
-4484 -4483 -207 0
4484 -4483 207 0
4484 4483 -207 0
-4485 4484 211 0
-4485 -4484 -211 0
4485 -4484 211 0
4485 4484 -211 0
-4486 4485 213 0
-4486 -4485 -213 0
4486 -4485 213 0
4486 4485 -213 0
-4433 4486 0
4433 -4486 0
-4488 7 56 0
-4488 -7 -56 0
4488 -7 56 0
4488 7 -56 0
-4489 4488 110 0
-4489 -4488 -110 0
4489 -4488 110 0
4489 4488 -110 0
-4490 4489 111 0
-4490 -4489 -111 0
4490 -4489 111 0
4490 4489 -111 0
-4491 4490 112 0
-4491 -4490 -112 0
4491 -4490 112 0
4491 4490 -112 0
-4492 4491 114 0
-4492 -4491 -114 0
4492 -4491 114 0
4492 4491 -114 0
-4493 4492 119 0
-4493 -4492 -119 0
4493 -4492 119 0
4493 4492 -119 0
-4494 4493 121 0
-4494 -4493 -121 0
4494 -4493 121 0
4494 4493 -121 0
-4495 4494 122 0
-4495 -4494 -122 0
4495 -4494 122 0
4495 4494 -122 0
-4496 4495 124 0
-4496 -4495 -124 0
4496 -4495 124 0
4496 4495 -124 0
-4497 4496 125 0
-4497 -4496 -125 0
4497 -4496 125 0
4497 4496 -125 0
-4498 4497 126 0
-4498 -4497 -126 0
4498 -4497 126 0
4498 4497 -126 0
-4499 4498 128 0
-4499 -4498 -128 0
4499 -4498 128 0
4499 4498 -128 0
-4500 4499 131 0
-4500 -4499 -131 0
4500 -4499 131 0
4500 4499 -131 0
-4501 4500 134 0
-4501 -4500 -134 0
4501 -4500 134 0
4501 4500 -134 0
-4502 4501 137 0
-4502 -4501 -137 0
4502 -4501 137 0
4502 4501 -137 0
-4503 4502 138 0
-4503 -4502 -138 0
4503 -4502 138 0
4503 4502 -138 0
-4504 4503 139 0
-4504 -4503 -139 0
4504 -4503 139 0
4504 4503 -139 0
-4505 4504 140 0
-4505 -4504 -140 0
4505 -4504 140 0
4505 4504 -140 0
-4506 4505 141 0
-4506 -4505 -141 0
4506 -4505 141 0
4506 4505 -141 0
-4507 4506 142 0
-4507 -4506 -142 0
4507 -4506 142 0
4507 4506 -142 0
-4508 4507 143 0
-4508 -4507 -143 0
4508 -4507 143 0
4508 4507 -143 0
-4509 4508 145 0
-4509 -4508 -145 0
4509 -4508 145 0
4509 4508 -145 0
-4510 4509 148 0
-4510 -4509 -148 0
4510 -4509 148 0
4510 4509 -148 0
-4511 4510 149 0
-4511 -4510 -149 0
4511 -4510 149 0
4511 4510 -149 0
-4512 4511 150 0
-4512 -4511 -150 0
4512 -4511 150 0
4512 4511 -150 0
-4513 4512 151 0
-4513 -4512 -151 0
4513 -4512 151 0
4513 4512 -151 0
-4514 4513 156 0
-4514 -4513 -156 0
4514 -4513 156 0
4514 4513 -156 0
-4515 4514 159 0
-4515 -4514 -159 0
4515 -4514 159 0
4515 4514 -159 0
-4516 4515 162 0
-4516 -4515 -162 0
4516 -4515 162 0
4516 4515 -162 0
-4517 4516 163 0
-4517 -4516 -163 0
4517 -4516 163 0
4517 4516 -163 0
-4518 4517 164 0
-4518 -4517 -164 0
4518 -4517 164 0
4518 4517 -164 0
-4519 4518 166 0
-4519 -4518 -166 0
4519 -4518 166 0
4519 4518 -166 0
-4520 4519 167 0
-4520 -4519 -167 0
4520 -4519 167 0
4520 4519 -167 0
-4521 4520 168 0
-4521 -4520 -168 0
4521 -4520 168 0
4521 4520 -168 0
-4522 4521 172 0
-4522 -4521 -172 0
4522 -4521 172 0
4522 4521 -172 0
-4523 4522 173 0
-4523 -4522 -173 0
4523 -4522 173 0
4523 4522 -173 0
-4524 4523 175 0
-4524 -4523 -175 0
4524 -4523 175 0
4524 4523 -175 0
-4525 4524 176 0
-4525 -4524 -176 0
4525 -4524 176 0
4525 4524 -176 0
-4526 4525 179 0
-4526 -4525 -179 0
4526 -4525 179 0
4526 4525 -179 0
-4527 4526 180 0
-4527 -4526 -180 0
4527 -4526 180 0
4527 4526 -180 0
-4528 4527 185 0
-4528 -4527 -185 0
4528 -4527 185 0
4528 4527 -185 0
-4529 4528 187 0
-4529 -4528 -187 0
4529 -4528 187 0
4529 4528 -187 0
-4530 4529 190 0
-4530 -4529 -190 0
4530 -4529 190 0
4530 4529 -190 0
-4531 4530 194 0
-4531 -4530 -194 0
4531 -4530 194 0
4531 4530 -194 0
-4532 4531 196 0
-4532 -4531 -196 0
4532 -4531 196 0
4532 4531 -196 0
-4533 4532 197 0
-4533 -4532 -197 0
4533 -4532 197 0
4533 4532 -197 0
-4534 4533 199 0
-4534 -4533 -199 0
4534 -4533 199 0
4534 4533 -199 0
-4535 4534 200 0
-4535 -4534 -200 0
4535 -4534 200 0
4535 4534 -200 0
-4536 4535 203 0
-4536 -4535 -203 0
4536 -4535 203 0
4536 4535 -203 0
-4537 4536 204 0
-4537 -4536 -204 0
4537 -4536 204 0
4537 4536 -204 0
-4538 4537 205 0
-4538 -4537 -205 0
4538 -4537 205 0
4538 4537 -205 0
-4539 4538 207 0
-4539 -4538 -207 0
4539 -4538 207 0
4539 4538 -207 0
-4540 4539 213 0
-4540 -4539 -213 0
4540 -4539 213 0
4540 4539 -213 0
-4487 4540 0
4487 -4540 0
4361 4397 4433 4487 0
217 0
-217 4541 0
-4541 4542 0
-218 -4541 4543 0
-4543 4544 0
-219 -4543 4545 0
-4545 4546 0
-220 -4545 4547 0
-4547 4548 0
-221 -4547 4549 0
-4549 4550 0
-222 -4549 4551 0
-4551 4552 0
-223 -4551 4553 0
-4553 4554 0
-224 -4553 4555 0
-4555 4556 0
-225 -4555 4557 0
-4557 4558 0
-226 -4557 0
-218 4542 0
-4542 4559 0
-219 -4542 4544 0
-4544 4560 0
-220 -4544 4546 0
-4546 4561 0
-221 -4546 4548 0
-4548 4562 0
-222 -4548 4550 0
-4550 4563 0
-223 -4550 4552 0
-4552 4564 0
-224 -4552 4554 0
-4554 4565 0
-225 -4554 4556 0
-4556 4566 0
-226 -4556 4558 0
-4558 4567 0
-227 -4558 0
-219 4559 0
-4559 4568 0
-220 -4559 4560 0
-4560 4569 0
-221 -4560 4561 0
-4561 4570 0
-222 -4561 4562 0
-4562 4571 0
-223 -4562 4563 0
-4563 4572 0
-224 -4563 4564 0
-4564 4573 0
-225 -4564 4565 0
-4565 4574 0
-226 -4565 4566 0
-4566 4575 0
-227 -4566 4567 0
-4567 4576 0
-228 -4567 0
-220 4568 0
-4568 4577 0
-221 -4568 4569 0
-4569 4578 0
-222 -4569 4570 0
-4570 4579 0
-223 -4570 4571 0
-4571 4580 0
-224 -4571 4572 0
-4572 4581 0
-225 -4572 4573 0
-4573 4582 0
-226 -4573 4574 0
-4574 4583 0
-227 -4574 4575 0
-4575 4584 0
-228 -4575 4576 0
-4576 4585 0
-229 -4576 0
-221 4577 0
-4577 4586 0
-222 -4577 4578 0
-4578 4587 0
-223 -4578 4579 0
-4579 4588 0
-224 -4579 4580 0
-4580 4589 0
-225 -4580 4581 0
-4581 4590 0
-226 -4581 4582 0
-4582 4591 0
-227 -4582 4583 0
-4583 4592 0
-228 -4583 4584 0
-4584 4593 0
-229 -4584 4585 0
-4585 4594 0
-230 -4585 0
-222 4586 0
-4586 4595 0
-223 -4586 4587 0
-4587 4596 0
-224 -4587 4588 0
-4588 4597 0
-225 -4588 4589 0
-4589 4598 0
-226 -4589 4590 0
-4590 4599 0
-227 -4590 4591 0
-4591 4600 0
-228 -4591 4592 0
-4592 4601 0
-229 -4592 4593 0
-4593 4602 0
-230 -4593 4594 0
-4594 4603 0
-231 -4594 0
-223 4595 0
-4595 4604 0
-224 -4595 4596 0
-4596 4605 0
-225 -4596 4597 0
-4597 4606 0
-226 -4597 4598 0
-4598 4607 0
-227 -4598 4599 0
-4599 4608 0
-228 -4599 4600 0
-4600 4609 0
-229 -4600 4601 0
-4601 4610 0
-230 -4601 4602 0
-4602 4611 0
-231 -4602 4603 0
-4603 4612 0
-232 -4603 0
-224 4604 0
-4604 4613 0
-225 -4604 4605 0
-4605 4614 0
-226 -4605 4606 0
-4606 4615 0
-227 -4606 4607 0
-4607 4616 0
-228 -4607 4608 0
-4608 4617 0
-229 -4608 4609 0
-4609 4618 0
-230 -4609 4610 0
-4610 4619 0
-231 -4610 4611 0
-4611 4620 0
-232 -4611 4612 0
-4612 4621 0
-233 -4612 0
-225 4613 0
-4613 4622 0
-226 -4613 4614 0
-4614 4623 0
-227 -4614 4615 0
-4615 4624 0
-228 -4615 4616 0
-4616 4625 0
-229 -4616 4617 0
-4617 4626 0
-230 -4617 4618 0
-4618 4627 0
-231 -4618 4619 0
-4619 4628 0
-232 -4619 4620 0
-4620 4629 0
-233 -4620 4621 0
-4621 4630 0
-234 -4621 0
-226 4622 0
-4622 4631 0
-227 -4622 4623 0
-4623 4632 0
-228 -4623 4624 0
-4624 4633 0
-229 -4624 4625 0
-4625 4634 0
-230 -4625 4626 0
-4626 4635 0
-231 -4626 4627 0
-4627 4636 0
-232 -4627 4628 0
-4628 4637 0
-233 -4628 4629 0
-4629 4638 0
-234 -4629 4630 0
-4630 4639 0
-235 -4630 0
-227 4631 0
-4631 4640 0
-228 -4631 4632 0
-4632 4641 0
-229 -4632 4633 0
-4633 4642 0
-230 -4633 4634 0
-4634 4643 0
-231 -4634 4635 0
-4635 4644 0
-232 -4635 4636 0
-4636 4645 0
-233 -4636 4637 0
-4637 4646 0
-234 -4637 4638 0
-4638 4647 0
-235 -4638 4639 0
-4639 4648 0
-236 -4639 0
-228 4640 0
-4640 4649 0
-229 -4640 4641 0
-4641 4650 0
-230 -4641 4642 0
-4642 4651 0
-231 -4642 4643 0
-4643 4652 0
-232 -4643 4644 0
-4644 4653 0
-233 -4644 4645 0
-4645 4654 0
-234 -4645 4646 0
-4646 4655 0
-235 -4646 4647 0
-4647 4656 0
-236 -4647 4648 0
-4648 4657 0
-237 -4648 0
-229 4649 0
-4649 4658 0
-230 -4649 4650 0
-4650 4659 0
-231 -4650 4651 0
-4651 4660 0
-232 -4651 4652 0
-4652 4661 0
-233 -4652 4653 0
-4653 4662 0
-234 -4653 4654 0
-4654 4663 0
-235 -4654 4655 0
-4655 4664 0
-236 -4655 4656 0
-4656 4665 0
-237 -4656 4657 0
-4657 4666 0
-238 -4657 0
-230 4658 0
-4658 4667 0
-231 -4658 4659 0
-4659 4668 0
-232 -4659 4660 0
-4660 4669 0
-233 -4660 4661 0
-4661 4670 0
-234 -4661 4662 0
-4662 4671 0
-235 -4662 4663 0
-4663 4672 0
-236 -4663 4664 0
-4664 4673 0
-237 -4664 4665 0
-4665 4674 0
-238 -4665 4666 0
-4666 4675 0
-239 -4666 0
-231 4667 0
-4667 4676 0
-232 -4667 4668 0
-4668 4677 0
-233 -4668 4669 0
-4669 4678 0
-234 -4669 4670 0
-4670 4679 0
-235 -4670 4671 0
-4671 4680 0
-236 -4671 4672 0
-4672 4681 0
-237 -4672 4673 0
-4673 4682 0
-238 -4673 4674 0
-4674 4683 0
-239 -4674 4675 0
-4675 4684 0
-240 -4675 0
-232 4676 0
-4676 4685 0
-233 -4676 4677 0
-4677 4686 0
-234 -4677 4678 0
-4678 4687 0
-235 -4678 4679 0
-4679 4688 0
-236 -4679 4680 0
-4680 4689 0
-237 -4680 4681 0
-4681 4690 0
-238 -4681 4682 0
-4682 4691 0
-239 -4682 4683 0
-4683 4692 0
-240 -4683 4684 0
-4684 4693 0
-241 -4684 0
-233 4685 0
-4685 4694 0
-234 -4685 4686 0
-4686 4695 0
-235 -4686 4687 0
-4687 4696 0
-236 -4687 4688 0
-4688 4697 0
-237 -4688 4689 0
-4689 4698 0
-238 -4689 4690 0
-4690 4699 0
-239 -4690 4691 0
-4691 4700 0
-240 -4691 4692 0
-4692 4701 0
-241 -4692 4693 0
-4693 4702 0
-242 -4693 0
-234 4694 0
-4694 4703 0
-235 -4694 4695 0
-4695 4704 0
-236 -4695 4696 0
-4696 4705 0
-237 -4696 4697 0
-4697 4706 0
-238 -4697 4698 0
-4698 4707 0
-239 -4698 4699 0
-4699 4708 0
-240 -4699 4700 0
-4700 4709 0
-241 -4700 4701 0
-4701 4710 0
-242 -4701 4702 0
-4702 4711 0
-243 -4702 0
-235 4703 0
-4703 4712 0
-236 -4703 4704 0
-4704 4713 0
-237 -4704 4705 0
-4705 4714 0
-238 -4705 4706 0
-4706 4715 0
-239 -4706 4707 0
-4707 4716 0
-240 -4707 4708 0
-4708 4717 0
-241 -4708 4709 0
-4709 4718 0
-242 -4709 4710 0
-4710 4719 0
-243 -4710 4711 0
-4711 4720 0
-244 -4711 0
-236 4712 0
-4712 4721 0
-237 -4712 4713 0
-4713 4722 0
-238 -4713 4714 0
-4714 4723 0
-239 -4714 4715 0
-4715 4724 0
-240 -4715 4716 0
-4716 4725 0
-241 -4716 4717 0
-4717 4726 0
-242 -4717 4718 0
-4718 4727 0
-243 -4718 4719 0
-4719 4728 0
-244 -4719 4720 0
-4720 4729 0
-245 -4720 0
-237 4721 0
-4721 4730 0
-238 -4721 4722 0
-4722 4731 0
-239 -4722 4723 0
-4723 4732 0
-240 -4723 4724 0
-4724 4733 0
-241 -4724 4725 0
-4725 4734 0
-242 -4725 4726 0
-4726 4735 0
-243 -4726 4727 0
-4727 4736 0
-244 -4727 4728 0
-4728 4737 0
-245 -4728 4729 0
-4729 4738 0
-246 -4729 0
-238 4730 0
-4730 4739 0
-239 -4730 4731 0
-4731 4740 0
-240 -4731 4732 0
-4732 4741 0
-241 -4732 4733 0
-4733 4742 0
-242 -4733 4734 0
-4734 4743 0
-243 -4734 4735 0
-4735 4744 0
-244 -4735 4736 0
-4736 4745 0
-245 -4736 4737 0
-4737 4746 0
-246 -4737 4738 0
-4738 4747 0
-247 -4738 0
-239 4739 0
-4739 4748 0
-240 -4739 4740 0
-4740 4749 0
-241 -4740 4741 0
-4741 4750 0
-242 -4741 4742 0
-4742 4751 0
-243 -4742 4743 0
-4743 4752 0
-244 -4743 4744 0
-4744 4753 0
-245 -4744 4745 0
-4745 4754 0
-246 -4745 4746 0
-4746 4755 0
-247 -4746 4747 0
-4747 4756 0
-248 -4747 0
-240 4748 0
-4748 4757 0
-241 -4748 4749 0
-4749 4758 0
-242 -4749 4750 0
-4750 4759 0
-243 -4750 4751 0
-4751 4760 0
-244 -4751 4752 0
-4752 4761 0
-245 -4752 4753 0
-4753 4762 0
-246 -4753 4754 0
-4754 4763 0
-247 -4754 4755 0
-4755 4764 0
-248 -4755 4756 0
-4756 4765 0
-249 -4756 0
-241 4757 0
-4757 4766 0
-242 -4757 4758 0
-4758 4767 0
-243 -4758 4759 0
-4759 4768 0
-244 -4759 4760 0
-4760 4769 0
-245 -4760 4761 0
-4761 4770 0
-246 -4761 4762 0
-4762 4771 0
-247 -4762 4763 0
-4763 4772 0
-248 -4763 4764 0
-4764 4773 0
-249 -4764 4765 0
-4765 4774 0
-250 -4765 0
-242 4766 0
-4766 4775 0
-243 -4766 4767 0
-4767 4776 0
-244 -4767 4768 0
-4768 4777 0
-245 -4768 4769 0
-4769 4778 0
-246 -4769 4770 0
-4770 4779 0
-247 -4770 4771 0
-4771 4780 0
-248 -4771 4772 0
-4772 4781 0
-249 -4772 4773 0
-4773 4782 0
-250 -4773 4774 0
-4774 4783 0
-251 -4774 0
-243 4775 0
-4775 4784 0
-244 -4775 4776 0
-4776 4785 0
-245 -4776 4777 0
-4777 4786 0
-246 -4777 4778 0
-4778 4787 0
-247 -4778 4779 0
-4779 4788 0
-248 -4779 4780 0
-4780 4789 0
-249 -4780 4781 0
-4781 4790 0
-250 -4781 4782 0
-4782 4791 0
-251 -4782 4783 0
-4783 4792 0
-252 -4783 0
-244 4784 0
-4784 4793 0
-245 -4784 4785 0
-4785 4794 0
-246 -4785 4786 0
-4786 4795 0
-247 -4786 4787 0
-4787 4796 0
-248 -4787 4788 0
-4788 4797 0
-249 -4788 4789 0
-4789 4798 0
-250 -4789 4790 0
-4790 4799 0
-251 -4790 4791 0
-4791 4800 0
-252 -4791 4792 0
-4792 4801 0
-253 -4792 0
-245 4793 0
-4793 4802 0
-246 -4793 4794 0
-4794 4803 0
-247 -4794 4795 0
-4795 4804 0
-248 -4795 4796 0
-4796 4805 0
-249 -4796 4797 0
-4797 4806 0
-250 -4797 4798 0
-4798 4807 0
-251 -4798 4799 0
-4799 4808 0
-252 -4799 4800 0
-4800 4809 0
-253 -4800 4801 0
-4801 4810 0
-254 -4801 0
-246 4802 0
-4802 4811 0
-247 -4802 4803 0
-4803 4812 0
-248 -4803 4804 0
-4804 4813 0
-249 -4804 4805 0
-4805 4814 0
-250 -4805 4806 0
-4806 4815 0
-251 -4806 4807 0
-4807 4816 0
-252 -4807 4808 0
-4808 4817 0
-253 -4808 4809 0
-4809 4818 0
-254 -4809 4810 0
-4810 4819 0
-255 -4810 0
-247 4811 0
-4811 4820 0
-248 -4811 4812 0
-4812 4821 0
-249 -4812 4813 0
-4813 4822 0
-250 -4813 4814 0
-4814 4823 0
-251 -4814 4815 0
-4815 4824 0
-252 -4815 4816 0
-4816 4825 0
-253 -4816 4817 0
-4817 4826 0
-254 -4817 4818 0
-4818 4827 0
-255 -4818 4819 0
-4819 4828 0
-256 -4819 0
-248 4820 0
-4820 4829 0
-249 -4820 4821 0
-4821 4830 0
-250 -4821 4822 0
-4822 4831 0
-251 -4822 4823 0
-4823 4832 0
-252 -4823 4824 0
-4824 4833 0
-253 -4824 4825 0
-4825 4834 0
-254 -4825 4826 0
-4826 4835 0
-255 -4826 4827 0
-4827 4836 0
-256 -4827 4828 0
-4828 4837 0
-257 -4828 0
-249 4829 0
-4829 4838 0
-250 -4829 4830 0
-4830 4839 0
-251 -4830 4831 0
-4831 4840 0
-252 -4831 4832 0
-4832 4841 0
-253 -4832 4833 0
-4833 4842 0
-254 -4833 4834 0
-4834 4843 0
-255 -4834 4835 0
-4835 4844 0
-256 -4835 4836 0
-4836 4845 0
-257 -4836 4837 0
-4837 4846 0
-258 -4837 0
-250 4838 0
-4838 4847 0
-251 -4838 4839 0
-4839 4848 0
-252 -4839 4840 0
-4840 4849 0
-253 -4840 4841 0
-4841 4850 0
-254 -4841 4842 0
-4842 4851 0
-255 -4842 4843 0
-4843 4852 0
-256 -4843 4844 0
-4844 4853 0
-257 -4844 4845 0
-4845 4854 0
-258 -4845 4846 0
-4846 4855 0
-259 -4846 0
-251 4847 0
-4847 4856 0
-252 -4847 4848 0
-4848 4857 0
-253 -4848 4849 0
-4849 4858 0
-254 -4849 4850 0
-4850 4859 0
-255 -4850 4851 0
-4851 4860 0
-256 -4851 4852 0
-4852 4861 0
-257 -4852 4853 0
-4853 4862 0
-258 -4853 4854 0
-4854 4863 0
-259 -4854 4855 0
-4855 4864 0
-260 -4855 0
-252 4856 0
-4856 4865 0
-253 -4856 4857 0
-4857 4866 0
-254 -4857 4858 0
-4858 4867 0
-255 -4858 4859 0
-4859 4868 0
-256 -4859 4860 0
-4860 4869 0
-257 -4860 4861 0
-4861 4870 0
-258 -4861 4862 0
-4862 4871 0
-259 -4862 4863 0
-4863 4872 0
-260 -4863 4864 0
-4864 4873 0
-261 -4864 0
-253 4865 0
-4865 4874 0
-254 -4865 4866 0
-4866 4875 0
-255 -4866 4867 0
-4867 4876 0
-256 -4867 4868 0
-4868 4877 0
-257 -4868 4869 0
-4869 4878 0
-258 -4869 4870 0
-4870 4879 0
-259 -4870 4871 0
-4871 4880 0
-260 -4871 4872 0
-4872 4881 0
-261 -4872 4873 0
-4873 4882 0
-262 -4873 0
-254 4874 0
-4874 4883 0
-255 -4874 4875 0
-4875 4884 0
-256 -4875 4876 0
-4876 4885 0
-257 -4876 4877 0
-4877 4886 0
-258 -4877 4878 0
-4878 4887 0
-259 -4878 4879 0
-4879 4888 0
-260 -4879 4880 0
-4880 4889 0
-261 -4880 4881 0
-4881 4890 0
-262 -4881 4882 0
-4882 4891 0
-263 -4882 0
-255 4883 0
-4883 4892 0
-256 -4883 4884 0
-4884 4893 0
-257 -4884 4885 0
-4885 4894 0
-258 -4885 4886 0
-4886 4895 0
-259 -4886 4887 0
-4887 4896 0
-260 -4887 4888 0
-4888 4897 0
-261 -4888 4889 0
-4889 4898 0
-262 -4889 4890 0
-4890 4899 0
-263 -4890 4891 0
-4891 4900 0
-264 -4891 0
-256 4892 0
-4892 4901 0
-257 -4892 4893 0
-4893 4902 0
-258 -4893 4894 0
-4894 4903 0
-259 -4894 4895 0
-4895 4904 0
-260 -4895 4896 0
-4896 4905 0
-261 -4896 4897 0
-4897 4906 0
-262 -4897 4898 0
-4898 4907 0
-263 -4898 4899 0
-4899 4908 0
-264 -4899 4900 0
-4900 4909 0
-265 -4900 0
-257 4901 0
-4901 4910 0
-258 -4901 4902 0
-4902 4911 0
-259 -4902 4903 0
-4903 4912 0
-260 -4903 4904 0
-4904 4913 0
-261 -4904 4905 0
-4905 4914 0
-262 -4905 4906 0
-4906 4915 0
-263 -4906 4907 0
-4907 4916 0
-264 -4907 4908 0
-4908 4917 0
-265 -4908 4909 0
-4909 4918 0
-266 -4909 0
-258 4910 0
-4910 4919 0
-259 -4910 4911 0
-4911 4920 0
-260 -4911 4912 0
-4912 4921 0
-261 -4912 4913 0
-4913 4922 0
-262 -4913 4914 0
-4914 4923 0
-263 -4914 4915 0
-4915 4924 0
-264 -4915 4916 0
-4916 4925 0
-265 -4916 4917 0
-4917 4926 0
-266 -4917 4918 0
-4918 4927 0
-267 -4918 0
-259 4919 0
-4919 4928 0
-260 -4919 4920 0
-4920 4929 0
-261 -4920 4921 0
-4921 4930 0
-262 -4921 4922 0
-4922 4931 0
-263 -4922 4923 0
-4923 4932 0
-264 -4923 4924 0
-4924 4933 0
-265 -4924 4925 0
-4925 4934 0
-266 -4925 4926 0
-4926 4935 0
-267 -4926 4927 0
-4927 4936 0
-268 -4927 0
-260 4928 0
-4928 4937 0
-261 -4928 4929 0
-4929 4938 0
-262 -4929 4930 0
-4930 4939 0
-263 -4930 4931 0
-4931 4940 0
-264 -4931 4932 0
-4932 4941 0
-265 -4932 4933 0
-4933 4942 0
-266 -4933 4934 0
-4934 4943 0
-267 -4934 4935 0
-4935 4944 0
-268 -4935 4936 0
-4936 4945 0
-269 -4936 0
-261 4937 0
-4937 4946 0
-262 -4937 4938 0
-4938 4947 0
-263 -4938 4939 0
-4939 4948 0
-264 -4939 4940 0
-4940 4949 0
-265 -4940 4941 0
-4941 4950 0
-266 -4941 4942 0
-4942 4951 0
-267 -4942 4943 0
-4943 4952 0
-268 -4943 4944 0
-4944 4953 0
-269 -4944 4945 0
-4945 4954 0
-270 -4945 0
-262 4946 0
-4946 4955 0
-263 -4946 4947 0
-4947 4956 0
-264 -4947 4948 0
-4948 4957 0
-265 -4948 4949 0
-4949 4958 0
-266 -4949 4950 0
-4950 4959 0
-267 -4950 4951 0
-4951 4960 0
-268 -4951 4952 0
-4952 4961 0
-269 -4952 4953 0
-4953 4962 0
-270 -4953 4954 0
-4954 4963 0
-271 -4954 0
-263 4955 0
-4955 4964 0
-264 -4955 4956 0
-4956 4965 0
-265 -4956 4957 0
-4957 4966 0
-266 -4957 4958 0
-4958 4967 0
-267 -4958 4959 0
-4959 4968 0
-268 -4959 4960 0
-4960 4969 0
-269 -4960 4961 0
-4961 4970 0
-270 -4961 4962 0
-4962 4971 0
-271 -4962 4963 0
-4963 4972 0
-272 -4963 0
-264 4964 0
-4964 4973 0
-265 -4964 4965 0
-4965 4974 0
-266 -4965 4966 0
-4966 4975 0
-267 -4966 4967 0
-4967 4976 0
-268 -4967 4968 0
-4968 4977 0
-269 -4968 4969 0
-4969 4978 0
-270 -4969 4970 0
-4970 4979 0
-271 -4970 4971 0
-4971 4980 0
-272 -4971 4972 0
-4972 4981 0
-273 -4972 0
-265 4973 0
-4973 4982 0
-266 -4973 4974 0
-4974 4983 0
-267 -4974 4975 0
-4975 4984 0
-268 -4975 4976 0
-4976 4985 0
-269 -4976 4977 0
-4977 4986 0
-270 -4977 4978 0
-4978 4987 0
-271 -4978 4979 0
-4979 4988 0
-272 -4979 4980 0
-4980 4989 0
-273 -4980 4981 0
-4981 4990 0
-274 -4981 0
-266 4982 0
-4982 4991 0
-267 -4982 4983 0
-4983 4992 0
-268 -4983 4984 0
-4984 4993 0
-269 -4984 4985 0
-4985 4994 0
-270 -4985 4986 0
-4986 4995 0
-271 -4986 4987 0
-4987 4996 0
-272 -4987 4988 0
-4988 4997 0
-273 -4988 4989 0
-4989 4998 0
-274 -4989 4990 0
-4990 4999 0
-275 -4990 0
-267 4991 0
-4991 5000 0
-268 -4991 4992 0
-4992 5001 0
-269 -4992 4993 0
-4993 5002 0
-270 -4993 4994 0
-4994 5003 0
-271 -4994 4995 0
-4995 5004 0
-272 -4995 4996 0
-4996 5005 0
-273 -4996 4997 0
-4997 5006 0
-274 -4997 4998 0
-4998 5007 0
-275 -4998 4999 0
-4999 5008 0
-276 -4999 0
-268 5000 0
-5000 5009 0
-269 -5000 5001 0
-5001 5010 0
-270 -5001 5002 0
-5002 5011 0
-271 -5002 5003 0
-5003 5012 0
-272 -5003 5004 0
-5004 5013 0
-273 -5004 5005 0
-5005 5014 0
-274 -5005 5006 0
-5006 5015 0
-275 -5006 5007 0
-5007 5016 0
-276 -5007 5008 0
-5008 5017 0
-277 -5008 0
-269 5009 0
-5009 5018 0
-270 -5009 5010 0
-5010 5019 0
-271 -5010 5011 0
-5011 5020 0
-272 -5011 5012 0
-5012 5021 0
-273 -5012 5013 0
-5013 5022 0
-274 -5013 5014 0
-5014 5023 0
-275 -5014 5015 0
-5015 5024 0
-276 -5015 5016 0
-5016 5025 0
-277 -5016 5017 0
-5017 5026 0
-278 -5017 0
-270 5018 0
-5018 5027 0
-271 -5018 5019 0
-5019 5028 0
-272 -5019 5020 0
-5020 5029 0
-273 -5020 5021 0
-5021 5030 0
-274 -5021 5022 0
-5022 5031 0
-275 -5022 5023 0
-5023 5032 0
-276 -5023 5024 0
-5024 5033 0
-277 -5024 5025 0
-5025 5034 0
-278 -5025 5026 0
-5026 5035 0
-279 -5026 0
-271 5027 0
-5027 5036 0
-272 -5027 5028 0
-5028 5037 0
-273 -5028 5029 0
-5029 5038 0
-274 -5029 5030 0
-5030 5039 0
-275 -5030 5031 0
-5031 5040 0
-276 -5031 5032 0
-5032 5041 0
-277 -5032 5033 0
-5033 5042 0
-278 -5033 5034 0
-5034 5043 0
-279 -5034 5035 0
-5035 5044 0
-280 -5035 0
-272 5036 0
-5036 5045 0
-273 -5036 5037 0
-5037 5046 0
-274 -5037 5038 0
-5038 5047 0
-275 -5038 5039 0
-5039 5048 0
-276 -5039 5040 0
-5040 5049 0
-277 -5040 5041 0
-5041 5050 0
-278 -5041 5042 0
-5042 5051 0
-279 -5042 5043 0
-5043 5052 0
-280 -5043 5044 0
-5044 5053 0
-281 -5044 0
-273 5045 0
-5045 5054 0
-274 -5045 5046 0
-5046 5055 0
-275 -5046 5047 0
-5047 5056 0
-276 -5047 5048 0
-5048 5057 0
-277 -5048 5049 0
-5049 5058 0
-278 -5049 5050 0
-5050 5059 0
-279 -5050 5051 0
-5051 5060 0
-280 -5051 5052 0
-5052 5061 0
-281 -5052 5053 0
-5053 5062 0
-282 -5053 0
-274 5054 0
-5054 5063 0
-275 -5054 5055 0
-5055 5064 0
-276 -5055 5056 0
-5056 5065 0
-277 -5056 5057 0
-5057 5066 0
-278 -5057 5058 0
-5058 5067 0
-279 -5058 5059 0
-5059 5068 0
-280 -5059 5060 0
-5060 5069 0
-281 -5060 5061 0
-5061 5070 0
-282 -5061 5062 0
-5062 5071 0
-283 -5062 0
-275 5063 0
-5063 5072 0
-276 -5063 5064 0
-5064 5073 0
-277 -5064 5065 0
-5065 5074 0
-278 -5065 5066 0
-5066 5075 0
-279 -5066 5067 0
-5067 5076 0
-280 -5067 5068 0
-5068 5077 0
-281 -5068 5069 0
-5069 5078 0
-282 -5069 5070 0
-5070 5079 0
-283 -5070 5071 0
-5071 5080 0
-284 -5071 0
-276 5072 0
-5072 5081 0
-277 -5072 5073 0
-5073 5082 0
-278 -5073 5074 0
-5074 5083 0
-279 -5074 5075 0
-5075 5084 0
-280 -5075 5076 0
-5076 5085 0
-281 -5076 5077 0
-5077 5086 0
-282 -5077 5078 0
-5078 5087 0
-283 -5078 5079 0
-5079 5088 0
-284 -5079 5080 0
-5080 5089 0
-285 -5080 0
-277 5081 0
-5081 5090 0
-278 -5081 5082 0
-5082 5091 0
-279 -5082 5083 0
-5083 5092 0
-280 -5083 5084 0
-5084 5093 0
-281 -5084 5085 0
-5085 5094 0
-282 -5085 5086 0
-5086 5095 0
-283 -5086 5087 0
-5087 5096 0
-284 -5087 5088 0
-5088 5097 0
-285 -5088 5089 0
-5089 5098 0
-286 -5089 0
-278 5090 0
-5090 5099 0
-279 -5090 5091 0
-5091 5100 0
-280 -5091 5092 0
-5092 5101 0
-281 -5092 5093 0
-5093 5102 0
-282 -5093 5094 0
-5094 5103 0
-283 -5094 5095 0
-5095 5104 0
-284 -5095 5096 0
-5096 5105 0
-285 -5096 5097 0
-5097 5106 0
-286 -5097 5098 0
-5098 5107 0
-287 -5098 0
-279 5099 0
-5099 5108 0
-280 -5099 5100 0
-5100 5109 0
-281 -5100 5101 0
-5101 5110 0
-282 -5101 5102 0
-5102 5111 0
-283 -5102 5103 0
-5103 5112 0
-284 -5103 5104 0
-5104 5113 0
-285 -5104 5105 0
-5105 5114 0
-286 -5105 5106 0
-5106 5115 0
-287 -5106 5107 0
-5107 5116 0
-288 -5107 0
-280 5108 0
-5108 5117 0
-281 -5108 5109 0
-5109 5118 0
-282 -5109 5110 0
-5110 5119 0
-283 -5110 5111 0
-5111 5120 0
-284 -5111 5112 0
-5112 5121 0
-285 -5112 5113 0
-5113 5122 0
-286 -5113 5114 0
-5114 5123 0
-287 -5114 5115 0
-5115 5124 0
-288 -5115 5116 0
-5116 5125 0
-289 -5116 0
-281 5117 0
-5117 5126 0
-282 -5117 5118 0
-5118 5127 0
-283 -5118 5119 0
-5119 5128 0
-284 -5119 5120 0
-5120 5129 0
-285 -5120 5121 0
-5121 5130 0
-286 -5121 5122 0
-5122 5131 0
-287 -5122 5123 0
-5123 5132 0
-288 -5123 5124 0
-5124 5133 0
-289 -5124 5125 0
-5125 5134 0
-290 -5125 0
-282 5126 0
-5126 5135 0
-283 -5126 5127 0
-5127 5136 0
-284 -5127 5128 0
-5128 5137 0
-285 -5128 5129 0
-5129 5138 0
-286 -5129 5130 0
-5130 5139 0
-287 -5130 5131 0
-5131 5140 0
-288 -5131 5132 0
-5132 5141 0
-289 -5132 5133 0
-5133 5142 0
-290 -5133 5134 0
-5134 5143 0
-291 -5134 0
-283 5135 0
-5135 5144 0
-284 -5135 5136 0
-5136 5145 0
-285 -5136 5137 0
-5137 5146 0
-286 -5137 5138 0
-5138 5147 0
-287 -5138 5139 0
-5139 5148 0
-288 -5139 5140 0
-5140 5149 0
-289 -5140 5141 0
-5141 5150 0
-290 -5141 5142 0
-5142 5151 0
-291 -5142 5143 0
-5143 5152 0
-292 -5143 0
-284 5144 0
-5144 5153 0
-285 -5144 5145 0
-5145 5154 0
-286 -5145 5146 0
-5146 5155 0
-287 -5146 5147 0
-5147 5156 0
-288 -5147 5148 0
-5148 5157 0
-289 -5148 5149 0
-5149 5158 0
-290 -5149 5150 0
-5150 5159 0
-291 -5150 5151 0
-5151 5160 0
-292 -5151 5152 0
-5152 5161 0
-293 -5152 0
-285 5153 0
-5153 5162 0
-286 -5153 5154 0
-5154 5163 0
-287 -5154 5155 0
-5155 5164 0
-288 -5155 5156 0
-5156 5165 0
-289 -5156 5157 0
-5157 5166 0
-290 -5157 5158 0
-5158 5167 0
-291 -5158 5159 0
-5159 5168 0
-292 -5159 5160 0
-5160 5169 0
-293 -5160 5161 0
-5161 5170 0
-294 -5161 0
-286 5162 0
-5162 5171 0
-287 -5162 5163 0
-5163 5172 0
-288 -5163 5164 0
-5164 5173 0
-289 -5164 5165 0
-5165 5174 0
-290 -5165 5166 0
-5166 5175 0
-291 -5166 5167 0
-5167 5176 0
-292 -5167 5168 0
-5168 5177 0
-293 -5168 5169 0
-5169 5178 0
-294 -5169 5170 0
-5170 5179 0
-295 -5170 0
-287 5171 0
-5171 5180 0
-288 -5171 5172 0
-5172 5181 0
-289 -5172 5173 0
-5173 5182 0
-290 -5173 5174 0
-5174 5183 0
-291 -5174 5175 0
-5175 5184 0
-292 -5175 5176 0
-5176 5185 0
-293 -5176 5177 0
-5177 5186 0
-294 -5177 5178 0
-5178 5187 0
-295 -5178 5179 0
-5179 5188 0
-296 -5179 0
-288 5180 0
-5180 5189 0
-289 -5180 5181 0
-5181 5190 0
-290 -5181 5182 0
-5182 5191 0
-291 -5182 5183 0
-5183 5192 0
-292 -5183 5184 0
-5184 5193 0
-293 -5184 5185 0
-5185 5194 0
-294 -5185 5186 0
-5186 5195 0
-295 -5186 5187 0
-5187 5196 0
-296 -5187 5188 0
-5188 5197 0
-297 -5188 0
-289 5189 0
-5189 5198 0
-290 -5189 5190 0
-5190 5199 0
-291 -5190 5191 0
-5191 5200 0
-292 -5191 5192 0
-5192 5201 0
-293 -5192 5193 0
-5193 5202 0
-294 -5193 5194 0
-5194 5203 0
-295 -5194 5195 0
-5195 5204 0
-296 -5195 5196 0
-5196 5205 0
-297 -5196 5197 0
-5197 5206 0
-298 -5197 0
-290 5198 0
-5198 5207 0
-291 -5198 5199 0
-5199 5208 0
-292 -5199 5200 0
-5200 5209 0
-293 -5200 5201 0
-5201 5210 0
-294 -5201 5202 0
-5202 5211 0
-295 -5202 5203 0
-5203 5212 0
-296 -5203 5204 0
-5204 5213 0
-297 -5204 5205 0
-5205 5214 0
-298 -5205 5206 0
-5206 5215 0
-299 -5206 0
-291 5207 0
-5207 5216 0
-292 -5207 5208 0
-5208 5217 0
-293 -5208 5209 0
-5209 5218 0
-294 -5209 5210 0
-5210 5219 0
-295 -5210 5211 0
-5211 5220 0
-296 -5211 5212 0
-5212 5221 0
-297 -5212 5213 0
-5213 5222 0
-298 -5213 5214 0
-5214 5223 0
-299 -5214 5215 0
-5215 5224 0
-300 -5215 0
-292 5216 0
-5216 5225 0
-293 -5216 5217 0
-5217 5226 0
-294 -5217 5218 0
-5218 5227 0
-295 -5218 5219 0
-5219 5228 0
-296 -5219 5220 0
-5220 5229 0
-297 -5220 5221 0
-5221 5230 0
-298 -5221 5222 0
-5222 5231 0
-299 -5222 5223 0
-5223 5232 0
-300 -5223 5224 0
-5224 5233 0
-301 -5224 0
-293 5225 0
-5225 5234 0
-294 -5225 5226 0
-5226 5235 0
-295 -5226 5227 0
-5227 5236 0
-296 -5227 5228 0
-5228 5237 0
-297 -5228 5229 0
-5229 5238 0
-298 -5229 5230 0
-5230 5239 0
-299 -5230 5231 0
-5231 5240 0
-300 -5231 5232 0
-5232 5241 0
-301 -5232 5233 0
-5233 5242 0
-302 -5233 0
-294 5234 0
-5234 5243 0
-295 -5234 5235 0
-5235 5244 0
-296 -5235 5236 0
-5236 5245 0
-297 -5236 5237 0
-5237 5246 0
-298 -5237 5238 0
-5238 5247 0
-299 -5238 5239 0
-5239 5248 0
-300 -5239 5240 0
-5240 5249 0
-301 -5240 5241 0
-5241 5250 0
-302 -5241 5242 0
-5242 5251 0
-303 -5242 0
-295 5243 0
-5243 5252 0
-296 -5243 5244 0
-5244 5253 0
-297 -5244 5245 0
-5245 5254 0
-298 -5245 5246 0
-5246 5255 0
-299 -5246 5247 0
-5247 5256 0
-300 -5247 5248 0
-5248 5257 0
-301 -5248 5249 0
-5249 5258 0
-302 -5249 5250 0
-5250 5259 0
-303 -5250 5251 0
-5251 5260 0
-304 -5251 0
-296 5252 0
-5252 5261 0
-297 -5252 5253 0
-5253 5262 0
-298 -5253 5254 0
-5254 5263 0
-299 -5254 5255 0
-5255 5264 0
-300 -5255 5256 0
-5256 5265 0
-301 -5256 5257 0
-5257 5266 0
-302 -5257 5258 0
-5258 5267 0
-303 -5258 5259 0
-5259 5268 0
-304 -5259 5260 0
-5260 5269 0
-305 -5260 0
-297 5261 0
-5261 5270 0
-298 -5261 5262 0
-5262 5271 0
-299 -5262 5263 0
-5263 5272 0
-300 -5263 5264 0
-5264 5273 0
-301 -5264 5265 0
-5265 5274 0
-302 -5265 5266 0
-5266 5275 0
-303 -5266 5267 0
-5267 5276 0
-304 -5267 5268 0
-5268 5277 0
-305 -5268 5269 0
-5269 5278 0
-306 -5269 0
-298 5270 0
-5270 5279 0
-299 -5270 5271 0
-5271 5280 0
-300 -5271 5272 0
-5272 5281 0
-301 -5272 5273 0
-5273 5282 0
-302 -5273 5274 0
-5274 5283 0
-303 -5274 5275 0
-5275 5284 0
-304 -5275 5276 0
-5276 5285 0
-305 -5276 5277 0
-5277 5286 0
-306 -5277 5278 0
-5278 5287 0
-307 -5278 0
-299 5279 0
-5279 5288 0
-300 -5279 5280 0
-5280 5289 0
-301 -5280 5281 0
-5281 5290 0
-302 -5281 5282 0
-5282 5291 0
-303 -5282 5283 0
-5283 5292 0
-304 -5283 5284 0
-5284 5293 0
-305 -5284 5285 0
-5285 5294 0
-306 -5285 5286 0
-5286 5295 0
-307 -5286 5287 0
-5287 5296 0
-308 -5287 0
-300 5288 0
-5288 5297 0
-301 -5288 5289 0
-5289 5298 0
-302 -5289 5290 0
-5290 5299 0
-303 -5290 5291 0
-5291 5300 0
-304 -5291 5292 0
-5292 5301 0
-305 -5292 5293 0
-5293 5302 0
-306 -5293 5294 0
-5294 5303 0
-307 -5294 5295 0
-5295 5304 0
-308 -5295 5296 0
-5296 5305 0
-309 -5296 0
-301 5297 0
-5297 5306 0
-302 -5297 5298 0
-5298 5307 0
-303 -5298 5299 0
-5299 5308 0
-304 -5299 5300 0
-5300 5309 0
-305 -5300 5301 0
-5301 5310 0
-306 -5301 5302 0
-5302 5311 0
-307 -5302 5303 0
-5303 5312 0
-308 -5303 5304 0
-5304 5313 0
-309 -5304 5305 0
-5305 5314 0
-310 -5305 0
-302 5306 0
-5306 5315 0
-303 -5306 5307 0
-5307 5316 0
-304 -5307 5308 0
-5308 5317 0
-305 -5308 5309 0
-5309 5318 0
-306 -5309 5310 0
-5310 5319 0
-307 -5310 5311 0
-5311 5320 0
-308 -5311 5312 0
-5312 5321 0
-309 -5312 5313 0
-5313 5322 0
-310 -5313 5314 0
-5314 5323 0
-311 -5314 0
-303 5315 0
-5315 5324 0
-304 -5315 5316 0
-5316 5325 0
-305 -5316 5317 0
-5317 5326 0
-306 -5317 5318 0
-5318 5327 0
-307 -5318 5319 0
-5319 5328 0
-308 -5319 5320 0
-5320 5329 0
-309 -5320 5321 0
-5321 5330 0
-310 -5321 5322 0
-5322 5331 0
-311 -5322 5323 0
-5323 5332 0
-312 -5323 0
-304 5324 0
-5324 5333 0
-305 -5324 5325 0
-5325 5334 0
-306 -5325 5326 0
-5326 5335 0
-307 -5326 5327 0
-5327 5336 0
-308 -5327 5328 0
-5328 5337 0
-309 -5328 5329 0
-5329 5338 0
-310 -5329 5330 0
-5330 5339 0
-311 -5330 5331 0
-5331 5340 0
-312 -5331 5332 0
-5332 5341 0
-313 -5332 0
-305 5333 0
-5333 5342 0
-306 -5333 5334 0
-5334 5343 0
-307 -5334 5335 0
-5335 5344 0
-308 -5335 5336 0
-5336 5345 0
-309 -5336 5337 0
-5337 5346 0
-310 -5337 5338 0
-5338 5347 0
-311 -5338 5339 0
-5339 5348 0
-312 -5339 5340 0
-5340 5349 0
-313 -5340 5341 0
-5341 5350 0
-314 -5341 0
-306 5342 0
-5342 5351 0
-307 -5342 5343 0
-5343 5352 0
-308 -5343 5344 0
-5344 5353 0
-309 -5344 5345 0
-5345 5354 0
-310 -5345 5346 0
-5346 5355 0
-311 -5346 5347 0
-5347 5356 0
-312 -5347 5348 0
-5348 5357 0
-313 -5348 5349 0
-5349 5358 0
-314 -5349 5350 0
-5350 5359 0
-315 -5350 0
-307 5351 0
-5351 5360 0
-308 -5351 5352 0
-5352 5361 0
-309 -5352 5353 0
-5353 5362 0
-310 -5353 5354 0
-5354 5363 0
-311 -5354 5355 0
-5355 5364 0
-312 -5355 5356 0
-5356 5365 0
-313 -5356 5357 0
-5357 5366 0
-314 -5357 5358 0
-5358 5367 0
-315 -5358 5359 0
-5359 5368 0
-316 -5359 0
-308 5360 0
-5360 5369 0
-309 -5360 5361 0
-5361 5370 0
-310 -5361 5362 0
-5362 5371 0
-311 -5362 5363 0
-5363 5372 0
-312 -5363 5364 0
-5364 5373 0
-313 -5364 5365 0
-5365 5374 0
-314 -5365 5366 0
-5366 5375 0
-315 -5366 5367 0
-5367 5376 0
-316 -5367 5368 0
-5368 5377 0
-317 -5368 0
-309 5369 0
-5369 5378 0
-310 -5369 5370 0
-5370 5379 0
-311 -5370 5371 0
-5371 5380 0
-312 -5371 5372 0
-5372 5381 0
-313 -5372 5373 0
-5373 5382 0
-314 -5373 5374 0
-5374 5383 0
-315 -5374 5375 0
-5375 5384 0
-316 -5375 5376 0
-5376 5385 0
-317 -5376 5377 0
-5377 5386 0
-318 -5377 0
-310 5378 0
-5378 5387 0
-311 -5378 5379 0
-5379 5388 0
-312 -5379 5380 0
-5380 5389 0
-313 -5380 5381 0
-5381 5390 0
-314 -5381 5382 0
-5382 5391 0
-315 -5382 5383 0
-5383 5392 0
-316 -5383 5384 0
-5384 5393 0
-317 -5384 5385 0
-5385 5394 0
-318 -5385 5386 0
-5386 5395 0
-319 -5386 0
-311 5387 0
-5387 5396 0
-312 -5387 5388 0
-5388 5397 0
-313 -5388 5389 0
-5389 5398 0
-314 -5389 5390 0
-5390 5399 0
-315 -5390 5391 0
-5391 5400 0
-316 -5391 5392 0
-5392 5401 0
-317 -5392 5393 0
-5393 5402 0
-318 -5393 5394 0
-5394 5403 0
-319 -5394 5395 0
-5395 5404 0
-320 -5395 0
-312 5396 0
-5396 5405 0
-313 -5396 5397 0
-5397 5406 0
-314 -5397 5398 0
-5398 5407 0
-315 -5398 5399 0
-5399 5408 0
-316 -5399 5400 0
-5400 5409 0
-317 -5400 5401 0
-5401 5410 0
-318 -5401 5402 0
-5402 5411 0
-319 -5402 5403 0
-5403 5412 0
-320 -5403 5404 0
-5404 5413 0
-321 -5404 0
-313 5405 0
-5405 5414 0
-314 -5405 5406 0
-5406 5415 0
-315 -5406 5407 0
-5407 5416 0
-316 -5407 5408 0
-5408 5417 0
-317 -5408 5409 0
-5409 5418 0
-318 -5409 5410 0
-5410 5419 0
-319 -5410 5411 0
-5411 5420 0
-320 -5411 5412 0
-5412 5421 0
-321 -5412 5413 0
-5413 5422 0
-322 -5413 0
-314 5414 0
-5414 5423 0
-315 -5414 5415 0
-5415 5424 0
-316 -5415 5416 0
-5416 5425 0
-317 -5416 5417 0
-5417 5426 0
-318 -5417 5418 0
-5418 5427 0
-319 -5418 5419 0
-5419 5428 0
-320 -5419 5420 0
-5420 5429 0
-321 -5420 5421 0
-5421 5430 0
-322 -5421 5422 0
-5422 5431 0
-323 -5422 0
-315 5423 0
-316 -5423 5424 0
-317 -5424 5425 0
-318 -5425 5426 0
-319 -5426 5427 0
-320 -5427 5428 0
-321 -5428 5429 0
-322 -5429 5430 0
-323 -5430 5431 0
-324 -5431 0
