p cnf 9587 35370
-1 289 0
-145 289 0
-289 1 145 0
-2 290 0
-146 290 0
-290 2 146 0
-3 291 0
-147 291 0
-291 3 147 0
-4 292 0
-148 292 0
-292 4 148 0
-5 293 0
-149 293 0
-293 5 149 0
-6 294 0
-150 294 0
-294 6 150 0
-7 295 0
-151 295 0
-295 7 151 0
-8 296 0
-152 296 0
-296 8 152 0
-9 297 0
-153 297 0
-297 9 153 0
-10 298 0
-154 298 0
-298 10 154 0
-11 299 0
-155 299 0
-299 11 155 0
-12 300 0
-156 300 0
-300 12 156 0
-13 301 0
-157 301 0
-301 13 157 0
-14 302 0
-158 302 0
-302 14 158 0
-15 303 0
-159 303 0
-303 15 159 0
-16 304 0
-160 304 0
-304 16 160 0
-17 305 0
-161 305 0
-305 17 161 0
-18 306 0
-162 306 0
-306 18 162 0
-19 307 0
-163 307 0
-307 19 163 0
-20 308 0
-164 308 0
-308 20 164 0
-21 309 0
-165 309 0
-309 21 165 0
-22 310 0
-166 310 0
-310 22 166 0
-23 311 0
-167 311 0
-311 23 167 0
-24 312 0
-168 312 0
-312 24 168 0
-25 313 0
-169 313 0
-313 25 169 0
-26 314 0
-170 314 0
-314 26 170 0
-27 315 0
-171 315 0
-315 27 171 0
-28 316 0
-172 316 0
-316 28 172 0
-29 317 0
-173 317 0
-317 29 173 0
-30 318 0
-174 318 0
-318 30 174 0
-31 319 0
-175 319 0
-319 31 175 0
-32 320 0
-176 320 0
-320 32 176 0
-33 321 0
-177 321 0
-321 33 177 0
-34 322 0
-178 322 0
-322 34 178 0
-35 323 0
-179 323 0
-323 35 179 0
-36 324 0
-180 324 0
-324 36 180 0
-37 325 0
-181 325 0
-325 37 181 0
-38 326 0
-182 326 0
-326 38 182 0
-39 327 0
-183 327 0
-327 39 183 0
-40 328 0
-184 328 0
-328 40 184 0
-41 329 0
-185 329 0
-329 41 185 0
-42 330 0
-186 330 0
-330 42 186 0
-43 331 0
-187 331 0
-331 43 187 0
-44 332 0
-188 332 0
-332 44 188 0
-45 333 0
-189 333 0
-333 45 189 0
-46 334 0
-190 334 0
-334 46 190 0
-47 335 0
-191 335 0
-335 47 191 0
-48 336 0
-192 336 0
-336 48 192 0
-49 337 0
-193 337 0
-337 49 193 0
-50 338 0
-194 338 0
-338 50 194 0
-51 339 0
-195 339 0
-339 51 195 0
-52 340 0
-196 340 0
-340 52 196 0
-53 341 0
-197 341 0
-341 53 197 0
-54 342 0
-198 342 0
-342 54 198 0
-55 343 0
-199 343 0
-343 55 199 0
-56 344 0
-200 344 0
-344 56 200 0
-57 345 0
-201 345 0
-345 57 201 0
-58 346 0
-202 346 0
-346 58 202 0
-59 347 0
-203 347 0
-347 59 203 0
-60 348 0
-204 348 0
-348 60 204 0
-61 349 0
-205 349 0
-349 61 205 0
-62 350 0
-206 350 0
-350 62 206 0
-63 351 0
-207 351 0
-351 63 207 0
-64 352 0
-208 352 0
-352 64 208 0
-65 353 0
-209 353 0
-353 65 209 0
-66 354 0
-210 354 0
-354 66 210 0
-67 355 0
-211 355 0
-355 67 211 0
-68 356 0
-212 356 0
-356 68 212 0
-69 357 0
-213 357 0
-357 69 213 0
-70 358 0
-214 358 0
-358 70 214 0
-71 359 0
-215 359 0
-359 71 215 0
-72 360 0
-216 360 0
-360 72 216 0
-73 361 0
-217 361 0
-361 73 217 0
-74 362 0
-218 362 0
-362 74 218 0
-75 363 0
-219 363 0
-363 75 219 0
-76 364 0
-220 364 0
-364 76 220 0
-77 365 0
-221 365 0
-365 77 221 0
-78 366 0
-222 366 0
-366 78 222 0
-79 367 0
-223 367 0
-367 79 223 0
-80 368 0
-224 368 0
-368 80 224 0
-81 369 0
-225 369 0
-369 81 225 0
-82 370 0
-226 370 0
-370 82 226 0
-83 371 0
-227 371 0
-371 83 227 0
-84 372 0
-228 372 0
-372 84 228 0
-85 373 0
-229 373 0
-373 85 229 0
-86 374 0
-230 374 0
-374 86 230 0
-87 375 0
-231 375 0
-375 87 231 0
-88 376 0
-232 376 0
-376 88 232 0
-89 377 0
-233 377 0
-377 89 233 0
-90 378 0
-234 378 0
-378 90 234 0
-91 379 0
-235 379 0
-379 91 235 0
-92 380 0
-236 380 0
-380 92 236 0
-93 381 0
-237 381 0
-381 93 237 0
-94 382 0
-238 382 0
-382 94 238 0
-95 383 0
-239 383 0
-383 95 239 0
-96 384 0
-240 384 0
-384 96 240 0
-97 385 0
-241 385 0
-385 97 241 0
-98 386 0
-242 386 0
-386 98 242 0
-99 387 0
-243 387 0
-387 99 243 0
-100 388 0
-244 388 0
-388 100 244 0
-101 389 0
-245 389 0
-389 101 245 0
-102 390 0
-246 390 0
-390 102 246 0
-103 391 0
-247 391 0
-391 103 247 0
-104 392 0
-248 392 0
-392 104 248 0
-105 393 0
-249 393 0
-393 105 249 0
-106 394 0
-250 394 0
-394 106 250 0
-107 395 0
-251 395 0
-395 107 251 0
-108 396 0
-252 396 0
-396 108 252 0
-109 397 0
-253 397 0
-397 109 253 0
-110 398 0
-254 398 0
-398 110 254 0
-111 399 0
-255 399 0
-399 111 255 0
-112 400 0
-256 400 0
-400 112 256 0
-113 401 0
-257 401 0
-401 113 257 0
-114 402 0
-258 402 0
-402 114 258 0
-115 403 0
-259 403 0
-403 115 259 0
-116 404 0
-260 404 0
-404 116 260 0
-117 405 0
-261 405 0
-405 117 261 0
-118 406 0
-262 406 0
-406 118 262 0
-119 407 0
-263 407 0
-407 119 263 0
-120 408 0
-264 408 0
-408 120 264 0
-121 409 0
-265 409 0
-409 121 265 0
-122 410 0
-266 410 0
-410 122 266 0
-123 411 0
-267 411 0
-411 123 267 0
-124 412 0
-268 412 0
-412 124 268 0
-125 413 0
-269 413 0
-413 125 269 0
-126 414 0
-270 414 0
-414 126 270 0
-127 415 0
-271 415 0
-415 127 271 0
-128 416 0
-272 416 0
-416 128 272 0
-129 417 0
-273 417 0
-417 129 273 0
-130 418 0
-274 418 0
-418 130 274 0
-131 419 0
-275 419 0
-419 131 275 0
-132 420 0
-276 420 0
-420 132 276 0
-133 421 0
-277 421 0
-421 133 277 0
-134 422 0
-278 422 0
-422 134 278 0
-135 423 0
-279 423 0
-423 135 279 0
-136 424 0
-280 424 0
-424 136 280 0
-137 425 0
-281 425 0
-425 137 281 0
-138 426 0
-282 426 0
-426 138 282 0
-139 427 0
-283 427 0
-427 139 283 0
-140 428 0
-284 428 0
-428 140 284 0
-141 429 0
-285 429 0
-429 141 285 0
-142 430 0
-286 430 0
-430 142 286 0
-143 431 0
-287 431 0
-431 143 287 0
-144 432 0
-288 432 0
-432 144 288 0
-433 69 70 0
-433 -69 -70 0
433 -69 70 0
433 69 -70 0
-434 433 71 0
-434 -433 -71 0
434 -433 71 0
434 433 -71 0
-435 434 74 0
-435 -434 -74 0
435 -434 74 0
435 434 -74 0
-436 435 76 0
-436 -435 -76 0
436 -435 76 0
436 435 -76 0
-437 436 77 0
-437 -436 -77 0
437 -436 77 0
437 436 -77 0
-438 437 80 0
-438 -437 -80 0
438 -437 80 0
438 437 -80 0
-439 438 81 0
-439 -438 -81 0
439 -438 81 0
439 438 -81 0
-440 439 84 0
-440 -439 -84 0
440 -439 84 0
440 439 -84 0
-441 440 88 0
-441 -440 -88 0
441 -440 88 0
441 440 -88 0
-442 441 90 0
-442 -441 -90 0
442 -441 90 0
442 441 -90 0
-443 442 94 0
-443 -442 -94 0
443 -442 94 0
443 442 -94 0
-444 443 99 0
-444 -443 -99 0
444 -443 99 0
444 443 -99 0
-445 444 100 0
-445 -444 -100 0
445 -444 100 0
445 444 -100 0
-446 445 101 0
-446 -445 -101 0
446 -445 101 0
446 445 -101 0
-447 446 103 0
-447 -446 -103 0
447 -446 103 0
447 446 -103 0
-448 447 105 0
-448 -447 -105 0
448 -447 105 0
448 447 -105 0
-449 448 106 0
-449 -448 -106 0
449 -448 106 0
449 448 -106 0
-450 449 107 0
-450 -449 -107 0
450 -449 107 0
450 449 -107 0
-451 450 108 0
-451 -450 -108 0
451 -450 108 0
451 450 -108 0
-452 451 109 0
-452 -451 -109 0
452 -451 109 0
452 451 -109 0
-453 452 110 0
-453 -452 -110 0
453 -452 110 0
453 452 -110 0
-454 453 111 0
-454 -453 -111 0
454 -453 111 0
454 453 -111 0
-455 454 113 0
-455 -454 -113 0
455 -454 113 0
455 454 -113 0
-456 455 115 0
-456 -455 -115 0
456 -455 115 0
456 455 -115 0
-457 456 116 0
-457 -456 -116 0
457 -456 116 0
457 456 -116 0
-458 457 117 0
-458 -457 -117 0
458 -457 117 0
458 457 -117 0
-459 458 118 0
-459 -458 -118 0
459 -458 118 0
459 458 -118 0
-460 459 122 0
-460 -459 -122 0
460 -459 122 0
460 459 -122 0
-461 460 124 0
-461 -460 -124 0
461 -460 124 0
461 460 -124 0
-462 461 125 0
-462 -461 -125 0
462 -461 125 0
462 461 -125 0
-463 462 126 0
-463 -462 -126 0
463 -462 126 0
463 462 -126 0
-464 463 128 0
-464 -463 -128 0
464 -463 128 0
464 463 -128 0
-465 464 131 0
-465 -464 -131 0
465 -464 131 0
465 464 -131 0
-466 465 134 0
-466 -465 -134 0
466 -465 134 0
466 465 -134 0
-467 466 137 0
-467 -466 -137 0
467 -466 137 0
467 466 -137 0
-468 467 138 0
-468 -467 -138 0
468 -467 138 0
468 467 -138 0
-469 468 140 0
-469 -468 -140 0
469 -468 140 0
469 468 -140 0
-470 469 141 0
-470 -469 -141 0
470 -469 141 0
470 469 -141 0
-471 470 142 0
-471 -470 -142 0
471 -470 142 0
471 470 -142 0
-472 471 145 0
-472 -471 -145 0
472 -471 145 0
472 471 -145 0
-473 472 213 0
-473 -472 -213 0
473 -472 213 0
473 472 -213 0
-474 473 214 0
-474 -473 -214 0
474 -473 214 0
474 473 -214 0
-475 474 216 0
-475 -474 -216 0
475 -474 216 0
475 474 -216 0
-476 475 217 0
-476 -475 -217 0
476 -475 217 0
476 475 -217 0
-477 476 219 0
-477 -476 -219 0
477 -476 219 0
477 476 -219 0
-478 477 220 0
-478 -477 -220 0
478 -477 220 0
478 477 -220 0
-479 478 223 0
-479 -478 -223 0
479 -478 223 0
479 478 -223 0
-480 479 227 0
-480 -479 -227 0
480 -479 227 0
480 479 -227 0
-481 480 229 0
-481 -480 -229 0
481 -480 229 0
481 480 -229 0
-482 481 230 0
-482 -481 -230 0
482 -481 230 0
482 481 -230 0
-483 482 231 0
-483 -482 -231 0
483 -482 231 0
483 482 -231 0
-484 483 234 0
-484 -483 -234 0
484 -483 234 0
484 483 -234 0
-485 484 235 0
-485 -484 -235 0
485 -484 235 0
485 484 -235 0
-486 485 236 0
-486 -485 -236 0
486 -485 236 0
486 485 -236 0
-487 486 237 0
-487 -486 -237 0
487 -486 237 0
487 486 -237 0
-488 487 238 0
-488 -487 -238 0
488 -487 238 0
488 487 -238 0
-489 488 239 0
-489 -488 -239 0
489 -488 239 0
489 488 -239 0
-490 489 240 0
-490 -489 -240 0
490 -489 240 0
490 489 -240 0
-491 490 241 0
-491 -490 -241 0
491 -490 241 0
491 490 -241 0
-492 491 243 0
-492 -491 -243 0
492 -491 243 0
492 491 -243 0
-493 492 247 0
-493 -492 -247 0
493 -492 247 0
493 492 -247 0
-494 493 252 0
-494 -493 -252 0
494 -493 252 0
494 493 -252 0
-495 494 256 0
-495 -494 -256 0
495 -494 256 0
495 494 -256 0
-496 495 257 0
-496 -495 -257 0
496 -495 257 0
496 495 -257 0
-497 496 260 0
-497 -496 -260 0
497 -496 260 0
497 496 -260 0
-498 497 261 0
-498 -497 -261 0
498 -497 261 0
498 497 -261 0
-499 498 262 0
-499 -498 -262 0
499 -498 262 0
499 498 -262 0
-500 499 264 0
-500 -499 -264 0
500 -499 264 0
500 499 -264 0
-501 500 265 0
-501 -500 -265 0
501 -500 265 0
501 500 -265 0
-502 501 267 0
-502 -501 -267 0
502 -501 267 0
502 501 -267 0
-503 502 269 0
-503 -502 -269 0
503 -502 269 0
503 502 -269 0
-504 503 272 0
-504 -503 -272 0
504 -503 272 0
504 503 -272 0
-505 504 273 0
-505 -504 -273 0
505 -504 273 0
505 504 -273 0
-506 505 274 0
-506 -505 -274 0
506 -505 274 0
506 505 -274 0
-507 506 275 0
-507 -506 -275 0
507 -506 275 0
507 506 -275 0
-508 507 281 0
-508 -507 -281 0
508 -507 281 0
508 507 -281 0
-509 508 283 0
-509 -508 -283 0
509 -508 283 0
509 508 -283 0
-510 509 284 0
-510 -509 -284 0
510 -509 284 0
510 509 -284 0
-511 510 286 0
-511 -510 -286 0
511 -510 286 0
511 510 -286 0
-512 511 287 0
-512 -511 -287 0
512 -511 287 0
512 511 -287 0
-513 512 288 0
-513 -512 -288 0
513 -512 288 0
513 512 -288 0
-513 0
-514 70 71 0
-514 -70 -71 0
514 -70 71 0
514 70 -71 0
-515 514 72 0
-515 -514 -72 0
515 -514 72 0
515 514 -72 0
-516 515 75 0
-516 -515 -75 0
516 -515 75 0
516 515 -75 0
-517 516 77 0
-517 -516 -77 0
517 -516 77 0
517 516 -77 0
-518 517 78 0
-518 -517 -78 0
518 -517 78 0
518 517 -78 0
-519 518 82 0
-519 -518 -82 0
519 -518 82 0
519 518 -82 0
-520 519 83 0
-520 -519 -83 0
520 -519 83 0
520 519 -83 0
-521 520 87 0
-521 -520 -87 0
521 -520 87 0
521 520 -87 0
-522 521 91 0
-522 -521 -91 0
522 -521 91 0
522 521 -91 0
-523 522 93 0
-523 -522 -93 0
523 -522 93 0
523 522 -93 0
-524 523 100 0
-524 -523 -100 0
524 -523 100 0
524 523 -100 0
-525 524 101 0
-525 -524 -101 0
525 -524 101 0
525 524 -101 0
-526 525 102 0
-526 -525 -102 0
526 -525 102 0
526 525 -102 0
-527 526 103 0
-527 -526 -103 0
527 -526 103 0
527 526 -103 0
-528 527 104 0
-528 -527 -104 0
528 -527 104 0
528 527 -104 0
-529 528 106 0
-529 -528 -106 0
529 -528 106 0
529 528 -106 0
-530 529 107 0
-530 -529 -107 0
530 -529 107 0
530 529 -107 0
-531 530 108 0
-531 -530 -108 0
531 -530 108 0
531 530 -108 0
-532 531 109 0
-532 -531 -109 0
532 -531 109 0
532 531 -109 0
-533 532 110 0
-533 -532 -110 0
533 -532 110 0
533 532 -110 0
-534 533 112 0
-534 -533 -112 0
534 -533 112 0
534 533 -112 0
-535 534 113 0
-535 -534 -113 0
535 -534 113 0
535 534 -113 0
-536 535 114 0
-536 -535 -114 0
536 -535 114 0
536 535 -114 0
-537 536 116 0
-537 -536 -116 0
537 -536 116 0
537 536 -116 0
-538 537 117 0
-538 -537 -117 0
538 -537 117 0
538 537 -117 0
-539 538 118 0
-539 -538 -118 0
539 -538 118 0
539 538 -118 0
-540 539 119 0
-540 -539 -119 0
540 -539 119 0
540 539 -119 0
-541 540 121 0
-541 -540 -121 0
541 -540 121 0
541 540 -121 0
-542 541 123 0
-542 -541 -123 0
542 -541 123 0
542 541 -123 0
-543 542 125 0
-543 -542 -125 0
543 -542 125 0
543 542 -125 0
-544 543 126 0
-544 -543 -126 0
544 -543 126 0
544 543 -126 0
-545 544 129 0
-545 -544 -129 0
545 -544 129 0
545 544 -129 0
-546 545 132 0
-546 -545 -132 0
546 -545 132 0
546 545 -132 0
-547 546 133 0
-547 -546 -133 0
547 -546 133 0
547 546 -133 0
-548 547 135 0
-548 -547 -135 0
548 -547 135 0
548 547 -135 0
-549 548 138 0
-549 -548 -138 0
549 -548 138 0
549 548 -138 0
-550 549 141 0
-550 -549 -141 0
550 -549 141 0
550 549 -141 0
-551 550 142 0
-551 -550 -142 0
551 -550 142 0
551 550 -142 0
-552 551 143 0
-552 -551 -143 0
552 -551 143 0
552 551 -143 0
-553 552 146 0
-553 -552 -146 0
553 -552 146 0
553 552 -146 0
-554 553 213 0
-554 -553 -213 0
554 -553 213 0
554 553 -213 0
-555 554 214 0
-555 -554 -214 0
555 -554 214 0
555 554 -214 0
-556 555 218 0
-556 -555 -218 0
556 -555 218 0
556 555 -218 0
-557 556 220 0
-557 -556 -220 0
557 -556 220 0
557 556 -220 0
-558 557 221 0
-558 -557 -221 0
558 -557 221 0
558 557 -221 0
-559 558 224 0
-559 -558 -224 0
559 -558 224 0
559 558 -224 0
-560 559 228 0
-560 -559 -228 0
560 -559 228 0
560 559 -228 0
-561 560 229 0
-561 -560 -229 0
561 -560 229 0
561 560 -229 0
-562 561 230 0
-562 -561 -230 0
562 -561 230 0
562 561 -230 0
-563 562 231 0
-563 -562 -231 0
563 -562 231 0
563 562 -231 0
-564 563 232 0
-564 -563 -232 0
564 -563 232 0
564 563 -232 0
-565 564 241 0
-565 -564 -241 0
565 -564 241 0
565 564 -241 0
-566 565 243 0
-566 -565 -243 0
566 -565 243 0
566 565 -243 0
-567 566 245 0
-567 -566 -245 0
567 -566 245 0
567 566 -245 0
-568 567 246 0
-568 -567 -246 0
568 -567 246 0
568 567 -246 0
-569 568 247 0
-569 -568 -247 0
569 -568 247 0
569 568 -247 0
-570 569 248 0
-570 -569 -248 0
570 -569 248 0
570 569 -248 0
-571 570 253 0
-571 -570 -253 0
571 -570 253 0
571 570 -253 0
-572 571 254 0
-572 -571 -254 0
572 -571 254 0
572 571 -254 0
-573 572 255 0
-573 -572 -255 0
573 -572 255 0
573 572 -255 0
-574 573 256 0
-574 -573 -256 0
574 -573 256 0
574 573 -256 0
-575 574 259 0
-575 -574 -259 0
575 -574 259 0
575 574 -259 0
-576 575 261 0
-576 -575 -261 0
576 -575 261 0
576 575 -261 0
-577 576 262 0
-577 -576 -262 0
577 -576 262 0
577 576 -262 0
-578 577 263 0
-578 -577 -263 0
578 -577 263 0
578 577 -263 0
-579 578 265 0
-579 -578 -265 0
579 -578 265 0
579 578 -265 0
-580 579 266 0
-580 -579 -266 0
580 -579 266 0
580 579 -266 0
-581 580 267 0
-581 -580 -267 0
581 -580 267 0
581 580 -267 0
-582 581 268 0
-582 -581 -268 0
582 -581 268 0
582 581 -268 0
-583 582 269 0
-583 -582 -269 0
583 -582 269 0
583 582 -269 0
-584 583 270 0
-584 -583 -270 0
584 -583 270 0
584 583 -270 0
-585 584 271 0
-585 -584 -271 0
585 -584 271 0
585 584 -271 0
-586 585 274 0
-586 -585 -274 0
586 -585 274 0
586 585 -274 0
-587 586 276 0
-587 -586 -276 0
587 -586 276 0
587 586 -276 0
-588 587 282 0
-588 -587 -282 0
588 -587 282 0
588 587 -282 0
-589 588 283 0
-589 -588 -283 0
589 -588 283 0
589 588 -283 0
-590 589 285 0
-590 -589 -285 0
590 -589 285 0
590 589 -285 0
-591 590 286 0
-591 -590 -286 0
591 -590 286 0
591 590 -286 0
-592 591 287 0
-592 -591 -287 0
592 -591 287 0
592 591 -287 0
-592 0
-593 69 72 0
-593 -69 -72 0
593 -69 72 0
593 69 -72 0
-594 593 73 0
-594 -593 -73 0
594 -593 73 0
594 593 -73 0
-595 594 74 0
-595 -594 -74 0
595 -594 74 0
595 594 -74 0
-596 595 83 0
-596 -595 -83 0
596 -595 83 0
596 595 -83 0
-597 596 84 0
-597 -596 -84 0
597 -596 84 0
597 596 -84 0
-598 597 88 0
-598 -597 -88 0
598 -597 88 0
598 597 -88 0
-599 598 91 0
-599 -598 -91 0
599 -598 91 0
599 598 -91 0
-600 599 92 0
-600 -599 -92 0
600 -599 92 0
600 599 -92 0
-601 600 93 0
-601 -600 -93 0
601 -600 93 0
601 600 -93 0
-602 601 94 0
-602 -601 -94 0
602 -601 94 0
602 601 -94 0
-603 602 95 0
-603 -602 -95 0
603 -602 95 0
603 602 -95 0
-604 603 98 0
-604 -603 -98 0
604 -603 98 0
604 603 -98 0
-605 604 99 0
-605 -604 -99 0
605 -604 99 0
605 604 -99 0
-606 605 100 0
-606 -605 -100 0
606 -605 100 0
606 605 -100 0
-607 606 103 0
-607 -606 -103 0
607 -606 103 0
607 606 -103 0
-608 607 105 0
-608 -607 -105 0
608 -607 105 0
608 607 -105 0
-609 608 106 0
-609 -608 -106 0
609 -608 106 0
609 608 -106 0
-610 609 107 0
-610 -609 -107 0
610 -609 107 0
610 609 -107 0
-611 610 110 0
-611 -610 -110 0
611 -610 110 0
611 610 -110 0
-612 611 114 0
-612 -611 -114 0
612 -611 114 0
612 611 -114 0
-613 612 116 0
-613 -612 -116 0
613 -612 116 0
613 612 -116 0
-614 613 117 0
-614 -613 -117 0
614 -613 117 0
614 613 -117 0
-615 614 119 0
-615 -614 -119 0
615 -614 119 0
615 614 -119 0
-616 615 123 0
-616 -615 -123 0
616 -615 123 0
616 615 -123 0
-617 616 125 0
-617 -616 -125 0
617 -616 125 0
617 616 -125 0
-618 617 128 0
-618 -617 -128 0
618 -617 128 0
618 617 -128 0
-619 618 129 0
-619 -618 -129 0
619 -618 129 0
619 618 -129 0
-620 619 131 0
-620 -619 -131 0
620 -619 131 0
620 619 -131 0
-621 620 132 0
-621 -620 -132 0
621 -620 132 0
621 620 -132 0
-622 621 133 0
-622 -621 -133 0
622 -621 133 0
622 621 -133 0
-623 622 138 0
-623 -622 -138 0
623 -622 138 0
623 622 -138 0
-624 623 140 0
-624 -623 -140 0
624 -623 140 0
624 623 -140 0
-625 624 143 0
-625 -624 -143 0
625 -624 143 0
625 624 -143 0
-626 625 147 0
-626 -625 -147 0
626 -625 147 0
626 625 -147 0
-627 626 214 0
-627 -626 -214 0
627 -626 214 0
627 626 -214 0
-628 627 215 0
-628 -627 -215 0
628 -627 215 0
628 627 -215 0
-629 628 219 0
-629 -628 -219 0
629 -628 219 0
629 628 -219 0
-630 629 221 0
-630 -629 -221 0
630 -629 221 0
630 629 -221 0
-631 630 222 0
-631 -630 -222 0
631 -630 222 0
631 630 -222 0
-632 631 223 0
-632 -631 -223 0
632 -631 223 0
632 631 -223 0
-633 632 225 0
-633 -632 -225 0
633 -632 225 0
633 632 -225 0
-634 633 230 0
-634 -633 -230 0
634 -633 230 0
634 633 -230 0
-635 634 231 0
-635 -634 -231 0
635 -634 231 0
635 634 -231 0
-636 635 232 0
-636 -635 -232 0
636 -635 232 0
636 635 -232 0
-637 636 233 0
-637 -636 -233 0
637 -636 233 0
637 636 -233 0
-638 637 241 0
-638 -637 -241 0
638 -637 241 0
638 637 -241 0
-639 638 242 0
-639 -638 -242 0
639 -638 242 0
639 638 -242 0
-640 639 244 0
-640 -639 -244 0
640 -639 244 0
640 639 -244 0
-641 640 246 0
-641 -640 -246 0
641 -640 246 0
641 640 -246 0
-642 641 248 0
-642 -641 -248 0
642 -641 248 0
642 641 -248 0
-643 642 249 0
-643 -642 -249 0
643 -642 249 0
643 642 -249 0
-644 643 254 0
-644 -643 -254 0
644 -643 254 0
644 643 -254 0
-645 644 255 0
-645 -644 -255 0
645 -644 255 0
645 644 -255 0
-646 645 256 0
-646 -645 -256 0
646 -645 256 0
646 645 -256 0
-647 646 257 0
-647 -646 -257 0
647 -646 257 0
647 646 -257 0
-648 647 260 0
-648 -647 -260 0
648 -647 260 0
648 647 -260 0
-649 648 262 0
-649 -648 -262 0
649 -648 262 0
649 648 -262 0
-650 649 263 0
-650 -649 -263 0
650 -649 263 0
650 649 -263 0
-651 650 264 0
-651 -650 -264 0
651 -650 264 0
651 650 -264 0
-652 651 265 0
-652 -651 -265 0
652 -651 265 0
652 651 -265 0
-653 652 266 0
-653 -652 -266 0
653 -652 266 0
653 652 -266 0
-654 653 267 0
-654 -653 -267 0
654 -653 267 0
654 653 -267 0
-655 654 268 0
-655 -654 -268 0
655 -654 268 0
655 654 -268 0
-656 655 269 0
-656 -655 -269 0
656 -655 269 0
656 655 -269 0
-657 656 270 0
-657 -656 -270 0
657 -656 270 0
657 656 -270 0
-658 657 271 0
-658 -657 -271 0
658 -657 271 0
658 657 -271 0
-659 658 272 0
-659 -658 -272 0
659 -658 272 0
659 658 -272 0
-660 659 275 0
-660 -659 -275 0
660 -659 275 0
660 659 -275 0
-661 660 277 0
-661 -660 -277 0
661 -660 277 0
661 660 -277 0
-662 661 284 0
-662 -661 -284 0
662 -661 284 0
662 661 -284 0
-663 662 286 0
-663 -662 -286 0
663 -662 286 0
663 662 -286 0
-664 663 287 0
-664 -663 -287 0
664 -663 287 0
664 663 -287 0
-665 664 288 0
-665 -664 -288 0
665 -664 288 0
665 664 -288 0
-665 0
-666 69 70 0
-666 -69 -70 0
666 -69 70 0
666 69 -70 0
-667 666 71 0
-667 -666 -71 0
667 -666 71 0
667 666 -71 0
-668 667 75 0
-668 -667 -75 0
668 -667 75 0
668 667 -75 0
-669 668 76 0
-669 -668 -76 0
669 -668 76 0
669 668 -76 0
-670 669 78 0
-670 -669 -78 0
670 -669 78 0
670 669 -78 0
-671 670 79 0
-671 -670 -79 0
671 -670 79 0
671 670 -79 0
-672 671 84 0
-672 -671 -84 0
672 -671 84 0
672 671 -84 0
-673 672 89 0
-673 -672 -89 0
673 -672 89 0
673 672 -89 0
-674 673 91 0
-674 -673 -91 0
674 -673 91 0
674 673 -91 0
-675 674 92 0
-675 -674 -92 0
675 -674 92 0
675 674 -92 0
-676 675 94 0
-676 -675 -94 0
676 -675 94 0
676 675 -94 0
-677 676 96 0
-677 -676 -96 0
677 -676 96 0
677 676 -96 0
-678 677 97 0
-678 -677 -97 0
678 -677 97 0
678 677 -97 0
-679 678 98 0
-679 -678 -98 0
679 -678 98 0
679 678 -98 0
-680 679 102 0
-680 -679 -102 0
680 -679 102 0
680 679 -102 0
-681 680 107 0
-681 -680 -107 0
681 -680 107 0
681 680 -107 0
-682 681 113 0
-682 -681 -113 0
682 -681 113 0
682 681 -113 0
-683 682 116 0
-683 -682 -116 0
683 -682 116 0
683 682 -116 0
-684 683 117 0
-684 -683 -117 0
684 -683 117 0
684 683 -117 0
-685 684 121 0
-685 -684 -121 0
685 -684 121 0
685 684 -121 0
-686 685 122 0
-686 -685 -122 0
686 -685 122 0
686 685 -122 0
-687 686 123 0
-687 -686 -123 0
687 -686 123 0
687 686 -123 0
-688 687 125 0
-688 -687 -125 0
688 -687 125 0
688 687 -125 0
-689 688 128 0
-689 -688 -128 0
689 -688 128 0
689 688 -128 0
-690 689 131 0
-690 -689 -131 0
690 -689 131 0
690 689 -131 0
-691 690 133 0
-691 -690 -133 0
691 -690 133 0
691 690 -133 0
-692 691 136 0
-692 -691 -136 0
692 -691 136 0
692 691 -136 0
-693 692 138 0
-693 -692 -138 0
693 -692 138 0
693 692 -138 0
-694 693 140 0
-694 -693 -140 0
694 -693 140 0
694 693 -140 0
-695 694 141 0
-695 -694 -141 0
695 -694 141 0
695 694 -141 0
-696 695 142 0
-696 -695 -142 0
696 -695 142 0
696 695 -142 0
-697 696 148 0
-697 -696 -148 0
697 -696 148 0
697 696 -148 0
-698 697 215 0
-698 -697 -215 0
698 -697 215 0
698 697 -215 0
-699 698 216 0
-699 -698 -216 0
699 -698 216 0
699 698 -216 0
-700 699 217 0
-700 -699 -217 0
700 -699 217 0
700 699 -217 0
-701 700 220 0
-701 -700 -220 0
701 -700 220 0
701 700 -220 0
-702 701 222 0
-702 -701 -222 0
702 -701 222 0
702 701 -222 0
-703 702 224 0
-703 -702 -224 0
703 -702 224 0
703 702 -224 0
-704 703 226 0
-704 -703 -226 0
704 -703 226 0
704 703 -226 0
-705 704 231 0
-705 -704 -231 0
705 -704 231 0
705 704 -231 0
-706 705 232 0
-706 -705 -232 0
706 -705 232 0
706 705 -232 0
-707 706 233 0
-707 -706 -233 0
707 -706 233 0
707 706 -233 0
-708 707 234 0
-708 -707 -234 0
708 -707 234 0
708 707 -234 0
-709 708 241 0
-709 -708 -241 0
709 -708 241 0
709 708 -241 0
-710 709 242 0
-710 -709 -242 0
710 -709 242 0
710 709 -242 0
-711 710 243 0
-711 -710 -243 0
711 -710 243 0
711 710 -243 0
-712 711 245 0
-712 -711 -245 0
712 -711 245 0
712 711 -245 0
-713 712 249 0
-713 -712 -249 0
713 -712 249 0
713 712 -249 0
-714 713 250 0
-714 -713 -250 0
714 -713 250 0
714 713 -250 0
-715 714 255 0
-715 -714 -255 0
715 -714 255 0
715 714 -255 0
-716 715 256 0
-716 -715 -256 0
716 -715 256 0
716 715 -256 0
-717 716 257 0
-717 -716 -257 0
717 -716 257 0
717 716 -257 0
-718 717 258 0
-718 -717 -258 0
718 -717 258 0
718 717 -258 0
-719 718 259 0
-719 -718 -259 0
719 -718 259 0
719 718 -259 0
-720 719 261 0
-720 -719 -261 0
720 -719 261 0
720 719 -261 0
-721 720 263 0
-721 -720 -263 0
721 -720 263 0
721 720 -263 0
-722 721 264 0
-722 -721 -264 0
722 -721 264 0
722 721 -264 0
-723 722 265 0
-723 -722 -265 0
723 -722 265 0
723 722 -265 0
-724 723 266 0
-724 -723 -266 0
724 -723 266 0
724 723 -266 0
-725 724 267 0
-725 -724 -267 0
725 -724 267 0
725 724 -267 0
-726 725 268 0
-726 -725 -268 0
726 -725 268 0
726 725 -268 0
-727 726 269 0
-727 -726 -269 0
727 -726 269 0
727 726 -269 0
-728 727 270 0
-728 -727 -270 0
728 -727 270 0
728 727 -270 0
-729 728 272 0
-729 -728 -272 0
729 -728 272 0
729 728 -272 0
-730 729 273 0
-730 -729 -273 0
730 -729 273 0
730 729 -273 0
-731 730 276 0
-731 -730 -276 0
731 -730 276 0
731 730 -276 0
-732 731 278 0
-732 -731 -278 0
732 -731 278 0
732 731 -278 0
-733 732 283 0
-733 -732 -283 0
733 -732 283 0
733 732 -283 0
-734 733 285 0
-734 -733 -285 0
734 -733 285 0
734 733 -285 0
-735 734 287 0
-735 -734 -287 0
735 -734 287 0
735 734 -287 0
-736 735 288 0
-736 -735 -288 0
736 -735 288 0
736 735 -288 0
-736 0
-737 70 71 0
-737 -70 -71 0
737 -70 71 0
737 70 -71 0
-738 737 72 0
-738 -737 -72 0
738 -737 72 0
738 737 -72 0
-739 738 73 0
-739 -738 -73 0
739 -738 73 0
739 738 -73 0
-740 739 76 0
-740 -739 -76 0
740 -739 76 0
740 739 -76 0
-741 740 77 0
-741 -740 -77 0
741 -740 77 0
741 740 -77 0
-742 741 80 0
-742 -741 -80 0
742 -741 80 0
742 741 -80 0
-743 742 81 0
-743 -742 -81 0
743 -742 81 0
743 742 -81 0
-744 743 83 0
-744 -743 -83 0
744 -743 83 0
744 743 -83 0
-745 744 85 0
-745 -744 -85 0
745 -744 85 0
745 744 -85 0
-746 745 87 0
-746 -745 -87 0
746 -745 87 0
746 745 -87 0
-747 746 89 0
-747 -746 -89 0
747 -746 89 0
747 746 -89 0
-748 747 90 0
-748 -747 -90 0
748 -747 90 0
748 747 -90 0
-749 748 92 0
-749 -748 -92 0
749 -748 92 0
749 748 -92 0
-750 749 97 0
-750 -749 -97 0
750 -749 97 0
750 749 -97 0
-751 750 98 0
-751 -750 -98 0
751 -750 98 0
751 750 -98 0
-752 751 99 0
-752 -751 -99 0
752 -751 99 0
752 751 -99 0
-753 752 108 0
-753 -752 -108 0
753 -752 108 0
753 752 -108 0
-754 753 109 0
-754 -753 -109 0
754 -753 109 0
754 753 -109 0
-755 754 111 0
-755 -754 -111 0
755 -754 111 0
755 754 -111 0
-756 755 113 0
-756 -755 -113 0
756 -755 113 0
756 755 -113 0
-757 756 114 0
-757 -756 -114 0
757 -756 114 0
757 756 -114 0
-758 757 117 0
-758 -757 -117 0
758 -757 117 0
758 757 -117 0
-759 758 118 0
-759 -758 -118 0
759 -758 118 0
759 758 -118 0
-760 759 122 0
-760 -759 -122 0
760 -759 122 0
760 759 -122 0
-761 760 123 0
-761 -760 -123 0
761 -760 123 0
761 760 -123 0
-762 761 124 0
-762 -761 -124 0
762 -761 124 0
762 761 -124 0
-763 762 126 0
-763 -762 -126 0
763 -762 126 0
763 762 -126 0
-764 763 129 0
-764 -763 -129 0
764 -763 129 0
764 763 -129 0
-765 764 132 0
-765 -764 -132 0
765 -764 132 0
765 764 -132 0
-766 765 133 0
-766 -765 -133 0
766 -765 133 0
766 765 -133 0
-767 766 134 0
-767 -766 -134 0
767 -766 134 0
767 766 -134 0
-768 767 137 0
-768 -767 -137 0
768 -767 137 0
768 767 -137 0
-769 768 141 0
-769 -768 -141 0
769 -768 141 0
769 768 -141 0
-770 769 142 0
-770 -769 -142 0
770 -769 142 0
770 769 -142 0
-771 770 143 0
-771 -770 -143 0
771 -770 143 0
771 770 -143 0
-772 771 149 0
-772 -771 -149 0
772 -771 149 0
772 771 -149 0
-773 772 213 0
-773 -772 -213 0
773 -772 213 0
773 772 -213 0
-774 773 215 0
-774 -773 -215 0
774 -773 215 0
774 773 -215 0
-775 774 216 0
-775 -774 -216 0
775 -774 216 0
775 774 -216 0
-776 775 217 0
-776 -775 -217 0
776 -775 217 0
776 775 -217 0
-777 776 218 0
-777 -776 -218 0
777 -776 218 0
777 776 -218 0
-778 777 221 0
-778 -777 -221 0
778 -777 221 0
778 777 -221 0
-779 778 225 0
-779 -778 -225 0
779 -778 225 0
779 778 -225 0
-780 779 227 0
-780 -779 -227 0
780 -779 227 0
780 779 -227 0
-781 780 229 0
-781 -780 -229 0
781 -780 229 0
781 780 -229 0
-782 781 232 0
-782 -781 -232 0
782 -781 232 0
782 781 -232 0
-783 782 233 0
-783 -782 -233 0
783 -782 233 0
783 782 -233 0
-784 783 234 0
-784 -783 -234 0
784 -783 234 0
784 783 -234 0
-785 784 235 0
-785 -784 -235 0
785 -784 235 0
785 784 -235 0
-786 785 236 0
-786 -785 -236 0
786 -785 236 0
786 785 -236 0
-787 786 237 0
-787 -786 -237 0
787 -786 237 0
787 786 -237 0
-788 787 238 0
-788 -787 -238 0
788 -787 238 0
788 787 -238 0
-789 788 239 0
-789 -788 -239 0
789 -788 239 0
789 788 -239 0
-790 789 240 0
-790 -789 -240 0
790 -789 240 0
790 789 -240 0
-791 790 241 0
-791 -790 -241 0
791 -790 241 0
791 790 -241 0
-792 791 245 0
-792 -791 -245 0
792 -791 245 0
792 791 -245 0
-793 792 250 0
-793 -792 -250 0
793 -792 250 0
793 792 -250 0
-794 793 251 0
-794 -793 -251 0
794 -793 251 0
794 793 -251 0
-795 794 254 0
-795 -794 -254 0
795 -794 254 0
795 794 -254 0
-796 795 255 0
-796 -795 -255 0
796 -795 255 0
796 795 -255 0
-797 796 259 0
-797 -796 -259 0
797 -796 259 0
797 796 -259 0
-798 797 260 0
-798 -797 -260 0
798 -797 260 0
798 797 -260 0
-799 798 262 0
-799 -798 -262 0
799 -798 262 0
799 798 -262 0
-800 799 264 0
-800 -799 -264 0
800 -799 264 0
800 799 -264 0
-801 800 266 0
-801 -800 -266 0
801 -800 266 0
801 800 -266 0
-802 801 268 0
-802 -801 -268 0
802 -801 268 0
802 801 -268 0
-803 802 270 0
-803 -802 -270 0
803 -802 270 0
803 802 -270 0
-804 803 274 0
-804 -803 -274 0
804 -803 274 0
804 803 -274 0
-805 804 275 0
-805 -804 -275 0
805 -804 275 0
805 804 -275 0
-806 805 279 0
-806 -805 -279 0
806 -805 279 0
806 805 -279 0
-807 806 283 0
-807 -806 -283 0
807 -806 283 0
807 806 -283 0
-807 0
-808 69 72 0
-808 -69 -72 0
808 -69 72 0
808 69 -72 0
-809 808 76 0
-809 -808 -76 0
809 -808 76 0
809 808 -76 0
-810 809 77 0
-810 -809 -77 0
810 -809 77 0
810 809 -77 0
-811 810 79 0
-811 -810 -79 0
811 -810 79 0
811 810 -79 0
-812 811 82 0
-812 -811 -82 0
812 -811 82 0
812 811 -82 0
-813 812 83 0
-813 -812 -83 0
813 -812 83 0
813 812 -83 0
-814 813 84 0
-814 -813 -84 0
814 -813 84 0
814 813 -84 0
-815 814 86 0
-815 -814 -86 0
815 -814 86 0
815 814 -86 0
-816 815 87 0
-816 -815 -87 0
816 -815 87 0
816 815 -87 0
-817 816 88 0
-817 -816 -88 0
817 -816 88 0
817 816 -88 0
-818 817 89 0
-818 -817 -89 0
818 -817 89 0
818 817 -89 0
-819 818 90 0
-819 -818 -90 0
819 -818 90 0
819 818 -90 0
-820 819 93 0
-820 -819 -93 0
820 -819 93 0
820 819 -93 0
-821 820 97 0
-821 -820 -97 0
821 -820 97 0
821 820 -97 0
-822 821 101 0
-822 -821 -101 0
822 -821 101 0
822 821 -101 0
-823 822 102 0
-823 -822 -102 0
823 -822 102 0
823 822 -102 0
-824 823 103 0
-824 -823 -103 0
824 -823 103 0
824 823 -103 0
-825 824 104 0
-825 -824 -104 0
825 -824 104 0
825 824 -104 0
-826 825 106 0
-826 -825 -106 0
826 -825 106 0
826 825 -106 0
-827 826 108 0
-827 -826 -108 0
827 -826 108 0
827 826 -108 0
-828 827 109 0
-828 -827 -109 0
828 -827 109 0
828 827 -109 0
-829 828 110 0
-829 -828 -110 0
829 -828 110 0
829 828 -110 0
-830 829 112 0
-830 -829 -112 0
830 -829 112 0
830 829 -112 0
-831 830 114 0
-831 -830 -114 0
831 -830 114 0
831 830 -114 0
-832 831 116 0
-832 -831 -116 0
832 -831 116 0
832 831 -116 0
-833 832 119 0
-833 -832 -119 0
833 -832 119 0
833 832 -119 0
-834 833 120 0
-834 -833 -120 0
834 -833 120 0
834 833 -120 0
-835 834 122 0
-835 -834 -122 0
835 -834 122 0
835 834 -122 0
-836 835 126 0
-836 -835 -126 0
836 -835 126 0
836 835 -126 0
-837 836 128 0
-837 -836 -128 0
837 -836 128 0
837 836 -128 0
-838 837 129 0
-838 -837 -129 0
838 -837 129 0
838 837 -129 0
-839 838 131 0
-839 -838 -131 0
839 -838 131 0
839 838 -131 0
-840 839 132 0
-840 -839 -132 0
840 -839 132 0
840 839 -132 0
-841 840 135 0
-841 -840 -135 0
841 -840 135 0
841 840 -135 0
-842 841 136 0
-842 -841 -136 0
842 -841 136 0
842 841 -136 0
-843 842 140 0
-843 -842 -140 0
843 -842 140 0
843 842 -140 0
-844 843 143 0
-844 -843 -143 0
844 -843 143 0
844 843 -143 0
-845 844 150 0
-845 -844 -150 0
845 -844 150 0
845 844 -150 0
-846 845 213 0
-846 -845 -213 0
846 -845 213 0
846 845 -213 0
-847 846 214 0
-847 -846 -214 0
847 -846 214 0
847 846 -214 0
-848 847 215 0
-848 -847 -215 0
848 -847 215 0
848 847 -215 0
-849 848 216 0
-849 -848 -216 0
849 -848 216 0
849 848 -216 0
-850 849 218 0
-850 -849 -218 0
850 -849 218 0
850 849 -218 0
-851 850 219 0
-851 -850 -219 0
851 -850 219 0
851 850 -219 0
-852 851 222 0
-852 -851 -222 0
852 -851 222 0
852 851 -222 0
-853 852 226 0
-853 -852 -226 0
853 -852 226 0
853 852 -226 0
-854 853 228 0
-854 -853 -228 0
854 -853 228 0
854 853 -228 0
-855 854 229 0
-855 -854 -229 0
855 -854 229 0
855 854 -229 0
-856 855 230 0
-856 -855 -230 0
856 -855 230 0
856 855 -230 0
-857 856 233 0
-857 -856 -233 0
857 -856 233 0
857 856 -233 0
-858 857 234 0
-858 -857 -234 0
858 -857 234 0
858 857 -234 0
-859 858 241 0
-859 -858 -241 0
859 -858 241 0
859 858 -241 0
-860 859 243 0
-860 -859 -243 0
860 -859 243 0
860 859 -243 0
-861 860 244 0
-861 -860 -244 0
861 -860 244 0
861 860 -244 0
-862 861 245 0
-862 -861 -245 0
862 -861 245 0
862 861 -245 0
-863 862 251 0
-863 -862 -251 0
863 -862 251 0
863 862 -251 0
-864 863 252 0
-864 -863 -252 0
864 -863 252 0
864 863 -252 0
-865 864 253 0
-865 -864 -253 0
865 -864 253 0
865 864 -253 0
-866 865 254 0
-866 -865 -254 0
866 -865 254 0
866 865 -254 0
-867 866 257 0
-867 -866 -257 0
867 -866 257 0
867 866 -257 0
-868 867 258 0
-868 -867 -258 0
868 -867 258 0
868 867 -258 0
-869 868 259 0
-869 -868 -259 0
869 -868 259 0
869 868 -259 0
-870 869 260 0
-870 -869 -260 0
870 -869 260 0
870 869 -260 0
-871 870 261 0
-871 -870 -261 0
871 -870 261 0
871 870 -261 0
-872 871 263 0
-872 -871 -263 0
872 -871 263 0
872 871 -263 0
-873 872 271 0
-873 -872 -271 0
873 -872 271 0
873 872 -271 0
-874 873 273 0
-874 -873 -273 0
874 -873 273 0
874 873 -273 0
-875 874 276 0
-875 -874 -276 0
875 -874 276 0
875 874 -276 0
-876 875 280 0
-876 -875 -280 0
876 -875 280 0
876 875 -280 0
-877 876 286 0
-877 -876 -286 0
877 -876 286 0
877 876 -286 0
-878 877 288 0
-878 -877 -288 0
878 -877 288 0
878 877 -288 0
-878 0
-879 73 76 0
-879 -73 -76 0
879 -73 76 0
879 73 -76 0
-880 879 77 0
-880 -879 -77 0
880 -879 77 0
880 879 -77 0
-881 880 78 0
-881 -880 -78 0
881 -880 78 0
881 880 -78 0
-882 881 79 0
-882 -881 -79 0
882 -881 79 0
882 881 -79 0
-883 882 83 0
-883 -882 -83 0
883 -882 83 0
883 882 -83 0
-884 883 86 0
-884 -883 -86 0
884 -883 86 0
884 883 -86 0
-885 884 87 0
-885 -884 -87 0
885 -884 87 0
885 884 -87 0
-886 885 89 0
-886 -885 -89 0
886 -885 89 0
886 885 -89 0
-887 886 90 0
-887 -886 -90 0
887 -886 90 0
887 886 -90 0
-888 887 91 0
-888 -887 -91 0
888 -887 91 0
888 887 -91 0
-889 888 94 0
-889 -888 -94 0
889 -888 94 0
889 888 -94 0
-890 889 96 0
-890 -889 -96 0
890 -889 96 0
890 889 -96 0
-891 890 97 0
-891 -890 -97 0
891 -890 97 0
891 890 -97 0
-892 891 104 0
-892 -891 -104 0
892 -891 104 0
892 891 -104 0
-893 892 105 0
-893 -892 -105 0
893 -892 105 0
893 892 -105 0
-894 893 108 0
-894 -893 -108 0
894 -893 108 0
894 893 -108 0
-895 894 109 0
-895 -894 -109 0
895 -894 109 0
895 894 -109 0
-896 895 111 0
-896 -895 -111 0
896 -895 111 0
896 895 -111 0
-897 896 112 0
-897 -896 -112 0
897 -896 112 0
897 896 -112 0
-898 897 114 0
-898 -897 -114 0
898 -897 114 0
898 897 -114 0
-899 898 115 0
-899 -898 -115 0
899 -898 115 0
899 898 -115 0
-900 899 119 0
-900 -899 -119 0
900 -899 119 0
900 899 -119 0
-901 900 122 0
-901 -900 -122 0
901 -900 122 0
901 900 -122 0
-902 901 125 0
-902 -901 -125 0
902 -901 125 0
902 901 -125 0
-903 902 126 0
-903 -902 -126 0
903 -902 126 0
903 902 -126 0
-904 903 130 0
-904 -903 -130 0
904 -903 130 0
904 903 -130 0
-905 904 132 0
-905 -904 -132 0
905 -904 132 0
905 904 -132 0
-906 905 133 0
-906 -905 -133 0
906 -905 133 0
906 905 -133 0
-907 906 137 0
-907 -906 -137 0
907 -906 137 0
907 906 -137 0
-908 907 139 0
-908 -907 -139 0
908 -907 139 0
908 907 -139 0
-909 908 140 0
-909 -908 -140 0
909 -908 140 0
909 908 -140 0
-910 909 141 0
-910 -909 -141 0
910 -909 141 0
910 909 -141 0
-911 910 144 0
-911 -910 -144 0
911 -910 144 0
911 910 -144 0
-912 911 151 0
-912 -911 -151 0
912 -911 151 0
912 911 -151 0
-913 912 213 0
-913 -912 -213 0
913 -912 213 0
913 912 -213 0
-914 913 215 0
-914 -913 -215 0
914 -913 215 0
914 913 -215 0
-915 914 224 0
-915 -914 -224 0
915 -914 224 0
915 914 -224 0
-916 915 226 0
-916 -915 -226 0
916 -915 226 0
916 915 -226 0
-917 916 228 0
-917 -916 -228 0
917 -916 228 0
917 916 -228 0
-918 917 235 0
-918 -917 -235 0
918 -917 235 0
918 917 -235 0
-919 918 236 0
-919 -918 -236 0
919 -918 236 0
919 918 -236 0
-920 919 237 0
-920 -919 -237 0
920 -919 237 0
920 919 -237 0
-921 920 240 0
-921 -920 -240 0
921 -920 240 0
921 920 -240 0
-922 921 242 0
-922 -921 -242 0
922 -921 242 0
922 921 -242 0
-923 922 243 0
-923 -922 -243 0
923 -922 243 0
923 922 -243 0
-924 923 244 0
-924 -923 -244 0
924 -923 244 0
924 923 -244 0
-925 924 245 0
-925 -924 -245 0
925 -924 245 0
925 924 -245 0
-926 925 247 0
-926 -925 -247 0
926 -925 247 0
926 925 -247 0
-927 926 248 0
-927 -926 -248 0
927 -926 248 0
927 926 -248 0
-928 927 249 0
-928 -927 -249 0
928 -927 249 0
928 927 -249 0
-929 928 250 0
-929 -928 -250 0
929 -928 250 0
929 928 -250 0
-930 929 251 0
-930 -929 -251 0
930 -929 251 0
930 929 -251 0
-931 930 252 0
-931 -930 -252 0
931 -930 252 0
931 930 -252 0
-932 931 257 0
-932 -931 -257 0
932 -931 257 0
932 931 -257 0
-933 932 258 0
-933 -932 -258 0
933 -932 258 0
933 932 -258 0
-934 933 266 0
-934 -933 -266 0
934 -933 266 0
934 933 -266 0
-935 934 267 0
-935 -934 -267 0
935 -934 267 0
935 934 -267 0
-936 935 268 0
-936 -935 -268 0
936 -935 268 0
936 935 -268 0
-937 936 270 0
-937 -936 -270 0
937 -936 270 0
937 936 -270 0
-938 937 271 0
-938 -937 -271 0
938 -937 271 0
938 937 -271 0
-939 938 273 0
-939 -938 -273 0
939 -938 273 0
939 938 -273 0
-940 939 277 0
-940 -939 -277 0
940 -939 277 0
940 939 -277 0
-941 940 279 0
-941 -940 -279 0
941 -940 279 0
941 940 -279 0
-942 941 281 0
-942 -941 -281 0
942 -941 281 0
942 941 -281 0
-943 942 283 0
-943 -942 -283 0
943 -942 283 0
943 942 -283 0
-944 943 284 0
-944 -943 -284 0
944 -943 284 0
944 943 -284 0
-945 944 285 0
-945 -944 -285 0
945 -944 285 0
945 944 -285 0
-946 945 287 0
-946 -945 -287 0
946 -945 287 0
946 945 -287 0
-947 946 288 0
-947 -946 -288 0
947 -946 288 0
947 946 -288 0
-947 0
-948 73 74 0
-948 -73 -74 0
948 -73 74 0
948 73 -74 0
-949 948 77 0
-949 -948 -77 0
949 -948 77 0
949 948 -77 0
-950 949 78 0
-950 -949 -78 0
950 -949 78 0
950 949 -78 0
-951 950 80 0
-951 -950 -80 0
951 -950 80 0
951 950 -80 0
-952 951 84 0
-952 -951 -84 0
952 -951 84 0
952 951 -84 0
-953 952 85 0
-953 -952 -85 0
953 -952 85 0
953 952 -85 0
-954 953 87 0
-954 -953 -87 0
954 -953 87 0
954 953 -87 0
-955 954 88 0
-955 -954 -88 0
955 -954 88 0
955 954 -88 0
-956 955 90 0
-956 -955 -90 0
956 -955 90 0
956 955 -90 0
-957 956 91 0
-957 -956 -91 0
957 -956 91 0
957 956 -91 0
-958 957 92 0
-958 -957 -92 0
958 -957 92 0
958 957 -92 0
-959 958 95 0
-959 -958 -95 0
959 -958 95 0
959 958 -95 0
-960 959 98 0
-960 -959 -98 0
960 -959 98 0
960 959 -98 0
-961 960 103 0
-961 -960 -103 0
961 -960 103 0
961 960 -103 0
-962 961 105 0
-962 -961 -105 0
962 -961 105 0
962 961 -105 0
-963 962 106 0
-963 -962 -106 0
963 -962 106 0
963 962 -106 0
-964 963 109 0
-964 -963 -109 0
964 -963 109 0
964 963 -109 0
-965 964 110 0
-965 -964 -110 0
965 -964 110 0
965 964 -110 0
-966 965 112 0
-966 -965 -112 0
966 -965 112 0
966 965 -112 0
-967 966 113 0
-967 -966 -113 0
967 -966 113 0
967 966 -113 0
-968 967 116 0
-968 -967 -116 0
968 -967 116 0
968 967 -116 0
-969 968 120 0
-969 -968 -120 0
969 -968 120 0
969 968 -120 0
-970 969 121 0
-970 -969 -121 0
970 -969 121 0
970 969 -121 0
-971 970 123 0
-971 -970 -123 0
971 -970 123 0
971 970 -123 0
-972 971 126 0
-972 -971 -126 0
972 -971 126 0
972 971 -126 0
-973 972 127 0
-973 -972 -127 0
973 -972 127 0
973 972 -127 0
-974 973 131 0
-974 -973 -131 0
974 -973 131 0
974 973 -131 0
-975 974 134 0
-975 -974 -134 0
975 -974 134 0
975 974 -134 0
-976 975 138 0
-976 -975 -138 0
976 -975 138 0
976 975 -138 0
-977 976 139 0
-977 -976 -139 0
977 -976 139 0
977 976 -139 0
-978 977 140 0
-978 -977 -140 0
978 -977 140 0
978 977 -140 0
-979 978 141 0
-979 -978 -141 0
979 -978 141 0
979 978 -141 0
-980 979 142 0
-980 -979 -142 0
980 -979 142 0
980 979 -142 0
-981 980 152 0
-981 -980 -152 0
981 -980 152 0
981 980 -152 0
-982 981 214 0
-982 -981 -214 0
982 -981 214 0
982 981 -214 0
-983 982 216 0
-983 -982 -216 0
983 -982 216 0
983 982 -216 0
-984 983 223 0
-984 -983 -223 0
984 -983 223 0
984 983 -223 0
-985 984 225 0
-985 -984 -225 0
985 -984 225 0
985 984 -225 0
-986 985 227 0
-986 -985 -227 0
986 -985 227 0
986 985 -227 0
-987 986 235 0
-987 -986 -235 0
987 -986 235 0
987 986 -235 0
-988 987 236 0
-988 -987 -236 0
988 -987 236 0
988 987 -236 0
-989 988 237 0
-989 -988 -237 0
989 -988 237 0
989 988 -237 0
-990 989 238 0
-990 -989 -238 0
990 -989 238 0
990 989 -238 0
-991 990 243 0
-991 -990 -243 0
991 -990 243 0
991 990 -243 0
-992 991 244 0
-992 -991 -244 0
992 -991 244 0
992 991 -244 0
-993 992 245 0
-993 -992 -245 0
993 -992 245 0
993 992 -245 0
-994 993 246 0
-994 -993 -246 0
994 -993 246 0
994 993 -246 0
-995 994 247 0
-995 -994 -247 0
995 -994 247 0
995 994 -247 0
-996 995 248 0
-996 -995 -248 0
996 -995 248 0
996 995 -248 0
-997 996 249 0
-997 -996 -249 0
997 -996 249 0
997 996 -249 0
-998 997 250 0
-998 -997 -250 0
998 -997 250 0
998 997 -250 0
-999 998 251 0
-999 -998 -251 0
999 -998 251 0
999 998 -251 0
-1000 999 252 0
-1000 -999 -252 0
1000 -999 252 0
1000 999 -252 0
-1001 1000 253 0
-1001 -1000 -253 0
1001 -1000 253 0
1001 1000 -253 0
-1002 1001 258 0
-1002 -1001 -258 0
1002 -1001 258 0
1002 1001 -258 0
-1003 1002 265 0
-1003 -1002 -265 0
1003 -1002 265 0
1003 1002 -265 0
-1004 1003 267 0
-1004 -1003 -267 0
1004 -1003 267 0
1004 1003 -267 0
-1005 1004 268 0
-1005 -1004 -268 0
1005 -1004 268 0
1005 1004 -268 0
-1006 1005 269 0
-1006 -1005 -269 0
1006 -1005 269 0
1006 1005 -269 0
-1007 1006 272 0
-1007 -1006 -272 0
1007 -1006 272 0
1007 1006 -272 0
-1008 1007 274 0
-1008 -1007 -274 0
1008 -1007 274 0
1008 1007 -274 0
-1009 1008 278 0
-1009 -1008 -278 0
1009 -1008 278 0
1009 1008 -278 0
-1010 1009 280 0
-1010 -1009 -280 0
1010 -1009 280 0
1010 1009 -280 0
-1011 1010 282 0
-1011 -1010 -282 0
1011 -1010 282 0
1011 1010 -282 0
-1012 1011 283 0
-1012 -1011 -283 0
1012 -1011 283 0
1012 1011 -283 0
-1013 1012 284 0
-1013 -1012 -284 0
1013 -1012 284 0
1013 1012 -284 0
-1014 1013 285 0
-1014 -1013 -285 0
1014 -1013 285 0
1014 1013 -285 0
-1015 1014 286 0
-1015 -1014 -286 0
1015 -1014 286 0
1015 1014 -286 0
-1016 1015 288 0
-1016 -1015 -288 0
1016 -1015 288 0
1016 1015 -288 0
-1016 0
-1017 73 74 0
-1017 -73 -74 0
1017 -73 74 0
1017 73 -74 0
-1018 1017 75 0
-1018 -1017 -75 0
1018 -1017 75 0
1018 1017 -75 0
-1019 1018 78 0
-1019 -1018 -78 0
1019 -1018 78 0
1019 1018 -78 0
-1020 1019 83 0
-1020 -1019 -83 0
1020 -1019 83 0
1020 1019 -83 0
-1021 1020 86 0
-1021 -1020 -86 0
1021 -1020 86 0
1021 1020 -86 0
-1022 1021 87 0
-1022 -1021 -87 0
1022 -1021 87 0
1022 1021 -87 0
-1023 1022 88 0
-1023 -1022 -88 0
1023 -1022 88 0
1023 1022 -88 0
-1024 1023 91 0
-1024 -1023 -91 0
1024 -1023 91 0
1024 1023 -91 0
-1025 1024 92 0
-1025 -1024 -92 0
1025 -1024 92 0
1025 1024 -92 0
-1026 1025 95 0
-1026 -1025 -95 0
1026 -1025 95 0
1026 1025 -95 0
-1027 1026 96 0
-1027 -1026 -96 0
1027 -1026 96 0
1027 1026 -96 0
-1028 1027 99 0
-1028 -1027 -99 0
1028 -1027 99 0
1028 1027 -99 0
-1029 1028 104 0
-1029 -1028 -104 0
1029 -1028 104 0
1029 1028 -104 0
-1030 1029 106 0
-1030 -1029 -106 0
1030 -1029 106 0
1030 1029 -106 0
-1031 1030 107 0
-1031 -1030 -107 0
1031 -1030 107 0
1031 1030 -107 0
-1032 1031 109 0
-1032 -1031 -109 0
1032 -1031 109 0
1032 1031 -109 0
-1033 1032 110 0
-1033 -1032 -110 0
1033 -1032 110 0
1033 1032 -110 0
-1034 1033 114 0
-1034 -1033 -114 0
1034 -1033 114 0
1034 1033 -114 0
-1035 1034 115 0
-1035 -1034 -115 0
1035 -1034 115 0
1035 1034 -115 0
-1036 1035 117 0
-1036 -1035 -117 0
1036 -1035 117 0
1036 1035 -117 0
-1037 1036 121 0
-1037 -1036 -121 0
1037 -1036 121 0
1037 1036 -121 0
-1038 1037 122 0
-1038 -1037 -122 0
1038 -1037 122 0
1038 1037 -122 0
-1039 1038 124 0
-1039 -1038 -124 0
1039 -1038 124 0
1039 1038 -124 0
-1040 1039 128 0
-1040 -1039 -128 0
1040 -1039 128 0
1040 1039 -128 0
-1041 1040 132 0
-1041 -1040 -132 0
1041 -1040 132 0
1041 1040 -132 0
-1042 1041 133 0
-1042 -1041 -133 0
1042 -1041 133 0
1042 1041 -133 0
-1043 1042 135 0
-1043 -1042 -135 0
1043 -1042 135 0
1043 1042 -135 0
-1044 1043 140 0
-1044 -1043 -140 0
1044 -1043 140 0
1044 1043 -140 0
-1045 1044 141 0
-1045 -1044 -141 0
1045 -1044 141 0
1045 1044 -141 0
-1046 1045 142 0
-1046 -1045 -142 0
1046 -1045 142 0
1046 1045 -142 0
-1047 1046 143 0
-1047 -1046 -143 0
1047 -1046 143 0
1047 1046 -143 0
-1048 1047 153 0
-1048 -1047 -153 0
1048 -1047 153 0
1048 1047 -153 0
-1049 1048 213 0
-1049 -1048 -213 0
1049 -1048 213 0
1049 1048 -213 0
-1050 1049 224 0
-1050 -1049 -224 0
1050 -1049 224 0
1050 1049 -224 0
-1051 1050 226 0
-1051 -1050 -226 0
1051 -1050 226 0
1051 1050 -226 0
-1052 1051 228 0
-1052 -1051 -228 0
1052 -1051 228 0
1052 1051 -228 0
-1053 1052 235 0
-1053 -1052 -235 0
1053 -1052 235 0
1053 1052 -235 0
-1054 1053 240 0
-1054 -1053 -240 0
1054 -1053 240 0
1054 1053 -240 0
-1055 1054 242 0
-1055 -1054 -242 0
1055 -1054 242 0
1055 1054 -242 0
-1056 1055 243 0
-1056 -1055 -243 0
1056 -1055 243 0
1056 1055 -243 0
-1057 1056 247 0
-1057 -1056 -247 0
1057 -1056 247 0
1057 1056 -247 0
-1058 1057 248 0
-1058 -1057 -248 0
1058 -1057 248 0
1058 1057 -248 0
-1059 1058 249 0
-1059 -1058 -249 0
1059 -1058 249 0
1059 1058 -249 0
-1060 1059 250 0
-1060 -1059 -250 0
1060 -1059 250 0
1060 1059 -250 0
-1061 1060 251 0
-1061 -1060 -251 0
1061 -1060 251 0
1061 1060 -251 0
-1062 1061 252 0
-1062 -1061 -252 0
1062 -1061 252 0
1062 1061 -252 0
-1063 1062 255 0
-1063 -1062 -255 0
1063 -1062 255 0
1063 1062 -255 0
-1064 1063 256 0
-1064 -1063 -256 0
1064 -1063 256 0
1064 1063 -256 0
-1065 1064 257 0
-1065 -1064 -257 0
1065 -1064 257 0
1065 1064 -257 0
-1066 1065 258 0
-1066 -1065 -258 0
1066 -1065 258 0
1066 1065 -258 0
-1067 1066 265 0
-1067 -1066 -265 0
1067 -1066 265 0
1067 1066 -265 0
-1068 1067 266 0
-1068 -1067 -266 0
1068 -1067 266 0
1068 1067 -266 0
-1069 1068 267 0
-1069 -1068 -267 0
1069 -1068 267 0
1069 1068 -267 0
-1070 1069 268 0
-1070 -1069 -268 0
1070 -1069 268 0
1070 1069 -268 0
-1071 1070 270 0
-1071 -1070 -270 0
1071 -1070 270 0
1071 1070 -270 0
-1072 1071 271 0
-1072 -1071 -271 0
1072 -1071 271 0
1072 1071 -271 0
-1073 1072 277 0
-1073 -1072 -277 0
1073 -1072 277 0
1073 1072 -277 0
-1074 1073 279 0
-1074 -1073 -279 0
1074 -1073 279 0
1074 1073 -279 0
-1075 1074 281 0
-1075 -1074 -281 0
1075 -1074 281 0
1075 1074 -281 0
-1076 1075 283 0
-1076 -1075 -283 0
1076 -1075 283 0
1076 1075 -283 0
-1077 1076 285 0
-1077 -1076 -285 0
1077 -1076 285 0
1077 1076 -285 0
-1078 1077 287 0
-1078 -1077 -287 0
1078 -1077 287 0
1078 1077 -287 0
-1079 1078 288 0
-1079 -1078 -288 0
1079 -1078 288 0
1079 1078 -288 0
-1079 0
-1080 73 74 0
-1080 -73 -74 0
1080 -73 74 0
1080 73 -74 0
-1081 1080 75 0
-1081 -1080 -75 0
1081 -1080 75 0
1081 1080 -75 0
-1082 1081 76 0
-1082 -1081 -76 0
1082 -1081 76 0
1082 1081 -76 0
-1083 1082 84 0
-1083 -1082 -84 0
1083 -1082 84 0
1083 1082 -84 0
-1084 1083 87 0
-1084 -1083 -87 0
1084 -1083 87 0
1084 1083 -87 0
-1085 1084 88 0
-1085 -1084 -88 0
1085 -1084 88 0
1085 1084 -88 0
-1086 1085 89 0
-1086 -1085 -89 0
1086 -1085 89 0
1086 1085 -89 0
-1087 1086 91 0
-1087 -1086 -91 0
1087 -1086 91 0
1087 1086 -91 0
-1088 1087 92 0
-1088 -1087 -92 0
1088 -1087 92 0
1088 1087 -92 0
-1089 1088 93 0
-1089 -1088 -93 0
1089 -1088 93 0
1089 1088 -93 0
-1090 1089 96 0
-1090 -1089 -96 0
1090 -1089 96 0
1090 1089 -96 0
-1091 1090 100 0
-1091 -1090 -100 0
1091 -1090 100 0
1091 1090 -100 0
-1092 1091 105 0
-1092 -1091 -105 0
1092 -1091 105 0
1092 1091 -105 0
-1093 1092 107 0
-1093 -1092 -107 0
1093 -1092 107 0
1093 1092 -107 0
-1094 1093 108 0
-1094 -1093 -108 0
1094 -1093 108 0
1094 1093 -108 0
-1095 1094 109 0
-1095 -1094 -109 0
1095 -1094 109 0
1095 1094 -109 0
-1096 1095 110 0
-1096 -1095 -110 0
1096 -1095 110 0
1096 1095 -110 0
-1097 1096 111 0
-1097 -1096 -111 0
1097 -1096 111 0
1097 1096 -111 0
-1098 1097 116 0
-1098 -1097 -116 0
1098 -1097 116 0
1098 1097 -116 0
-1099 1098 118 0
-1099 -1098 -118 0
1099 -1098 118 0
1099 1098 -118 0
-1100 1099 122 0
-1100 -1099 -122 0
1100 -1099 122 0
1100 1099 -122 0
-1101 1100 123 0
-1101 -1100 -123 0
1101 -1100 123 0
1101 1100 -123 0
-1102 1101 125 0
-1102 -1101 -125 0
1102 -1101 125 0
1102 1101 -125 0
-1103 1102 127 0
-1103 -1102 -127 0
1103 -1102 127 0
1103 1102 -127 0
-1104 1103 129 0
-1104 -1103 -129 0
1104 -1103 129 0
1104 1103 -129 0
-1105 1104 134 0
-1105 -1104 -134 0
1105 -1104 134 0
1105 1104 -134 0
-1106 1105 136 0
-1106 -1105 -136 0
1106 -1105 136 0
1106 1105 -136 0
-1107 1106 141 0
-1107 -1106 -141 0
1107 -1106 141 0
1107 1106 -141 0
-1108 1107 142 0
-1108 -1107 -142 0
1108 -1107 142 0
1108 1107 -142 0
-1109 1108 143 0
-1109 -1108 -143 0
1109 -1108 143 0
1109 1108 -143 0
-1110 1109 144 0
-1110 -1109 -144 0
1110 -1109 144 0
1110 1109 -144 0
-1111 1110 154 0
-1111 -1110 -154 0
1111 -1110 154 0
1111 1110 -154 0
-1112 1111 214 0
-1112 -1111 -214 0
1112 -1111 214 0
1112 1111 -214 0
-1113 1112 223 0
-1113 -1112 -223 0
1113 -1112 223 0
1113 1112 -223 0
-1114 1113 225 0
-1114 -1113 -225 0
1114 -1113 225 0
1114 1113 -225 0
-1115 1114 227 0
-1115 -1114 -227 0
1115 -1114 227 0
1115 1114 -227 0
-1116 1115 235 0
-1116 -1115 -235 0
1116 -1115 235 0
1116 1115 -235 0
-1117 1116 236 0
-1117 -1116 -236 0
1117 -1116 236 0
1117 1116 -236 0
-1118 1117 243 0
-1118 -1117 -243 0
1118 -1117 243 0
1118 1117 -243 0
-1119 1118 244 0
-1119 -1118 -244 0
1119 -1118 244 0
1119 1118 -244 0
-1120 1119 247 0
-1120 -1119 -247 0
1120 -1119 247 0
1120 1119 -247 0
-1121 1120 248 0
-1121 -1120 -248 0
1121 -1120 248 0
1121 1120 -248 0
-1122 1121 249 0
-1122 -1121 -249 0
1122 -1121 249 0
1122 1121 -249 0
-1123 1122 250 0
-1123 -1122 -250 0
1123 -1122 250 0
1123 1122 -250 0
-1124 1123 251 0
-1124 -1123 -251 0
1124 -1123 251 0
1124 1123 -251 0
-1125 1124 252 0
-1125 -1124 -252 0
1125 -1124 252 0
1125 1124 -252 0
-1126 1125 253 0
-1126 -1125 -253 0
1126 -1125 253 0
1126 1125 -253 0
-1127 1126 256 0
-1127 -1126 -256 0
1127 -1126 256 0
1127 1126 -256 0
-1128 1127 257 0
-1128 -1127 -257 0
1128 -1127 257 0
1128 1127 -257 0
-1129 1128 258 0
-1129 -1128 -258 0
1129 -1128 258 0
1129 1128 -258 0
-1130 1129 265 0
-1130 -1129 -265 0
1130 -1129 265 0
1130 1129 -265 0
-1131 1130 266 0
-1131 -1130 -266 0
1131 -1130 266 0
1131 1130 -266 0
-1132 1131 267 0
-1132 -1131 -267 0
1132 -1131 267 0
1132 1131 -267 0
-1133 1132 268 0
-1133 -1132 -268 0
1133 -1132 268 0
1133 1132 -268 0
-1134 1133 269 0
-1134 -1133 -269 0
1134 -1133 269 0
1134 1133 -269 0
-1135 1134 272 0
-1135 -1134 -272 0
1135 -1134 272 0
1135 1134 -272 0
-1136 1135 278 0
-1136 -1135 -278 0
1136 -1135 278 0
1136 1135 -278 0
-1137 1136 280 0
-1137 -1136 -280 0
1137 -1136 280 0
1137 1136 -280 0
-1138 1137 282 0
-1138 -1137 -282 0
1138 -1137 282 0
1138 1137 -282 0
-1139 1138 283 0
-1139 -1138 -283 0
1139 -1138 283 0
1139 1138 -283 0
-1140 1139 284 0
-1140 -1139 -284 0
1140 -1139 284 0
1140 1139 -284 0
-1141 1140 286 0
-1141 -1140 -286 0
1141 -1140 286 0
1141 1140 -286 0
-1142 1141 288 0
-1142 -1141 -288 0
1142 -1141 288 0
1142 1141 -288 0
-1142 0
-1143 74 75 0
-1143 -74 -75 0
1143 -74 75 0
1143 74 -75 0
-1144 1143 76 0
-1144 -1143 -76 0
1144 -1143 76 0
1144 1143 -76 0
-1145 1144 77 0
-1145 -1144 -77 0
1145 -1144 77 0
1145 1144 -77 0
-1146 1145 79 0
-1146 -1145 -79 0
1146 -1145 79 0
1146 1145 -79 0
-1147 1146 88 0
-1147 -1146 -88 0
1147 -1146 88 0
1147 1146 -88 0
-1148 1147 89 0
-1148 -1147 -89 0
1148 -1147 89 0
1148 1147 -89 0
-1149 1148 90 0
-1149 -1148 -90 0
1149 -1148 90 0
1149 1148 -90 0
-1150 1149 91 0
-1150 -1149 -91 0
1150 -1149 91 0
1150 1149 -91 0
-1151 1150 92 0
-1151 -1150 -92 0
1151 -1150 92 0
1151 1150 -92 0
-1152 1151 93 0
-1152 -1151 -93 0
1152 -1151 93 0
1152 1151 -93 0
-1153 1152 94 0
-1153 -1152 -94 0
1153 -1152 94 0
1153 1152 -94 0
-1154 1153 101 0
-1154 -1153 -101 0
1154 -1153 101 0
1154 1153 -101 0
-1155 1154 103 0
-1155 -1154 -103 0
1155 -1154 103 0
1155 1154 -103 0
-1156 1155 106 0
-1156 -1155 -106 0
1156 -1155 106 0
1156 1155 -106 0
-1157 1156 108 0
-1157 -1156 -108 0
1157 -1156 108 0
1157 1156 -108 0
-1158 1157 110 0
-1158 -1157 -110 0
1158 -1157 110 0
1158 1157 -110 0
-1159 1158 111 0
-1159 -1158 -111 0
1159 -1158 111 0
1159 1158 -111 0
-1160 1159 112 0
-1160 -1159 -112 0
1160 -1159 112 0
1160 1159 -112 0
-1161 1160 117 0
-1161 -1160 -117 0
1161 -1160 117 0
1161 1160 -117 0
-1162 1161 119 0
-1162 -1161 -119 0
1162 -1161 119 0
1162 1161 -119 0
-1163 1162 123 0
-1163 -1162 -123 0
1163 -1162 123 0
1163 1162 -123 0
-1164 1163 124 0
-1164 -1163 -124 0
1164 -1163 124 0
1164 1163 -124 0
-1165 1164 126 0
-1165 -1164 -126 0
1165 -1164 126 0
1165 1164 -126 0
-1166 1165 128 0
-1166 -1165 -128 0
1166 -1165 128 0
1166 1165 -128 0
-1167 1166 130 0
-1167 -1166 -130 0
1167 -1166 130 0
1167 1166 -130 0
-1168 1167 135 0
-1168 -1167 -135 0
1168 -1167 135 0
1168 1167 -135 0
-1169 1168 137 0
-1169 -1168 -137 0
1169 -1168 137 0
1169 1168 -137 0
-1170 1169 139 0
-1170 -1169 -139 0
1170 -1169 139 0
1170 1169 -139 0
-1171 1170 142 0
-1171 -1170 -142 0
1171 -1170 142 0
1171 1170 -142 0
-1172 1171 143 0
-1172 -1171 -143 0
1172 -1171 143 0
1172 1171 -143 0
-1173 1172 144 0
-1173 -1172 -144 0
1173 -1172 144 0
1173 1172 -144 0
-1174 1173 155 0
-1174 -1173 -155 0
1174 -1173 155 0
1174 1173 -155 0
-1175 1174 215 0
-1175 -1174 -215 0
1175 -1174 215 0
1175 1174 -215 0
-1176 1175 224 0
-1176 -1175 -224 0
1176 -1175 224 0
1176 1175 -224 0
-1177 1176 226 0
-1177 -1176 -226 0
1177 -1176 226 0
1177 1176 -226 0
-1178 1177 228 0
-1178 -1177 -228 0
1178 -1177 228 0
1178 1177 -228 0
-1179 1178 236 0
-1179 -1178 -236 0
1179 -1178 236 0
1179 1178 -236 0
-1180 1179 237 0
-1180 -1179 -237 0
1180 -1179 237 0
1180 1179 -237 0
-1181 1180 244 0
-1181 -1180 -244 0
1181 -1180 244 0
1181 1180 -244 0
-1182 1181 245 0
-1182 -1181 -245 0
1182 -1181 245 0
1182 1181 -245 0
-1183 1182 247 0
-1183 -1182 -247 0
1183 -1182 247 0
1183 1182 -247 0
-1184 1183 248 0
-1184 -1183 -248 0
1184 -1183 248 0
1184 1183 -248 0
-1185 1184 249 0
-1185 -1184 -249 0
1185 -1184 249 0
1185 1184 -249 0
-1186 1185 250 0
-1186 -1185 -250 0
1186 -1185 250 0
1186 1185 -250 0
-1187 1186 251 0
-1187 -1186 -251 0
1187 -1186 251 0
1187 1186 -251 0
-1188 1187 252 0
-1188 -1187 -252 0
1188 -1187 252 0
1188 1187 -252 0
-1189 1188 253 0
-1189 -1188 -253 0
1189 -1188 253 0
1189 1188 -253 0
-1190 1189 254 0
-1190 -1189 -254 0
1190 -1189 254 0
1190 1189 -254 0
-1191 1190 257 0
-1191 -1190 -257 0
1191 -1190 257 0
1191 1190 -257 0
-1192 1191 258 0
-1192 -1191 -258 0
1192 -1191 258 0
1192 1191 -258 0
-1193 1192 266 0
-1193 -1192 -266 0
1193 -1192 266 0
1193 1192 -266 0
-1194 1193 267 0
-1194 -1193 -267 0
1194 -1193 267 0
1194 1193 -267 0
-1195 1194 268 0
-1195 -1194 -268 0
1195 -1194 268 0
1195 1194 -268 0
-1196 1195 269 0
-1196 -1195 -269 0
1196 -1195 269 0
1196 1195 -269 0
-1197 1196 270 0
-1197 -1196 -270 0
1197 -1196 270 0
1197 1196 -270 0
-1198 1197 273 0
-1198 -1197 -273 0
1198 -1197 273 0
1198 1197 -273 0
-1199 1198 277 0
-1199 -1198 -277 0
1199 -1198 277 0
1199 1198 -277 0
-1200 1199 279 0
-1200 -1199 -279 0
1200 -1199 279 0
1200 1199 -279 0
-1201 1200 281 0
-1201 -1200 -281 0
1201 -1200 281 0
1201 1200 -281 0
-1202 1201 283 0
-1202 -1201 -283 0
1202 -1201 283 0
1202 1201 -283 0
-1203 1202 284 0
-1203 -1202 -284 0
1203 -1202 284 0
1203 1202 -284 0
-1204 1203 285 0
-1204 -1203 -285 0
1204 -1203 285 0
1204 1203 -285 0
-1205 1204 287 0
-1205 -1204 -287 0
1205 -1204 287 0
1205 1204 -287 0
-1205 0
-1206 75 76 0
-1206 -75 -76 0
1206 -75 76 0
1206 75 -76 0
-1207 1206 77 0
-1207 -1206 -77 0
1207 -1206 77 0
1207 1206 -77 0
-1208 1207 78 0
-1208 -1207 -78 0
1208 -1207 78 0
1208 1207 -78 0
-1209 1208 80 0
-1209 -1208 -80 0
1209 -1208 80 0
1209 1208 -80 0
-1210 1209 85 0
-1210 -1209 -85 0
1210 -1209 85 0
1210 1209 -85 0
-1211 1210 89 0
-1211 -1210 -89 0
1211 -1210 89 0
1211 1210 -89 0
-1212 1211 90 0
-1212 -1211 -90 0
1212 -1211 90 0
1212 1211 -90 0
-1213 1212 92 0
-1213 -1212 -92 0
1213 -1212 92 0
1213 1212 -92 0
-1214 1213 93 0
-1214 -1213 -93 0
1214 -1213 93 0
1214 1213 -93 0
-1215 1214 94 0
-1215 -1214 -94 0
1215 -1214 94 0
1215 1214 -94 0
-1216 1215 95 0
-1216 -1215 -95 0
1216 -1215 95 0
1216 1215 -95 0
-1217 1216 102 0
-1217 -1216 -102 0
1217 -1216 102 0
1217 1216 -102 0
-1218 1217 103 0
-1218 -1217 -103 0
1218 -1217 103 0
1218 1217 -103 0
-1219 1218 104 0
-1219 -1218 -104 0
1219 -1218 104 0
1219 1218 -104 0
-1220 1219 107 0
-1220 -1219 -107 0
1220 -1219 107 0
1220 1219 -107 0
-1221 1220 111 0
-1221 -1220 -111 0
1221 -1220 111 0
1221 1220 -111 0
-1222 1221 112 0
-1222 -1221 -112 0
1222 -1221 112 0
1222 1221 -112 0
-1223 1222 113 0
-1223 -1222 -113 0
1223 -1222 113 0
1223 1222 -113 0
-1224 1223 118 0
-1224 -1223 -118 0
1224 -1223 118 0
1224 1223 -118 0
-1225 1224 120 0
-1225 -1224 -120 0
1225 -1224 120 0
1225 1224 -120 0
-1226 1225 121 0
-1226 -1225 -121 0
1226 -1225 121 0
1226 1225 -121 0
-1227 1226 124 0
-1227 -1226 -124 0
1227 -1226 124 0
1227 1226 -124 0
-1228 1227 125 0
-1228 -1227 -125 0
1228 -1227 125 0
1228 1227 -125 0
-1229 1228 129 0
-1229 -1228 -129 0
1229 -1228 129 0
1229 1228 -129 0
-1230 1229 131 0
-1230 -1229 -131 0
1230 -1229 131 0
1230 1229 -131 0
-1231 1230 136 0
-1231 -1230 -136 0
1231 -1230 136 0
1231 1230 -136 0
-1232 1231 138 0
-1232 -1231 -138 0
1232 -1231 138 0
1232 1231 -138 0
-1233 1232 139 0
-1233 -1232 -139 0
1233 -1232 139 0
1233 1232 -139 0
-1234 1233 140 0
-1234 -1233 -140 0
1234 -1233 140 0
1234 1233 -140 0
-1235 1234 143 0
-1235 -1234 -143 0
1235 -1234 143 0
1235 1234 -143 0
-1236 1235 144 0
-1236 -1235 -144 0
1236 -1235 144 0
1236 1235 -144 0
-1237 1236 156 0
-1237 -1236 -156 0
1237 -1236 156 0
1237 1236 -156 0
-1238 1237 216 0
-1238 -1237 -216 0
1238 -1237 216 0
1238 1237 -216 0
-1239 1238 223 0
-1239 -1238 -223 0
1239 -1238 223 0
1239 1238 -223 0
-1240 1239 225 0
-1240 -1239 -225 0
1240 -1239 225 0
1240 1239 -225 0
-1241 1240 227 0
-1241 -1240 -227 0
1241 -1240 227 0
1241 1240 -227 0
-1242 1241 237 0
-1242 -1241 -237 0
1242 -1241 237 0
1242 1241 -237 0
-1243 1242 238 0
-1243 -1242 -238 0
1243 -1242 238 0
1243 1242 -238 0
-1244 1243 245 0
-1244 -1243 -245 0
1244 -1243 245 0
1244 1243 -245 0
-1245 1244 246 0
-1245 -1244 -246 0
1245 -1244 246 0
1245 1244 -246 0
-1246 1245 247 0
-1246 -1245 -247 0
1246 -1245 247 0
1246 1245 -247 0
-1247 1246 248 0
-1247 -1246 -248 0
1247 -1246 248 0
1247 1246 -248 0
-1248 1247 249 0
-1248 -1247 -249 0
1248 -1247 249 0
1248 1247 -249 0
-1249 1248 250 0
-1249 -1248 -250 0
1249 -1248 250 0
1249 1248 -250 0
-1250 1249 251 0
-1250 -1249 -251 0
1250 -1249 251 0
1250 1249 -251 0
-1251 1250 252 0
-1251 -1250 -252 0
1251 -1250 252 0
1251 1250 -252 0
-1252 1251 253 0
-1252 -1251 -253 0
1252 -1251 253 0
1252 1251 -253 0
-1253 1252 254 0
-1253 -1252 -254 0
1253 -1252 254 0
1253 1252 -254 0
-1254 1253 255 0
-1254 -1253 -255 0
1254 -1253 255 0
1254 1253 -255 0
-1255 1254 258 0
-1255 -1254 -258 0
1255 -1254 258 0
1255 1254 -258 0
-1256 1255 265 0
-1256 -1255 -265 0
1256 -1255 265 0
1256 1255 -265 0
-1257 1256 267 0
-1257 -1256 -267 0
1257 -1256 267 0
1257 1256 -267 0
-1258 1257 268 0
-1258 -1257 -268 0
1258 -1257 268 0
1258 1257 -268 0
-1259 1258 269 0
-1259 -1258 -269 0
1259 -1258 269 0
1259 1258 -269 0
-1260 1259 270 0
-1260 -1259 -270 0
1260 -1259 270 0
1260 1259 -270 0
-1261 1260 274 0
-1261 -1260 -274 0
1261 -1260 274 0
1261 1260 -274 0
-1262 1261 278 0
-1262 -1261 -278 0
1262 -1261 278 0
1262 1261 -278 0
-1263 1262 280 0
-1263 -1262 -280 0
1263 -1262 280 0
1263 1262 -280 0
-1264 1263 282 0
-1264 -1263 -282 0
1264 -1263 282 0
1264 1263 -282 0
-1265 1264 284 0
-1265 -1264 -284 0
1265 -1264 284 0
1265 1264 -284 0
-1266 1265 285 0
-1266 -1265 -285 0
1266 -1265 285 0
1266 1265 -285 0
-1267 1266 286 0
-1267 -1266 -286 0
1267 -1266 286 0
1267 1266 -286 0
-1268 1267 288 0
-1268 -1267 -288 0
1268 -1267 288 0
1268 1267 -288 0
-1268 0
-1269 69 70 0
-1269 -69 -70 0
1269 -69 70 0
1269 69 -70 0
-1270 1269 71 0
-1270 -1269 -71 0
1270 -1269 71 0
1270 1269 -71 0
-1271 1270 73 0
-1271 -1270 -73 0
1271 -1270 73 0
1271 1270 -73 0
-1272 1271 75 0
-1272 -1271 -75 0
1272 -1271 75 0
1272 1271 -75 0
-1273 1272 76 0
-1273 -1272 -76 0
1273 -1272 76 0
1273 1272 -76 0
-1274 1273 77 0
-1274 -1273 -77 0
1274 -1273 77 0
1274 1273 -77 0
-1275 1274 78 0
-1275 -1274 -78 0
1275 -1274 78 0
1275 1274 -78 0
-1276 1275 79 0
-1276 -1275 -79 0
1276 -1275 79 0
1276 1275 -79 0
-1277 1276 80 0
-1277 -1276 -80 0
1277 -1276 80 0
1277 1276 -80 0
-1278 1277 81 0
-1278 -1277 -81 0
1278 -1277 81 0
1278 1277 -81 0
-1279 1278 82 0
-1279 -1278 -82 0
1279 -1278 82 0
1279 1278 -82 0
-1280 1279 83 0
-1280 -1279 -83 0
1280 -1279 83 0
1280 1279 -83 0
-1281 1280 87 0
-1281 -1280 -87 0
1281 -1280 87 0
1281 1280 -87 0
-1282 1281 88 0
-1282 -1281 -88 0
1282 -1281 88 0
1282 1281 -88 0
-1283 1282 90 0
-1283 -1282 -90 0
1283 -1282 90 0
1283 1282 -90 0
-1284 1283 91 0
-1284 -1283 -91 0
1284 -1283 91 0
1284 1283 -91 0
-1285 1284 92 0
-1285 -1284 -92 0
1285 -1284 92 0
1285 1284 -92 0
-1286 1285 94 0
-1286 -1285 -94 0
1286 -1285 94 0
1286 1285 -94 0
-1287 1286 96 0
-1287 -1286 -96 0
1287 -1286 96 0
1287 1286 -96 0
-1288 1287 102 0
-1288 -1287 -102 0
1288 -1287 102 0
1288 1287 -102 0
-1289 1288 105 0
-1289 -1288 -105 0
1289 -1288 105 0
1289 1288 -105 0
-1290 1289 106 0
-1290 -1289 -106 0
1290 -1289 106 0
1290 1289 -106 0
-1291 1290 107 0
-1291 -1290 -107 0
1291 -1290 107 0
1291 1290 -107 0
-1292 1291 108 0
-1292 -1291 -108 0
1292 -1291 108 0
1292 1291 -108 0
-1293 1292 109 0
-1293 -1292 -109 0
1293 -1292 109 0
1293 1292 -109 0
-1294 1293 113 0
-1294 -1293 -113 0
1294 -1293 113 0
1294 1293 -113 0
-1295 1294 114 0
-1295 -1294 -114 0
1295 -1294 114 0
1295 1294 -114 0
-1296 1295 115 0
-1296 -1295 -115 0
1296 -1295 115 0
1296 1295 -115 0
-1297 1296 116 0
-1297 -1296 -116 0
1297 -1296 116 0
1297 1296 -116 0
-1298 1297 117 0
-1298 -1297 -117 0
1298 -1297 117 0
1298 1297 -117 0
-1299 1298 119 0
-1299 -1298 -119 0
1299 -1298 119 0
1299 1298 -119 0
-1300 1299 120 0
-1300 -1299 -120 0
1300 -1299 120 0
1300 1299 -120 0
-1301 1300 121 0
-1301 -1300 -121 0
1301 -1300 121 0
1301 1300 -121 0
-1302 1301 122 0
-1302 -1301 -122 0
1302 -1301 122 0
1302 1301 -122 0
-1303 1302 124 0
-1303 -1302 -124 0
1303 -1302 124 0
1303 1302 -124 0
-1304 1303 126 0
-1304 -1303 -126 0
1304 -1303 126 0
1304 1303 -126 0
-1305 1304 132 0
-1305 -1304 -132 0
1305 -1304 132 0
1305 1304 -132 0
-1306 1305 134 0
-1306 -1305 -134 0
1306 -1305 134 0
1306 1305 -134 0
-1307 1306 136 0
-1307 -1306 -136 0
1307 -1306 136 0
1307 1306 -136 0
-1308 1307 137 0
-1308 -1307 -137 0
1308 -1307 137 0
1308 1307 -137 0
-1309 1308 139 0
-1309 -1308 -139 0
1309 -1308 139 0
1309 1308 -139 0
-1310 1309 140 0
-1310 -1309 -140 0
1310 -1309 140 0
1310 1309 -140 0
-1311 1310 141 0
-1311 -1310 -141 0
1311 -1310 141 0
1311 1310 -141 0
-1312 1311 142 0
-1312 -1311 -142 0
1312 -1311 142 0
1312 1311 -142 0
-1313 1312 143 0
-1313 -1312 -143 0
1313 -1312 143 0
1313 1312 -143 0
-1314 1313 157 0
-1314 -1313 -157 0
1314 -1313 157 0
1314 1313 -157 0
-1315 1314 213 0
-1315 -1314 -213 0
1315 -1314 213 0
1315 1314 -213 0
-1316 1315 214 0
-1316 -1315 -214 0
1316 -1315 214 0
1316 1315 -214 0
-1317 1316 216 0
-1317 -1316 -216 0
1317 -1316 216 0
1317 1316 -216 0
-1318 1317 221 0
-1318 -1317 -221 0
1318 -1317 221 0
1318 1317 -221 0
-1319 1318 223 0
-1319 -1318 -223 0
1319 -1318 223 0
1319 1318 -223 0
-1320 1319 227 0
-1320 -1319 -227 0
1320 -1319 227 0
1320 1319 -227 0
-1321 1320 229 0
-1321 -1320 -229 0
1321 -1320 229 0
1321 1320 -229 0
-1322 1321 231 0
-1322 -1321 -231 0
1322 -1321 231 0
1322 1321 -231 0
-1323 1322 232 0
-1323 -1322 -232 0
1323 -1322 232 0
1323 1322 -232 0
-1324 1323 235 0
-1324 -1323 -235 0
1324 -1323 235 0
1324 1323 -235 0
-1325 1324 236 0
-1325 -1324 -236 0
1325 -1324 236 0
1325 1324 -236 0
-1326 1325 237 0
-1326 -1325 -237 0
1326 -1325 237 0
1326 1325 -237 0
-1327 1326 238 0
-1327 -1326 -238 0
1327 -1326 238 0
1327 1326 -238 0
-1328 1327 239 0
-1328 -1327 -239 0
1328 -1327 239 0
1328 1327 -239 0
-1329 1328 240 0
-1329 -1328 -240 0
1329 -1328 240 0
1329 1328 -240 0
-1330 1329 241 0
-1330 -1329 -241 0
1330 -1329 241 0
1330 1329 -241 0
-1331 1330 243 0
-1331 -1330 -243 0
1331 -1330 243 0
1331 1330 -243 0
-1332 1331 244 0
-1332 -1331 -244 0
1332 -1331 244 0
1332 1331 -244 0
-1333 1332 245 0
-1333 -1332 -245 0
1333 -1332 245 0
1333 1332 -245 0
-1334 1333 253 0
-1334 -1333 -253 0
1334 -1333 253 0
1334 1333 -253 0
-1335 1334 254 0
-1335 -1334 -254 0
1335 -1334 254 0
1335 1334 -254 0
-1336 1335 255 0
-1336 -1335 -255 0
1336 -1335 255 0
1336 1335 -255 0
-1337 1336 258 0
-1337 -1336 -258 0
1337 -1336 258 0
1337 1336 -258 0
-1338 1337 259 0
-1338 -1337 -259 0
1338 -1337 259 0
1338 1337 -259 0
-1339 1338 264 0
-1339 -1338 -264 0
1339 -1338 264 0
1339 1338 -264 0
-1340 1339 265 0
-1340 -1339 -265 0
1340 -1339 265 0
1340 1339 -265 0
-1341 1340 267 0
-1341 -1340 -267 0
1341 -1340 267 0
1341 1340 -267 0
-1342 1341 269 0
-1342 -1341 -269 0
1342 -1341 269 0
1342 1341 -269 0
-1343 1342 271 0
-1343 -1342 -271 0
1343 -1342 271 0
1343 1342 -271 0
-1344 1343 273 0
-1344 -1343 -273 0
1344 -1343 273 0
1344 1343 -273 0
-1345 1344 276 0
-1345 -1344 -276 0
1345 -1344 276 0
1345 1344 -276 0
-1346 1345 284 0
-1346 -1345 -284 0
1346 -1345 284 0
1346 1345 -284 0
-1347 1346 285 0
-1347 -1346 -285 0
1347 -1346 285 0
1347 1346 -285 0
-1348 1347 286 0
-1348 -1347 -286 0
1348 -1347 286 0
1348 1347 -286 0
-1349 1348 288 0
-1349 -1348 -288 0
1349 -1348 288 0
1349 1348 -288 0
-1349 0
-1350 70 71 0
-1350 -70 -71 0
1350 -70 71 0
1350 70 -71 0
-1351 1350 72 0
-1351 -1350 -72 0
1351 -1350 72 0
1351 1350 -72 0
-1352 1351 73 0
-1352 -1351 -73 0
1352 -1351 73 0
1352 1351 -73 0
-1353 1352 74 0
-1353 -1352 -74 0
1353 -1352 74 0
1353 1352 -74 0
-1354 1353 76 0
-1354 -1353 -76 0
1354 -1353 76 0
1354 1353 -76 0
-1355 1354 77 0
-1355 -1354 -77 0
1355 -1354 77 0
1355 1354 -77 0
-1356 1355 78 0
-1356 -1355 -78 0
1356 -1355 78 0
1356 1355 -78 0
-1357 1356 79 0
-1357 -1356 -79 0
1357 -1356 79 0
1357 1356 -79 0
-1358 1357 80 0
-1358 -1357 -80 0
1358 -1357 80 0
1358 1357 -80 0
-1359 1358 82 0
-1359 -1358 -82 0
1359 -1358 82 0
1359 1358 -82 0
-1360 1359 84 0
-1360 -1359 -84 0
1360 -1359 84 0
1360 1359 -84 0
-1361 1360 87 0
-1361 -1360 -87 0
1361 -1360 87 0
1361 1360 -87 0
-1362 1361 88 0
-1362 -1361 -88 0
1362 -1361 88 0
1362 1361 -88 0
-1363 1362 92 0
-1363 -1362 -92 0
1363 -1362 92 0
1363 1362 -92 0
-1364 1363 97 0
-1364 -1363 -97 0
1364 -1363 97 0
1364 1363 -97 0
-1365 1364 103 0
-1365 -1364 -103 0
1365 -1364 103 0
1365 1364 -103 0
-1366 1365 106 0
-1366 -1365 -106 0
1366 -1365 106 0
1366 1365 -106 0
-1367 1366 107 0
-1367 -1366 -107 0
1367 -1366 107 0
1367 1366 -107 0
-1368 1367 108 0
-1368 -1367 -108 0
1368 -1367 108 0
1368 1367 -108 0
-1369 1368 110 0
-1369 -1368 -110 0
1369 -1368 110 0
1369 1368 -110 0
-1370 1369 111 0
-1370 -1369 -111 0
1370 -1369 111 0
1370 1369 -111 0
-1371 1370 113 0
-1371 -1370 -113 0
1371 -1370 113 0
1371 1370 -113 0
-1372 1371 114 0
-1372 -1371 -114 0
1372 -1371 114 0
1372 1371 -114 0
-1373 1372 115 0
-1373 -1372 -115 0
1373 -1372 115 0
1373 1372 -115 0
-1374 1373 116 0
-1374 -1373 -116 0
1374 -1373 116 0
1374 1373 -116 0
-1375 1374 117 0
-1375 -1374 -117 0
1375 -1374 117 0
1375 1374 -117 0
-1376 1375 118 0
-1376 -1375 -118 0
1376 -1375 118 0
1376 1375 -118 0
-1377 1376 120 0
-1377 -1376 -120 0
1377 -1376 120 0
1377 1376 -120 0
-1378 1377 121 0
-1378 -1377 -121 0
1378 -1377 121 0
1378 1377 -121 0
-1379 1378 122 0
-1379 -1378 -122 0
1379 -1378 122 0
1379 1378 -122 0
-1380 1379 123 0
-1380 -1379 -123 0
1380 -1379 123 0
1380 1379 -123 0
-1381 1380 125 0
-1381 -1380 -125 0
1381 -1380 125 0
1381 1380 -125 0
-1382 1381 127 0
-1382 -1381 -127 0
1382 -1381 127 0
1382 1381 -127 0
-1383 1382 135 0
-1383 -1382 -135 0
1383 -1382 135 0
1383 1382 -135 0
-1384 1383 137 0
-1384 -1383 -137 0
1384 -1383 137 0
1384 1383 -137 0
-1385 1384 138 0
-1385 -1384 -138 0
1385 -1384 138 0
1385 1384 -138 0
-1386 1385 140 0
-1386 -1385 -140 0
1386 -1385 140 0
1386 1385 -140 0
-1387 1386 141 0
-1387 -1386 -141 0
1387 -1386 141 0
1387 1386 -141 0
-1388 1387 142 0
-1388 -1387 -142 0
1388 -1387 142 0
1388 1387 -142 0
-1389 1388 143 0
-1389 -1388 -143 0
1389 -1388 143 0
1389 1388 -143 0
-1390 1389 144 0
-1390 -1389 -144 0
1390 -1389 144 0
1390 1389 -144 0
-1391 1390 158 0
-1391 -1390 -158 0
1391 -1390 158 0
1391 1390 -158 0
-1392 1391 213 0
-1392 -1391 -213 0
1392 -1391 213 0
1392 1391 -213 0
-1393 1392 214 0
-1393 -1392 -214 0
1393 -1392 214 0
1393 1392 -214 0
-1394 1393 222 0
-1394 -1393 -222 0
1394 -1393 222 0
1394 1393 -222 0
-1395 1394 224 0
-1395 -1394 -224 0
1395 -1394 224 0
1395 1394 -224 0
-1396 1395 228 0
-1396 -1395 -228 0
1396 -1395 228 0
1396 1395 -228 0
-1397 1396 230 0
-1397 -1396 -230 0
1397 -1396 230 0
1397 1396 -230 0
-1398 1397 232 0
-1398 -1397 -232 0
1398 -1397 232 0
1398 1397 -232 0
-1399 1398 233 0
-1399 -1398 -233 0
1399 -1398 233 0
1399 1398 -233 0
-1400 1399 241 0
-1400 -1399 -241 0
1400 -1399 241 0
1400 1399 -241 0
-1401 1400 243 0
-1401 -1400 -243 0
1401 -1400 243 0
1401 1400 -243 0
-1402 1401 257 0
-1402 -1401 -257 0
1402 -1401 257 0
1402 1401 -257 0
-1403 1402 258 0
-1403 -1402 -258 0
1403 -1402 258 0
1403 1402 -258 0
-1404 1403 259 0
-1404 -1403 -259 0
1404 -1403 259 0
1404 1403 -259 0
-1405 1404 260 0
-1405 -1404 -260 0
1405 -1404 260 0
1405 1404 -260 0
-1406 1405 265 0
-1406 -1405 -265 0
1406 -1405 265 0
1406 1405 -265 0
-1407 1406 266 0
-1407 -1406 -266 0
1407 -1406 266 0
1407 1406 -266 0
-1408 1407 267 0
-1408 -1407 -267 0
1408 -1407 267 0
1408 1407 -267 0
-1409 1408 268 0
-1409 -1408 -268 0
1409 -1408 268 0
1409 1408 -268 0
-1410 1409 269 0
-1410 -1409 -269 0
1410 -1409 269 0
1410 1409 -269 0
-1411 1410 270 0
-1411 -1410 -270 0
1411 -1410 270 0
1411 1410 -270 0
-1412 1411 272 0
-1412 -1411 -272 0
1412 -1411 272 0
1412 1411 -272 0
-1413 1412 273 0
-1413 -1412 -273 0
1413 -1412 273 0
1413 1412 -273 0
-1414 1413 274 0
-1414 -1413 -274 0
1414 -1413 274 0
1414 1413 -274 0
-1415 1414 275 0
-1415 -1414 -275 0
1415 -1414 275 0
1415 1414 -275 0
-1416 1415 283 0
-1416 -1415 -283 0
1416 -1415 283 0
1416 1415 -283 0
-1417 1416 284 0
-1417 -1416 -284 0
1417 -1416 284 0
1417 1416 -284 0
-1418 1417 285 0
-1418 -1417 -285 0
1418 -1417 285 0
1418 1417 -285 0
-1419 1418 287 0
-1419 -1418 -287 0
1419 -1418 287 0
1419 1418 -287 0
-1420 1419 288 0
-1420 -1419 -288 0
1420 -1419 288 0
1420 1419 -288 0
-1420 0
-1421 69 72 0
-1421 -69 -72 0
1421 -69 72 0
1421 69 -72 0
-1422 1421 73 0
-1422 -1421 -73 0
1422 -1421 73 0
1422 1421 -73 0
-1423 1422 75 0
-1423 -1422 -75 0
1423 -1422 75 0
1423 1422 -75 0
-1424 1423 76 0
-1424 -1423 -76 0
1424 -1423 76 0
1424 1423 -76 0
-1425 1424 77 0
-1425 -1424 -77 0
1425 -1424 77 0
1425 1424 -77 0
-1426 1425 79 0
-1426 -1425 -79 0
1426 -1425 79 0
1426 1425 -79 0
-1427 1426 80 0
-1427 -1426 -80 0
1427 -1426 80 0
1427 1426 -80 0
-1428 1427 81 0
-1428 -1427 -81 0
1428 -1427 81 0
1428 1427 -81 0
-1429 1428 83 0
-1429 -1428 -83 0
1429 -1428 83 0
1429 1428 -83 0
-1430 1429 88 0
-1430 -1429 -88 0
1430 -1429 88 0
1430 1429 -88 0
-1431 1430 89 0
-1431 -1430 -89 0
1431 -1430 89 0
1431 1430 -89 0
-1432 1431 91 0
-1432 -1431 -91 0
1432 -1431 91 0
1432 1431 -91 0
-1433 1432 95 0
-1433 -1432 -95 0
1433 -1432 95 0
1433 1432 -95 0
-1434 1433 97 0
-1434 -1433 -97 0
1434 -1433 97 0
1434 1433 -97 0
-1435 1434 99 0
-1435 -1434 -99 0
1435 -1434 99 0
1435 1434 -99 0
-1436 1435 100 0
-1436 -1435 -100 0
1436 -1435 100 0
1436 1435 -100 0
-1437 1436 101 0
-1437 -1436 -101 0
1437 -1436 101 0
1437 1436 -101 0
-1438 1437 102 0
-1438 -1437 -102 0
1438 -1437 102 0
1438 1437 -102 0
-1439 1438 103 0
-1439 -1438 -103 0
1439 -1438 103 0
1439 1438 -103 0
-1440 1439 106 0
-1440 -1439 -106 0
1440 -1439 106 0
1440 1439 -106 0
-1441 1440 107 0
-1441 -1440 -107 0
1441 -1440 107 0
1441 1440 -107 0
-1442 1441 112 0
-1442 -1441 -112 0
1442 -1441 112 0
1442 1441 -112 0
-1443 1442 113 0
-1443 -1442 -113 0
1443 -1442 113 0
1443 1442 -113 0
-1444 1443 114 0
-1444 -1443 -114 0
1444 -1443 114 0
1444 1443 -114 0
-1445 1444 115 0
-1445 -1444 -115 0
1445 -1444 115 0
1445 1444 -115 0
-1446 1445 117 0
-1446 -1445 -117 0
1446 -1445 117 0
1446 1445 -117 0
-1447 1446 119 0
-1447 -1446 -119 0
1447 -1446 119 0
1447 1446 -119 0
-1448 1447 120 0
-1448 -1447 -120 0
1448 -1447 120 0
1448 1447 -120 0
-1449 1448 121 0
-1449 -1448 -121 0
1449 -1448 121 0
1449 1448 -121 0
-1450 1449 125 0
-1450 -1449 -125 0
1450 -1449 125 0
1450 1449 -125 0
-1451 1450 127 0
-1451 -1450 -127 0
1451 -1450 127 0
1451 1450 -127 0
-1452 1451 129 0
-1452 -1451 -129 0
1452 -1451 129 0
1452 1451 -129 0
-1453 1452 130 0
-1453 -1452 -130 0
1453 -1452 130 0
1453 1452 -130 0
-1454 1453 131 0
-1454 -1453 -131 0
1454 -1453 131 0
1454 1453 -131 0
-1455 1454 132 0
-1455 -1454 -132 0
1455 -1454 132 0
1455 1454 -132 0
-1456 1455 133 0
-1456 -1455 -133 0
1456 -1455 133 0
1456 1455 -133 0
-1457 1456 134 0
-1457 -1456 -134 0
1457 -1456 134 0
1457 1456 -134 0
-1458 1457 139 0
-1458 -1457 -139 0
1458 -1457 139 0
1458 1457 -139 0
-1459 1458 140 0
-1459 -1458 -140 0
1459 -1458 140 0
1459 1458 -140 0
-1460 1459 141 0
-1460 -1459 -141 0
1460 -1459 141 0
1460 1459 -141 0
-1461 1460 143 0
-1461 -1460 -143 0
1461 -1460 143 0
1461 1460 -143 0
-1462 1461 159 0
-1462 -1461 -159 0
1462 -1461 159 0
1462 1461 -159 0
-1463 1462 214 0
-1463 -1462 -214 0
1463 -1462 214 0
1463 1462 -214 0
-1464 1463 215 0
-1464 -1463 -215 0
1464 -1463 215 0
1464 1463 -215 0
-1465 1464 217 0
-1465 -1464 -217 0
1465 -1464 217 0
1465 1464 -217 0
-1466 1465 223 0
-1466 -1465 -223 0
1466 -1465 223 0
1466 1465 -223 0
-1467 1466 225 0
-1467 -1466 -225 0
1467 -1466 225 0
1467 1466 -225 0
-1468 1467 231 0
-1468 -1467 -231 0
1468 -1467 231 0
1468 1467 -231 0
-1469 1468 233 0
-1469 -1468 -233 0
1469 -1468 233 0
1469 1468 -233 0
-1470 1469 234 0
-1470 -1469 -234 0
1470 -1469 234 0
1470 1469 -234 0
-1471 1470 242 0
-1471 -1470 -242 0
1471 -1470 242 0
1471 1470 -242 0
-1472 1471 244 0
-1472 -1471 -244 0
1472 -1471 244 0
1472 1471 -244 0
-1473 1472 253 0
-1473 -1472 -253 0
1473 -1472 253 0
1473 1472 -253 0
-1474 1473 258 0
-1474 -1473 -258 0
1474 -1473 258 0
1474 1473 -258 0
-1475 1474 260 0
-1475 -1474 -260 0
1475 -1474 260 0
1475 1474 -260 0
-1476 1475 261 0
-1476 -1475 -261 0
1476 -1475 261 0
1476 1475 -261 0
-1477 1476 265 0
-1477 -1476 -265 0
1477 -1476 265 0
1477 1476 -265 0
-1478 1477 266 0
-1478 -1477 -266 0
1478 -1477 266 0
1478 1477 -266 0
-1479 1478 267 0
-1479 -1478 -267 0
1479 -1478 267 0
1479 1478 -267 0
-1480 1479 268 0
-1480 -1479 -268 0
1480 -1479 268 0
1480 1479 -268 0
-1481 1480 269 0
-1481 -1480 -269 0
1481 -1480 269 0
1481 1480 -269 0
-1482 1481 270 0
-1482 -1481 -270 0
1482 -1481 270 0
1482 1481 -270 0
-1483 1482 273 0
-1483 -1482 -273 0
1483 -1482 273 0
1483 1482 -273 0
-1484 1483 274 0
-1484 -1483 -274 0
1484 -1483 274 0
1484 1483 -274 0
-1485 1484 275 0
-1485 -1484 -275 0
1485 -1484 275 0
1485 1484 -275 0
-1486 1485 276 0
-1486 -1485 -276 0
1486 -1485 276 0
1486 1485 -276 0
-1487 1486 283 0
-1487 -1486 -283 0
1487 -1486 283 0
1487 1486 -283 0
-1488 1487 284 0
-1488 -1487 -284 0
1488 -1487 284 0
1488 1487 -284 0
-1489 1488 285 0
-1489 -1488 -285 0
1489 -1488 285 0
1489 1488 -285 0
-1490 1489 286 0
-1490 -1489 -286 0
1490 -1489 286 0
1490 1489 -286 0
-1491 1490 288 0
-1491 -1490 -288 0
1491 -1490 288 0
1491 1490 -288 0
-1491 0
-1492 69 70 0
-1492 -69 -70 0
1492 -69 70 0
1492 69 -70 0
-1493 1492 71 0
-1493 -1492 -71 0
1493 -1492 71 0
1493 1492 -71 0
-1494 1493 77 0
-1494 -1493 -77 0
1494 -1493 77 0
1494 1493 -77 0
-1495 1494 80 0
-1495 -1494 -80 0
1495 -1494 80 0
1495 1494 -80 0
-1496 1495 81 0
-1496 -1495 -81 0
1496 -1495 81 0
1496 1495 -81 0
-1497 1496 82 0
-1497 -1496 -82 0
1497 -1496 82 0
1497 1496 -82 0
-1498 1497 84 0
-1498 -1497 -84 0
1498 -1497 84 0
1498 1497 -84 0
-1499 1498 89 0
-1499 -1498 -89 0
1499 -1498 89 0
1499 1498 -89 0
-1500 1499 90 0
-1500 -1499 -90 0
1500 -1499 90 0
1500 1499 -90 0
-1501 1500 91 0
-1501 -1500 -91 0
1501 -1500 91 0
1501 1500 -91 0
-1502 1501 92 0
-1502 -1501 -92 0
1502 -1501 92 0
1502 1501 -92 0
-1503 1502 93 0
-1503 -1502 -93 0
1503 -1502 93 0
1503 1502 -93 0
-1504 1503 95 0
-1504 -1503 -95 0
1504 -1503 95 0
1504 1503 -95 0
-1505 1504 96 0
-1505 -1504 -96 0
1505 -1504 96 0
1505 1504 -96 0
-1506 1505 99 0
-1506 -1505 -99 0
1506 -1505 99 0
1506 1505 -99 0
-1507 1506 106 0
-1507 -1506 -106 0
1507 -1506 106 0
1507 1506 -106 0
-1508 1507 107 0
-1508 -1507 -107 0
1508 -1507 107 0
1508 1507 -107 0
-1509 1508 111 0
-1509 -1508 -111 0
1509 -1508 111 0
1509 1508 -111 0
-1510 1509 114 0
-1510 -1509 -114 0
1510 -1509 114 0
1510 1509 -114 0
-1511 1510 115 0
-1511 -1510 -115 0
1511 -1510 115 0
1511 1510 -115 0
-1512 1511 121 0
-1512 -1511 -121 0
1512 -1511 121 0
1512 1511 -121 0
-1513 1512 123 0
-1513 -1512 -123 0
1513 -1512 123 0
1513 1512 -123 0
-1514 1513 124 0
-1514 -1513 -124 0
1514 -1513 124 0
1514 1513 -124 0
-1515 1514 125 0
-1515 -1514 -125 0
1515 -1514 125 0
1515 1514 -125 0
-1516 1515 129 0
-1516 -1515 -129 0
1516 -1515 129 0
1516 1515 -129 0
-1517 1516 135 0
-1517 -1516 -135 0
1517 -1516 135 0
1517 1516 -135 0
-1518 1517 136 0
-1518 -1517 -136 0
1518 -1517 136 0
1518 1517 -136 0
-1519 1518 138 0
-1519 -1518 -138 0
1519 -1518 138 0
1519 1518 -138 0
-1520 1519 141 0
-1520 -1519 -141 0
1520 -1519 141 0
1520 1519 -141 0
-1521 1520 160 0
-1521 -1520 -160 0
1521 -1520 160 0
1521 1520 -160 0
-1522 1521 215 0
-1522 -1521 -215 0
1522 -1521 215 0
1522 1521 -215 0
-1523 1522 216 0
-1523 -1522 -216 0
1523 -1522 216 0
1523 1522 -216 0
-1524 1523 218 0
-1524 -1523 -218 0
1524 -1523 218 0
1524 1523 -218 0
-1525 1524 224 0
-1525 -1524 -224 0
1525 -1524 224 0
1525 1524 -224 0
-1526 1525 226 0
-1526 -1525 -226 0
1526 -1525 226 0
1526 1525 -226 0
-1527 1526 229 0
-1527 -1526 -229 0
1527 -1526 229 0
1527 1526 -229 0
-1528 1527 232 0
-1528 -1527 -232 0
1528 -1527 232 0
1528 1527 -232 0
-1529 1528 234 0
-1529 -1528 -234 0
1529 -1528 234 0
1529 1528 -234 0
-1530 1529 243 0
-1530 -1529 -243 0
1530 -1529 243 0
1530 1529 -243 0
-1531 1530 245 0
-1531 -1530 -245 0
1531 -1530 245 0
1531 1530 -245 0
-1532 1531 253 0
-1532 -1531 -253 0
1532 -1531 253 0
1532 1531 -253 0
-1533 1532 254 0
-1533 -1532 -254 0
1533 -1532 254 0
1533 1532 -254 0
-1534 1533 261 0
-1534 -1533 -261 0
1534 -1533 261 0
1534 1533 -261 0
-1535 1534 262 0
-1535 -1534 -262 0
1535 -1534 262 0
1535 1534 -262 0
-1536 1535 265 0
-1536 -1535 -265 0
1536 -1535 265 0
1536 1535 -265 0
-1537 1536 266 0
-1537 -1536 -266 0
1537 -1536 266 0
1537 1536 -266 0
-1538 1537 267 0
-1538 -1537 -267 0
1538 -1537 267 0
1538 1537 -267 0
-1539 1538 268 0
-1539 -1538 -268 0
1539 -1538 268 0
1539 1538 -268 0
-1540 1539 269 0
-1540 -1539 -269 0
1540 -1539 269 0
1540 1539 -269 0
-1541 1540 270 0
-1541 -1540 -270 0
1541 -1540 270 0
1541 1540 -270 0
-1542 1541 271 0
-1542 -1541 -271 0
1542 -1541 271 0
1542 1541 -271 0
-1543 1542 274 0
-1543 -1542 -274 0
1543 -1542 274 0
1543 1542 -274 0
-1544 1543 275 0
-1544 -1543 -275 0
1544 -1543 275 0
1544 1543 -275 0
-1545 1544 276 0
-1545 -1544 -276 0
1545 -1544 276 0
1545 1544 -276 0
-1546 1545 283 0
-1546 -1545 -283 0
1546 -1545 283 0
1546 1545 -283 0
-1547 1546 284 0
-1547 -1546 -284 0
1547 -1546 284 0
1547 1546 -284 0
-1548 1547 285 0
-1548 -1547 -285 0
1548 -1547 285 0
1548 1547 -285 0
-1549 1548 286 0
-1549 -1548 -286 0
1549 -1548 286 0
1549 1548 -286 0
-1550 1549 287 0
-1550 -1549 -287 0
1550 -1549 287 0
1550 1549 -287 0
-1550 0
-1551 70 71 0
-1551 -70 -71 0
1551 -70 71 0
1551 70 -71 0
-1552 1551 72 0
-1552 -1551 -72 0
1552 -1551 72 0
1552 1551 -72 0
-1553 1552 78 0
-1553 -1552 -78 0
1553 -1552 78 0
1553 1552 -78 0
-1554 1553 82 0
-1554 -1553 -82 0
1554 -1553 82 0
1554 1553 -82 0
-1555 1554 87 0
-1555 -1554 -87 0
1555 -1554 87 0
1555 1554 -87 0
-1556 1555 89 0
-1556 -1555 -89 0
1556 -1555 89 0
1556 1555 -89 0
-1557 1556 90 0
-1557 -1556 -90 0
1557 -1556 90 0
1557 1556 -90 0
-1558 1557 92 0
-1558 -1557 -92 0
1558 -1557 92 0
1558 1557 -92 0
-1559 1558 94 0
-1559 -1558 -94 0
1559 -1558 94 0
1559 1558 -94 0
-1560 1559 95 0
-1560 -1559 -95 0
1560 -1559 95 0
1560 1559 -95 0
-1561 1560 96 0
-1561 -1560 -96 0
1561 -1560 96 0
1561 1560 -96 0
-1562 1561 100 0
-1562 -1561 -100 0
1562 -1561 100 0
1562 1561 -100 0
-1563 1562 107 0
-1563 -1562 -107 0
1563 -1562 107 0
1563 1562 -107 0
-1564 1563 108 0
-1564 -1563 -108 0
1564 -1563 108 0
1564 1563 -108 0
-1565 1564 111 0
-1565 -1564 -111 0
1565 -1564 111 0
1565 1564 -111 0
-1566 1565 112 0
-1566 -1565 -112 0
1566 -1565 112 0
1566 1565 -112 0
-1567 1566 113 0
-1567 -1566 -113 0
1567 -1566 113 0
1567 1566 -113 0
-1568 1567 116 0
-1568 -1567 -116 0
1568 -1567 116 0
1568 1567 -116 0
-1569 1568 122 0
-1569 -1568 -122 0
1569 -1568 122 0
1569 1568 -122 0
-1570 1569 124 0
-1570 -1569 -124 0
1570 -1569 124 0
1570 1569 -124 0
-1571 1570 125 0
-1571 -1570 -125 0
1571 -1570 125 0
1571 1570 -125 0
-1572 1571 126 0
-1572 -1571 -126 0
1572 -1571 126 0
1572 1571 -126 0
-1573 1572 130 0
-1573 -1572 -130 0
1573 -1572 130 0
1573 1572 -130 0
-1574 1573 133 0
-1574 -1573 -133 0
1574 -1573 133 0
1574 1573 -133 0
-1575 1574 136 0
-1575 -1574 -136 0
1575 -1574 136 0
1575 1574 -136 0
-1576 1575 137 0
-1576 -1575 -137 0
1576 -1575 137 0
1576 1575 -137 0
-1577 1576 142 0
-1577 -1576 -142 0
1577 -1576 142 0
1577 1576 -142 0
-1578 1577 161 0
-1578 -1577 -161 0
1578 -1577 161 0
1578 1577 -161 0
-1579 1578 213 0
-1579 -1578 -213 0
1579 -1578 213 0
1579 1578 -213 0
-1580 1579 215 0
-1580 -1579 -215 0
1580 -1579 215 0
1580 1579 -215 0
-1581 1580 216 0
-1581 -1580 -216 0
1581 -1580 216 0
1581 1580 -216 0
-1582 1581 219 0
-1582 -1581 -219 0
1582 -1581 219 0
1582 1581 -219 0
-1583 1582 225 0
-1583 -1582 -225 0
1583 -1582 225 0
1583 1582 -225 0
-1584 1583 227 0
-1584 -1583 -227 0
1584 -1583 227 0
1584 1583 -227 0
-1585 1584 229 0
-1585 -1584 -229 0
1585 -1584 229 0
1585 1584 -229 0
-1586 1585 230 0
-1586 -1585 -230 0
1586 -1585 230 0
1586 1585 -230 0
-1587 1586 233 0
-1587 -1586 -233 0
1587 -1586 233 0
1587 1586 -233 0
-1588 1587 235 0
-1588 -1587 -235 0
1588 -1587 235 0
1588 1587 -235 0
-1589 1588 236 0
-1589 -1588 -236 0
1589 -1588 236 0
1589 1588 -236 0
-1590 1589 237 0
-1590 -1589 -237 0
1590 -1589 237 0
1590 1589 -237 0
-1591 1590 238 0
-1591 -1590 -238 0
1591 -1590 238 0
1591 1590 -238 0
-1592 1591 239 0
-1592 -1591 -239 0
1592 -1591 239 0
1592 1591 -239 0
-1593 1592 240 0
-1593 -1592 -240 0
1593 -1592 240 0
1593 1592 -240 0
-1594 1593 241 0
-1594 -1593 -241 0
1594 -1593 241 0
1594 1593 -241 0
-1595 1594 242 0
-1595 -1594 -242 0
1595 -1594 242 0
1595 1594 -242 0
-1596 1595 243 0
-1596 -1595 -243 0
1596 -1595 243 0
1596 1595 -243 0
-1597 1596 245 0
-1597 -1596 -245 0
1597 -1596 245 0
1597 1596 -245 0
-1598 1597 253 0
-1598 -1597 -253 0
1598 -1597 253 0
1598 1597 -253 0
-1599 1598 256 0
-1599 -1598 -256 0
1599 -1598 256 0
1599 1598 -256 0
-1600 1599 257 0
-1600 -1599 -257 0
1600 -1599 257 0
1600 1599 -257 0
-1601 1600 258 0
-1601 -1600 -258 0
1601 -1600 258 0
1601 1600 -258 0
-1602 1601 262 0
-1602 -1601 -262 0
1602 -1601 262 0
1602 1601 -262 0
-1603 1602 263 0
-1603 -1602 -263 0
1603 -1602 263 0
1603 1602 -263 0
-1604 1603 266 0
-1604 -1603 -266 0
1604 -1603 266 0
1604 1603 -266 0
-1605 1604 268 0
-1605 -1604 -268 0
1605 -1604 268 0
1605 1604 -268 0
-1606 1605 270 0
-1606 -1605 -270 0
1606 -1605 270 0
1606 1605 -270 0
-1607 1606 272 0
-1607 -1606 -272 0
1607 -1606 272 0
1607 1606 -272 0
-1608 1607 273 0
-1608 -1607 -273 0
1608 -1607 273 0
1608 1607 -273 0
-1609 1608 276 0
-1609 -1608 -276 0
1609 -1608 276 0
1609 1608 -276 0
-1610 1609 285 0
-1610 -1609 -285 0
1610 -1609 285 0
1610 1609 -285 0
-1611 1610 287 0
-1611 -1610 -287 0
1611 -1610 287 0
1611 1610 -287 0
-1611 0
-1612 69 72 0
-1612 -69 -72 0
1612 -69 72 0
1612 69 -72 0
-1613 1612 73 0
-1613 -1612 -73 0
1613 -1612 73 0
1613 1612 -73 0
-1614 1613 74 0
-1614 -1613 -74 0
1614 -1613 74 0
1614 1613 -74 0
-1615 1614 76 0
-1615 -1614 -76 0
1615 -1614 76 0
1615 1614 -76 0
-1616 1615 78 0
-1616 -1615 -78 0
1616 -1615 78 0
1616 1615 -78 0
-1617 1616 79 0
-1617 -1616 -79 0
1617 -1616 79 0
1617 1616 -79 0
-1618 1617 81 0
-1618 -1617 -81 0
1618 -1617 81 0
1618 1617 -81 0
-1619 1618 87 0
-1619 -1618 -87 0
1619 -1618 87 0
1619 1618 -87 0
-1620 1619 88 0
-1620 -1619 -88 0
1620 -1619 88 0
1620 1619 -88 0
-1621 1620 89 0
-1621 -1620 -89 0
1621 -1620 89 0
1621 1620 -89 0
-1622 1621 90 0
-1622 -1621 -90 0
1622 -1621 90 0
1622 1621 -90 0
-1623 1622 91 0
-1623 -1622 -91 0
1623 -1622 91 0
1623 1622 -91 0
-1624 1623 93 0
-1624 -1623 -93 0
1624 -1623 93 0
1624 1623 -93 0
-1625 1624 95 0
-1625 -1624 -95 0
1625 -1624 95 0
1625 1624 -95 0
-1626 1625 96 0
-1626 -1625 -96 0
1626 -1625 96 0
1626 1625 -96 0
-1627 1626 97 0
-1627 -1626 -97 0
1627 -1626 97 0
1627 1626 -97 0
-1628 1627 98 0
-1628 -1627 -98 0
1628 -1627 98 0
1628 1627 -98 0
-1629 1628 99 0
-1629 -1628 -99 0
1629 -1628 99 0
1629 1628 -99 0
-1630 1629 100 0
-1630 -1629 -100 0
1630 -1629 100 0
1630 1629 -100 0
-1631 1630 102 0
-1631 -1630 -102 0
1631 -1630 102 0
1631 1630 -102 0
-1632 1631 103 0
-1632 -1631 -103 0
1632 -1631 103 0
1632 1631 -103 0
-1633 1632 104 0
-1633 -1632 -104 0
1633 -1632 104 0
1633 1632 -104 0
-1634 1633 106 0
-1634 -1633 -106 0
1634 -1633 106 0
1634 1633 -106 0
-1635 1634 112 0
-1635 -1634 -112 0
1635 -1634 112 0
1635 1634 -112 0
-1636 1635 113 0
-1636 -1635 -113 0
1636 -1635 113 0
1636 1635 -113 0
-1637 1636 114 0
-1637 -1636 -114 0
1637 -1636 114 0
1637 1636 -114 0
-1638 1637 116 0
-1638 -1637 -116 0
1638 -1637 116 0
1638 1637 -116 0
-1639 1638 117 0
-1639 -1638 -117 0
1639 -1638 117 0
1639 1638 -117 0
-1640 1639 118 0
-1640 -1639 -118 0
1640 -1639 118 0
1640 1639 -118 0
-1641 1640 120 0
-1641 -1640 -120 0
1641 -1640 120 0
1641 1640 -120 0
-1642 1641 122 0
-1642 -1641 -122 0
1642 -1641 122 0
1642 1641 -122 0
-1643 1642 124 0
-1643 -1642 -124 0
1643 -1642 124 0
1643 1642 -124 0
-1644 1643 127 0
-1644 -1643 -127 0
1644 -1643 127 0
1644 1643 -127 0
-1645 1644 128 0
-1645 -1644 -128 0
1645 -1644 128 0
1645 1644 -128 0
-1646 1645 129 0
-1646 -1645 -129 0
1646 -1645 129 0
1646 1645 -129 0
-1647 1646 130 0
-1647 -1646 -130 0
1647 -1646 130 0
1647 1646 -130 0
-1648 1647 132 0
-1648 -1647 -132 0
1648 -1647 132 0
1648 1647 -132 0
-1649 1648 136 0
-1649 -1648 -136 0
1649 -1648 136 0
1649 1648 -136 0
-1650 1649 137 0
-1650 -1649 -137 0
1650 -1649 137 0
1650 1649 -137 0
-1651 1650 140 0
-1651 -1650 -140 0
1651 -1650 140 0
1651 1650 -140 0
-1652 1651 142 0
-1652 -1651 -142 0
1652 -1651 142 0
1652 1651 -142 0
-1653 1652 143 0
-1653 -1652 -143 0
1653 -1652 143 0
1653 1652 -143 0
-1654 1653 144 0
-1654 -1653 -144 0
1654 -1653 144 0
1654 1653 -144 0
-1655 1654 162 0
-1655 -1654 -162 0
1655 -1654 162 0
1655 1654 -162 0
-1656 1655 213 0
-1656 -1655 -213 0
1656 -1655 213 0
1656 1655 -213 0
-1657 1656 214 0
-1657 -1656 -214 0
1657 -1656 214 0
1657 1656 -214 0
-1658 1657 215 0
-1658 -1657 -215 0
1658 -1657 215 0
1658 1657 -215 0
-1659 1658 216 0
-1659 -1658 -216 0
1659 -1658 216 0
1659 1658 -216 0
-1660 1659 220 0
-1660 -1659 -220 0
1660 -1659 220 0
1660 1659 -220 0
-1661 1660 226 0
-1661 -1660 -226 0
1661 -1660 226 0
1661 1660 -226 0
-1662 1661 228 0
-1662 -1661 -228 0
1662 -1661 228 0
1662 1661 -228 0
-1663 1662 230 0
-1663 -1662 -230 0
1663 -1662 230 0
1663 1662 -230 0
-1664 1663 231 0
-1664 -1663 -231 0
1664 -1663 231 0
1664 1663 -231 0
-1665 1664 234 0
-1665 -1664 -234 0
1665 -1664 234 0
1665 1664 -234 0
-1666 1665 241 0
-1666 -1665 -241 0
1666 -1665 241 0
1666 1665 -241 0
-1667 1666 245 0
-1667 -1666 -245 0
1667 -1666 245 0
1667 1666 -245 0
-1668 1667 255 0
-1668 -1667 -255 0
1668 -1667 255 0
1668 1667 -255 0
-1669 1668 256 0
-1669 -1668 -256 0
1669 -1668 256 0
1669 1668 -256 0
-1670 1669 263 0
-1670 -1669 -263 0
1670 -1669 263 0
1670 1669 -263 0
-1671 1670 264 0
-1671 -1670 -264 0
1671 -1670 264 0
1671 1670 -264 0
-1672 1671 274 0
-1672 -1671 -274 0
1672 -1671 274 0
1672 1671 -274 0
-1673 1672 275 0
-1673 -1672 -275 0
1673 -1672 275 0
1673 1672 -275 0
-1674 1673 284 0
-1674 -1673 -284 0
1674 -1673 284 0
1674 1673 -284 0
-1674 0
-1675 76 78 0
-1675 -76 -78 0
1675 -76 78 0
1675 76 -78 0
-1676 1675 80 0
-1676 -1675 -80 0
1676 -1675 80 0
1676 1675 -80 0
-1677 1676 81 0
-1677 -1676 -81 0
1677 -1676 81 0
1677 1676 -81 0
-1678 1677 83 0
-1678 -1677 -83 0
1678 -1677 83 0
1678 1677 -83 0
-1679 1678 84 0
-1679 -1678 -84 0
1679 -1678 84 0
1679 1678 -84 0
-1680 1679 85 0
-1680 -1679 -85 0
1680 -1679 85 0
1680 1679 -85 0
-1681 1680 86 0
-1681 -1680 -86 0
1681 -1680 86 0
1681 1680 -86 0
-1682 1681 87 0
-1682 -1681 -87 0
1682 -1681 87 0
1682 1681 -87 0
-1683 1682 88 0
-1683 -1682 -88 0
1683 -1682 88 0
1683 1682 -88 0
-1684 1683 91 0
-1684 -1683 -91 0
1684 -1683 91 0
1684 1683 -91 0
-1685 1684 93 0
-1685 -1684 -93 0
1685 -1684 93 0
1685 1684 -93 0
-1686 1685 94 0
-1686 -1685 -94 0
1686 -1685 94 0
1686 1685 -94 0
-1687 1686 96 0
-1687 -1686 -96 0
1687 -1686 96 0
1687 1686 -96 0
-1688 1687 98 0
-1688 -1687 -98 0
1688 -1687 98 0
1688 1687 -98 0
-1689 1688 102 0
-1689 -1688 -102 0
1689 -1688 102 0
1689 1688 -102 0
-1690 1689 104 0
-1690 -1689 -104 0
1690 -1689 104 0
1690 1689 -104 0
-1691 1690 106 0
-1691 -1690 -106 0
1691 -1690 106 0
1691 1690 -106 0
-1692 1691 107 0
-1692 -1691 -107 0
1692 -1691 107 0
1692 1691 -107 0
-1693 1692 111 0
-1693 -1692 -111 0
1693 -1692 111 0
1693 1692 -111 0
-1694 1693 112 0
-1694 -1693 -112 0
1694 -1693 112 0
1694 1693 -112 0
-1695 1694 114 0
-1695 -1694 -114 0
1695 -1694 114 0
1695 1694 -114 0
-1696 1695 115 0
-1696 -1695 -115 0
1696 -1695 115 0
1696 1695 -115 0
-1697 1696 116 0
-1697 -1696 -116 0
1697 -1696 116 0
1697 1696 -116 0
-1698 1697 117 0
-1698 -1697 -117 0
1698 -1697 117 0
1698 1697 -117 0
-1699 1698 119 0
-1699 -1698 -119 0
1699 -1698 119 0
1699 1698 -119 0
-1700 1699 120 0
-1700 -1699 -120 0
1700 -1699 120 0
1700 1699 -120 0
-1701 1700 122 0
-1701 -1700 -122 0
1701 -1700 122 0
1701 1700 -122 0
-1702 1701 124 0
-1702 -1701 -124 0
1702 -1701 124 0
1702 1701 -124 0
-1703 1702 127 0
-1703 -1702 -127 0
1703 -1702 127 0
1703 1702 -127 0
-1704 1703 130 0
-1704 -1703 -130 0
1704 -1703 130 0
1704 1703 -130 0
-1705 1704 131 0
-1705 -1704 -131 0
1705 -1704 131 0
1705 1704 -131 0
-1706 1705 132 0
-1706 -1705 -132 0
1706 -1705 132 0
1706 1705 -132 0
-1707 1706 133 0
-1707 -1706 -133 0
1707 -1706 133 0
1707 1706 -133 0
-1708 1707 134 0
-1708 -1707 -134 0
1708 -1707 134 0
1708 1707 -134 0
-1709 1708 138 0
-1709 -1708 -138 0
1709 -1708 138 0
1709 1708 -138 0
-1710 1709 139 0
-1710 -1709 -139 0
1710 -1709 139 0
1710 1709 -139 0
-1711 1710 140 0
-1711 -1710 -140 0
1711 -1710 140 0
1711 1710 -140 0
-1712 1711 141 0
-1712 -1711 -141 0
1712 -1711 141 0
1712 1711 -141 0
-1713 1712 142 0
-1713 -1712 -142 0
1713 -1712 142 0
1713 1712 -142 0
-1714 1713 163 0
-1714 -1713 -163 0
1714 -1713 163 0
1714 1713 -163 0
-1715 1714 213 0
-1715 -1714 -213 0
1715 -1714 213 0
1715 1714 -213 0
-1716 1715 215 0
-1716 -1715 -215 0
1716 -1715 215 0
1716 1715 -215 0
-1717 1716 217 0
-1717 -1716 -217 0
1717 -1716 217 0
1717 1716 -217 0
-1718 1717 219 0
-1718 -1717 -219 0
1718 -1717 219 0
1718 1717 -219 0
-1719 1718 221 0
-1719 -1718 -221 0
1719 -1718 221 0
1719 1718 -221 0
-1720 1719 223 0
-1720 -1719 -223 0
1720 -1719 223 0
1720 1719 -223 0
-1721 1720 224 0
-1721 -1720 -224 0
1721 -1720 224 0
1721 1720 -224 0
-1722 1721 225 0
-1722 -1721 -225 0
1722 -1721 225 0
1722 1721 -225 0
-1723 1722 227 0
-1723 -1722 -227 0
1723 -1722 227 0
1723 1722 -227 0
-1724 1723 228 0
-1724 -1723 -228 0
1724 -1723 228 0
1724 1723 -228 0
-1725 1724 235 0
-1725 -1724 -235 0
1725 -1724 235 0
1725 1724 -235 0
-1726 1725 237 0
-1726 -1725 -237 0
1726 -1725 237 0
1726 1725 -237 0
-1727 1726 238 0
-1727 -1726 -238 0
1727 -1726 238 0
1727 1726 -238 0
-1728 1727 242 0
-1728 -1727 -242 0
1728 -1727 242 0
1728 1727 -242 0
-1729 1728 243 0
-1729 -1728 -243 0
1729 -1728 243 0
1729 1728 -243 0
-1730 1729 244 0
-1730 -1729 -244 0
1730 -1729 244 0
1730 1729 -244 0
-1731 1730 245 0
-1731 -1730 -245 0
1731 -1730 245 0
1731 1730 -245 0
-1732 1731 247 0
-1732 -1731 -247 0
1732 -1731 247 0
1732 1731 -247 0
-1733 1732 248 0
-1733 -1732 -248 0
1733 -1732 248 0
1733 1732 -248 0
-1734 1733 249 0
-1734 -1733 -249 0
1734 -1733 249 0
1734 1733 -249 0
-1735 1734 252 0
-1735 -1734 -252 0
1735 -1734 252 0
1735 1734 -252 0
-1736 1735 253 0
-1736 -1735 -253 0
1736 -1735 253 0
1736 1735 -253 0
-1737 1736 257 0
-1737 -1736 -257 0
1737 -1736 257 0
1737 1736 -257 0
-1738 1737 259 0
-1738 -1737 -259 0
1738 -1737 259 0
1738 1737 -259 0
-1739 1738 260 0
-1739 -1738 -260 0
1739 -1738 260 0
1739 1738 -260 0
-1740 1739 261 0
-1740 -1739 -261 0
1740 -1739 261 0
1740 1739 -261 0
-1741 1740 262 0
-1741 -1740 -262 0
1741 -1740 262 0
1741 1740 -262 0
-1742 1741 263 0
-1742 -1741 -263 0
1742 -1741 263 0
1742 1741 -263 0
-1743 1742 264 0
-1743 -1742 -264 0
1743 -1742 264 0
1743 1742 -264 0
-1744 1743 265 0
-1744 -1743 -265 0
1744 -1743 265 0
1744 1743 -265 0
-1745 1744 270 0
-1745 -1744 -270 0
1745 -1744 270 0
1745 1744 -270 0
-1746 1745 271 0
-1746 -1745 -271 0
1746 -1745 271 0
1746 1745 -271 0
-1747 1746 273 0
-1747 -1746 -273 0
1747 -1746 273 0
1747 1746 -273 0
-1748 1747 278 0
-1748 -1747 -278 0
1748 -1747 278 0
1748 1747 -278 0
-1749 1748 279 0
-1749 -1748 -279 0
1749 -1748 279 0
1749 1748 -279 0
-1750 1749 280 0
-1750 -1749 -280 0
1750 -1749 280 0
1750 1749 -280 0
-1751 1750 282 0
-1751 -1750 -282 0
1751 -1750 282 0
1751 1750 -282 0
-1752 1751 283 0
-1752 -1751 -283 0
1752 -1751 283 0
1752 1751 -283 0
-1753 1752 284 0
-1753 -1752 -284 0
1753 -1752 284 0
1753 1752 -284 0
-1754 1753 285 0
-1754 -1753 -285 0
1754 -1753 285 0
1754 1753 -285 0
-1755 1754 288 0
-1755 -1754 -288 0
1755 -1754 288 0
1755 1754 -288 0
-1755 0
-1756 73 77 0
-1756 -73 -77 0
1756 -73 77 0
1756 73 -77 0
-1757 1756 79 0
-1757 -1756 -79 0
1757 -1756 79 0
1757 1756 -79 0
-1758 1757 81 0
-1758 -1757 -81 0
1758 -1757 81 0
1758 1757 -81 0
-1759 1758 82 0
-1759 -1758 -82 0
1759 -1758 82 0
1759 1758 -82 0
-1760 1759 84 0
-1760 -1759 -84 0
1760 -1759 84 0
1760 1759 -84 0
-1761 1760 86 0
-1761 -1760 -86 0
1761 -1760 86 0
1761 1760 -86 0
-1762 1761 87 0
-1762 -1761 -87 0
1762 -1761 87 0
1762 1761 -87 0
-1763 1762 88 0
-1763 -1762 -88 0
1763 -1762 88 0
1763 1762 -88 0
-1764 1763 89 0
-1764 -1763 -89 0
1764 -1763 89 0
1764 1763 -89 0
-1765 1764 91 0
-1765 -1764 -91 0
1765 -1764 91 0
1765 1764 -91 0
-1766 1765 92 0
-1766 -1765 -92 0
1766 -1765 92 0
1766 1765 -92 0
-1767 1766 94 0
-1767 -1766 -94 0
1767 -1766 94 0
1767 1766 -94 0
-1768 1767 95 0
-1768 -1767 -95 0
1768 -1767 95 0
1768 1767 -95 0
-1769 1768 97 0
-1769 -1768 -97 0
1769 -1768 97 0
1769 1768 -97 0
-1770 1769 99 0
-1770 -1769 -99 0
1770 -1769 99 0
1770 1769 -99 0
-1771 1770 105 0
-1771 -1770 -105 0
1771 -1770 105 0
1771 1770 -105 0
-1772 1771 107 0
-1772 -1771 -107 0
1772 -1771 107 0
1772 1771 -107 0
-1773 1772 108 0
-1773 -1772 -108 0
1773 -1772 108 0
1773 1772 -108 0
-1774 1773 109 0
-1774 -1773 -109 0
1774 -1773 109 0
1774 1773 -109 0
-1775 1774 112 0
-1775 -1774 -112 0
1775 -1774 112 0
1775 1774 -112 0
-1776 1775 113 0
-1776 -1775 -113 0
1776 -1775 113 0
1776 1775 -113 0
-1777 1776 115 0
-1777 -1776 -115 0
1777 -1776 115 0
1777 1776 -115 0
-1778 1777 116 0
-1778 -1777 -116 0
1778 -1777 116 0
1778 1777 -116 0
-1779 1778 117 0
-1779 -1778 -117 0
1779 -1778 117 0
1779 1778 -117 0
-1780 1779 118 0
-1780 -1779 -118 0
1780 -1779 118 0
1780 1779 -118 0
-1781 1780 120 0
-1781 -1780 -120 0
1781 -1780 120 0
1781 1780 -120 0
-1782 1781 123 0
-1782 -1781 -123 0
1782 -1781 123 0
1782 1781 -123 0
-1783 1782 125 0
-1783 -1782 -125 0
1783 -1782 125 0
1783 1782 -125 0
-1784 1783 127 0
-1784 -1783 -127 0
1784 -1783 127 0
1784 1783 -127 0
-1785 1784 128 0
-1785 -1784 -128 0
1785 -1784 128 0
1785 1784 -128 0
-1786 1785 131 0
-1786 -1785 -131 0
1786 -1785 131 0
1786 1785 -131 0
-1787 1786 132 0
-1787 -1786 -132 0
1787 -1786 132 0
1787 1786 -132 0
-1788 1787 133 0
-1788 -1787 -133 0
1788 -1787 133 0
1788 1787 -133 0
-1789 1788 134 0
-1789 -1788 -134 0
1789 -1788 134 0
1789 1788 -134 0
-1790 1789 135 0
-1790 -1789 -135 0
1790 -1789 135 0
1790 1789 -135 0
-1791 1790 140 0
-1791 -1790 -140 0
1791 -1790 140 0
1791 1790 -140 0
-1792 1791 141 0
-1792 -1791 -141 0
1792 -1791 141 0
1792 1791 -141 0
-1793 1792 142 0
-1793 -1792 -142 0
1793 -1792 142 0
1793 1792 -142 0
-1794 1793 143 0
-1794 -1793 -143 0
1794 -1793 143 0
1794 1793 -143 0
-1795 1794 164 0
-1795 -1794 -164 0
1795 -1794 164 0
1795 1794 -164 0
-1796 1795 214 0
-1796 -1795 -214 0
1796 -1795 214 0
1796 1795 -214 0
-1797 1796 216 0
-1797 -1796 -216 0
1797 -1796 216 0
1797 1796 -216 0
-1798 1797 218 0
-1798 -1797 -218 0
1798 -1797 218 0
1798 1797 -218 0
-1799 1798 220 0
-1799 -1798 -220 0
1799 -1798 220 0
1799 1798 -220 0
-1800 1799 222 0
-1800 -1799 -222 0
1800 -1799 222 0
1800 1799 -222 0
-1801 1800 223 0
-1801 -1800 -223 0
1801 -1800 223 0
1801 1800 -223 0
-1802 1801 224 0
-1802 -1801 -224 0
1802 -1801 224 0
1802 1801 -224 0
-1803 1802 225 0
-1803 -1802 -225 0
1803 -1802 225 0
1803 1802 -225 0
-1804 1803 226 0
-1804 -1803 -226 0
1804 -1803 226 0
1804 1803 -226 0
-1805 1804 228 0
-1805 -1804 -228 0
1805 -1804 228 0
1805 1804 -228 0
-1806 1805 236 0
-1806 -1805 -236 0
1806 -1805 236 0
1806 1805 -236 0
-1807 1806 238 0
-1807 -1806 -238 0
1807 -1806 238 0
1807 1806 -238 0
-1808 1807 239 0
-1808 -1807 -239 0
1808 -1807 239 0
1808 1807 -239 0
-1809 1808 243 0
-1809 -1808 -243 0
1809 -1808 243 0
1809 1808 -243 0
-1810 1809 244 0
-1810 -1809 -244 0
1810 -1809 244 0
1810 1809 -244 0
-1811 1810 245 0
-1811 -1810 -245 0
1811 -1810 245 0
1811 1810 -245 0
-1812 1811 246 0
-1812 -1811 -246 0
1812 -1811 246 0
1812 1811 -246 0
-1813 1812 247 0
-1813 -1812 -247 0
1813 -1812 247 0
1813 1812 -247 0
-1814 1813 248 0
-1814 -1813 -248 0
1814 -1813 248 0
1814 1813 -248 0
-1815 1814 249 0
-1815 -1814 -249 0
1815 -1814 249 0
1815 1814 -249 0
-1816 1815 250 0
-1816 -1815 -250 0
1816 -1815 250 0
1816 1815 -250 0
-1817 1816 254 0
-1817 -1816 -254 0
1817 -1816 254 0
1817 1816 -254 0
-1818 1817 258 0
-1818 -1817 -258 0
1818 -1817 258 0
1818 1817 -258 0
-1819 1818 259 0
-1819 -1818 -259 0
1819 -1818 259 0
1819 1818 -259 0
-1820 1819 260 0
-1820 -1819 -260 0
1820 -1819 260 0
1820 1819 -260 0
-1821 1820 261 0
-1821 -1820 -261 0
1821 -1820 261 0
1821 1820 -261 0
-1822 1821 262 0
-1822 -1821 -262 0
1822 -1821 262 0
1822 1821 -262 0
-1823 1822 263 0
-1823 -1822 -263 0
1823 -1822 263 0
1823 1822 -263 0
-1824 1823 264 0
-1824 -1823 -264 0
1824 -1823 264 0
1824 1823 -264 0
-1825 1824 265 0
-1825 -1824 -265 0
1825 -1824 265 0
1825 1824 -265 0
-1826 1825 266 0
-1826 -1825 -266 0
1826 -1825 266 0
1826 1825 -266 0
-1827 1826 272 0
-1827 -1826 -272 0
1827 -1826 272 0
1827 1826 -272 0
-1828 1827 274 0
-1828 -1827 -274 0
1828 -1827 274 0
1828 1827 -274 0
-1829 1828 277 0
-1829 -1828 -277 0
1829 -1828 277 0
1829 1828 -277 0
-1830 1829 279 0
-1830 -1829 -279 0
1830 -1829 279 0
1830 1829 -279 0
-1831 1830 280 0
-1831 -1830 -280 0
1831 -1830 280 0
1831 1830 -280 0
-1832 1831 281 0
-1832 -1831 -281 0
1832 -1831 281 0
1832 1831 -281 0
-1833 1832 283 0
-1833 -1832 -283 0
1833 -1832 283 0
1833 1832 -283 0
-1834 1833 284 0
-1834 -1833 -284 0
1834 -1833 284 0
1834 1833 -284 0
-1835 1834 285 0
-1835 -1834 -285 0
1835 -1834 285 0
1835 1834 -285 0
-1836 1835 286 0
-1836 -1835 -286 0
1836 -1835 286 0
1836 1835 -286 0
-1836 0
-1837 74 78 0
-1837 -74 -78 0
1837 -74 78 0
1837 74 -78 0
-1838 1837 80 0
-1838 -1837 -80 0
1838 -1837 80 0
1838 1837 -80 0
-1839 1838 81 0
-1839 -1838 -81 0
1839 -1838 81 0
1839 1838 -81 0
-1840 1839 82 0
-1840 -1839 -82 0
1840 -1839 82 0
1840 1839 -82 0
-1841 1840 85 0
-1841 -1840 -85 0
1841 -1840 85 0
1841 1840 -85 0
-1842 1841 88 0
-1842 -1841 -88 0
1842 -1841 88 0
1842 1841 -88 0
-1843 1842 90 0
-1843 -1842 -90 0
1843 -1842 90 0
1843 1842 -90 0
-1844 1843 91 0
-1844 -1843 -91 0
1844 -1843 91 0
1844 1843 -91 0
-1845 1844 92 0
-1845 -1844 -92 0
1845 -1844 92 0
1845 1844 -92 0
-1846 1845 96 0
-1846 -1845 -96 0
1846 -1845 96 0
1846 1845 -96 0
-1847 1846 98 0
-1847 -1846 -98 0
1847 -1846 98 0
1847 1846 -98 0
-1848 1847 100 0
-1848 -1847 -100 0
1848 -1847 100 0
1848 1847 -100 0
-1849 1848 103 0
-1849 -1848 -103 0
1849 -1848 103 0
1849 1848 -103 0
-1850 1849 106 0
-1850 -1849 -106 0
1850 -1849 106 0
1850 1849 -106 0
-1851 1850 108 0
-1851 -1850 -108 0
1851 -1850 108 0
1851 1850 -108 0
-1852 1851 109 0
-1852 -1851 -109 0
1852 -1851 109 0
1852 1851 -109 0
-1853 1852 110 0
-1853 -1852 -110 0
1853 -1852 110 0
1853 1852 -110 0
-1854 1853 111 0
-1854 -1853 -111 0
1854 -1853 111 0
1854 1853 -111 0
-1855 1854 114 0
-1855 -1854 -114 0
1855 -1854 114 0
1855 1854 -114 0
-1856 1855 115 0
-1856 -1855 -115 0
1856 -1855 115 0
1856 1855 -115 0
-1857 1856 116 0
-1857 -1856 -116 0
1857 -1856 116 0
1857 1856 -116 0
-1858 1857 117 0
-1858 -1857 -117 0
1858 -1857 117 0
1858 1857 -117 0
-1859 1858 118 0
-1859 -1858 -118 0
1859 -1858 118 0
1859 1858 -118 0
-1860 1859 119 0
-1860 -1859 -119 0
1860 -1859 119 0
1860 1859 -119 0
-1861 1860 124 0
-1861 -1860 -124 0
1861 -1860 124 0
1861 1860 -124 0
-1862 1861 126 0
-1862 -1861 -126 0
1862 -1861 126 0
1862 1861 -126 0
-1863 1862 127 0
-1863 -1862 -127 0
1863 -1862 127 0
1863 1862 -127 0
-1864 1863 128 0
-1864 -1863 -128 0
1864 -1863 128 0
1864 1863 -128 0
-1865 1864 129 0
-1865 -1864 -129 0
1865 -1864 129 0
1865 1864 -129 0
-1866 1865 132 0
-1866 -1865 -132 0
1866 -1865 132 0
1866 1865 -132 0
-1867 1866 134 0
-1867 -1866 -134 0
1867 -1866 134 0
1867 1866 -134 0
-1868 1867 135 0
-1868 -1867 -135 0
1868 -1867 135 0
1868 1867 -135 0
-1869 1868 136 0
-1869 -1868 -136 0
1869 -1868 136 0
1869 1868 -136 0
-1870 1869 141 0
-1870 -1869 -141 0
1870 -1869 141 0
1870 1869 -141 0
-1871 1870 142 0
-1871 -1870 -142 0
1871 -1870 142 0
1871 1870 -142 0
-1872 1871 143 0
-1872 -1871 -143 0
1872 -1871 143 0
1872 1871 -143 0
-1873 1872 144 0
-1873 -1872 -144 0
1873 -1872 144 0
1873 1872 -144 0
-1874 1873 165 0
-1874 -1873 -165 0
1874 -1873 165 0
1874 1873 -165 0
-1875 1874 213 0
-1875 -1874 -213 0
1875 -1874 213 0
1875 1874 -213 0
-1876 1875 217 0
-1876 -1875 -217 0
1876 -1875 217 0
1876 1875 -217 0
-1877 1876 219 0
-1877 -1876 -219 0
1877 -1876 219 0
1877 1876 -219 0
-1878 1877 221 0
-1878 -1877 -221 0
1878 -1877 221 0
1878 1877 -221 0
-1879 1878 223 0
-1879 -1878 -223 0
1879 -1878 223 0
1879 1878 -223 0
-1880 1879 224 0
-1880 -1879 -224 0
1880 -1879 224 0
1880 1879 -224 0
-1881 1880 225 0
-1881 -1880 -225 0
1881 -1880 225 0
1881 1880 -225 0
-1882 1881 226 0
-1882 -1881 -226 0
1882 -1881 226 0
1882 1881 -226 0
-1883 1882 227 0
-1883 -1882 -227 0
1883 -1882 227 0
1883 1882 -227 0
-1884 1883 235 0
-1884 -1883 -235 0
1884 -1883 235 0
1884 1883 -235 0
-1885 1884 236 0
-1885 -1884 -236 0
1885 -1884 236 0
1885 1884 -236 0
-1886 1885 238 0
-1886 -1885 -238 0
1886 -1885 238 0
1886 1885 -238 0
-1887 1886 242 0
-1887 -1886 -242 0
1887 -1886 242 0
1887 1886 -242 0
-1888 1887 243 0
-1888 -1887 -243 0
1888 -1887 243 0
1888 1887 -243 0
-1889 1888 248 0
-1889 -1888 -248 0
1889 -1888 248 0
1889 1888 -248 0
-1890 1889 249 0
-1890 -1889 -249 0
1890 -1889 249 0
1890 1889 -249 0
-1891 1890 250 0
-1891 -1890 -250 0
1891 -1890 250 0
1891 1890 -250 0
-1892 1891 251 0
-1892 -1891 -251 0
1892 -1891 251 0
1892 1891 -251 0
-1893 1892 254 0
-1893 -1892 -254 0
1893 -1892 254 0
1893 1892 -254 0
-1894 1893 256 0
-1894 -1893 -256 0
1894 -1893 256 0
1894 1893 -256 0
-1895 1894 257 0
-1895 -1894 -257 0
1895 -1894 257 0
1895 1894 -257 0
-1896 1895 258 0
-1896 -1895 -258 0
1896 -1895 258 0
1896 1895 -258 0
-1897 1896 259 0
-1897 -1896 -259 0
1897 -1896 259 0
1897 1896 -259 0
-1898 1897 260 0
-1898 -1897 -260 0
1898 -1897 260 0
1898 1897 -260 0
-1899 1898 261 0
-1899 -1898 -261 0
1899 -1898 261 0
1899 1898 -261 0
-1900 1899 262 0
-1900 -1899 -262 0
1900 -1899 262 0
1900 1899 -262 0
-1901 1900 263 0
-1901 -1900 -263 0
1901 -1900 263 0
1901 1900 -263 0
-1902 1901 264 0
-1902 -1901 -264 0
1902 -1901 264 0
1902 1901 -264 0
-1903 1902 265 0
-1903 -1902 -265 0
1903 -1902 265 0
1903 1902 -265 0
-1904 1903 266 0
-1904 -1903 -266 0
1904 -1903 266 0
1904 1903 -266 0
-1905 1904 269 0
-1905 -1904 -269 0
1905 -1904 269 0
1905 1904 -269 0
-1906 1905 271 0
-1906 -1905 -271 0
1906 -1905 271 0
1906 1905 -271 0
-1907 1906 278 0
-1907 -1906 -278 0
1907 -1906 278 0
1907 1906 -278 0
-1908 1907 280 0
-1908 -1907 -280 0
1908 -1907 280 0
1908 1907 -280 0
-1909 1908 281 0
-1909 -1908 -281 0
1909 -1908 281 0
1909 1908 -281 0
-1910 1909 282 0
-1910 -1909 -282 0
1910 -1909 282 0
1910 1909 -282 0
-1911 1910 285 0
-1911 -1910 -285 0
1911 -1910 285 0
1911 1910 -285 0
-1912 1911 287 0
-1912 -1911 -287 0
1912 -1911 287 0
1912 1911 -287 0
-1913 1912 288 0
-1913 -1912 -288 0
1913 -1912 288 0
1913 1912 -288 0
-1913 0
-1914 73 75 0
-1914 -73 -75 0
1914 -73 75 0
1914 73 -75 0
-1915 1914 81 0
-1915 -1914 -81 0
1915 -1914 81 0
1915 1914 -81 0
-1916 1915 82 0
-1916 -1915 -82 0
1916 -1915 82 0
1916 1915 -82 0
-1917 1916 83 0
-1917 -1916 -83 0
1917 -1916 83 0
1917 1916 -83 0
-1918 1917 85 0
-1918 -1917 -85 0
1918 -1917 85 0
1918 1917 -85 0
-1919 1918 86 0
-1919 -1918 -86 0
1919 -1918 86 0
1919 1918 -86 0
-1920 1919 89 0
-1920 -1919 -89 0
1920 -1919 89 0
1920 1919 -89 0
-1921 1920 91 0
-1921 -1920 -91 0
1921 -1920 91 0
1921 1920 -91 0
-1922 1921 92 0
-1922 -1921 -92 0
1922 -1921 92 0
1922 1921 -92 0
-1923 1922 93 0
-1923 -1922 -93 0
1923 -1922 93 0
1923 1922 -93 0
-1924 1923 99 0
-1924 -1923 -99 0
1924 -1923 99 0
1924 1923 -99 0
-1925 1924 101 0
-1925 -1924 -101 0
1925 -1924 101 0
1925 1924 -101 0
-1926 1925 103 0
-1926 -1925 -103 0
1926 -1925 103 0
1926 1925 -103 0
-1927 1926 104 0
-1927 -1926 -104 0
1927 -1926 104 0
1927 1926 -104 0
-1928 1927 107 0
-1928 -1927 -107 0
1928 -1927 107 0
1928 1927 -107 0
-1929 1928 109 0
-1929 -1928 -109 0
1929 -1928 109 0
1929 1928 -109 0
-1930 1929 110 0
-1930 -1929 -110 0
1930 -1929 110 0
1930 1929 -110 0
-1931 1930 111 0
-1931 -1930 -111 0
1931 -1930 111 0
1931 1930 -111 0
-1932 1931 112 0
-1932 -1931 -112 0
1932 -1931 112 0
1932 1931 -112 0
-1933 1932 116 0
-1933 -1932 -116 0
1933 -1932 116 0
1933 1932 -116 0
-1934 1933 117 0
-1934 -1933 -117 0
1934 -1933 117 0
1934 1933 -117 0
-1935 1934 118 0
-1935 -1934 -118 0
1935 -1934 118 0
1935 1934 -118 0
-1936 1935 119 0
-1936 -1935 -119 0
1936 -1935 119 0
1936 1935 -119 0
-1937 1936 120 0
-1937 -1936 -120 0
1937 -1936 120 0
1937 1936 -120 0
-1938 1937 121 0
-1938 -1937 -121 0
1938 -1937 121 0
1938 1937 -121 0
-1939 1938 125 0
-1939 -1938 -125 0
1939 -1938 125 0
1939 1938 -125 0
-1940 1939 127 0
-1940 -1939 -127 0
1940 -1939 127 0
1940 1939 -127 0
-1941 1940 128 0
-1941 -1940 -128 0
1941 -1940 128 0
1941 1940 -128 0
-1942 1941 129 0
-1942 -1941 -129 0
1942 -1941 129 0
1942 1941 -129 0
-1943 1942 130 0
-1943 -1942 -130 0
1943 -1942 130 0
1943 1942 -130 0
-1944 1943 135 0
-1944 -1943 -135 0
1944 -1943 135 0
1944 1943 -135 0
-1945 1944 136 0
-1945 -1944 -136 0
1945 -1944 136 0
1945 1944 -136 0
-1946 1945 137 0
-1946 -1945 -137 0
1946 -1945 137 0
1946 1945 -137 0
-1947 1946 139 0
-1947 -1946 -139 0
1947 -1946 139 0
1947 1946 -139 0
-1948 1947 142 0
-1948 -1947 -142 0
1948 -1947 142 0
1948 1947 -142 0
-1949 1948 143 0
-1949 -1948 -143 0
1949 -1948 143 0
1949 1948 -143 0
-1950 1949 144 0
-1950 -1949 -144 0
1950 -1949 144 0
1950 1949 -144 0
-1951 1950 166 0
-1951 -1950 -166 0
1951 -1950 166 0
1951 1950 -166 0
-1952 1951 214 0
-1952 -1951 -214 0
1952 -1951 214 0
1952 1951 -214 0
-1953 1952 218 0
-1953 -1952 -218 0
1953 -1952 218 0
1953 1952 -218 0
-1954 1953 220 0
-1954 -1953 -220 0
1954 -1953 220 0
1954 1953 -220 0
-1955 1954 222 0
-1955 -1954 -222 0
1955 -1954 222 0
1955 1954 -222 0
-1956 1955 224 0
-1956 -1955 -224 0
1956 -1955 224 0
1956 1955 -224 0
-1957 1956 225 0
-1957 -1956 -225 0
1957 -1956 225 0
1957 1956 -225 0
-1958 1957 226 0
-1958 -1957 -226 0
1958 -1957 226 0
1958 1957 -226 0
-1959 1958 227 0
-1959 -1958 -227 0
1959 -1958 227 0
1959 1958 -227 0
-1960 1959 228 0
-1960 -1959 -228 0
1960 -1959 228 0
1960 1959 -228 0
-1961 1960 236 0
-1961 -1960 -236 0
1961 -1960 236 0
1961 1960 -236 0
-1962 1961 237 0
-1962 -1961 -237 0
1962 -1961 237 0
1962 1961 -237 0
-1963 1962 239 0
-1963 -1962 -239 0
1963 -1962 239 0
1963 1962 -239 0
-1964 1963 243 0
-1964 -1963 -243 0
1964 -1963 243 0
1964 1963 -243 0
-1965 1964 244 0
-1965 -1964 -244 0
1965 -1964 244 0
1965 1964 -244 0
-1966 1965 249 0
-1966 -1965 -249 0
1966 -1965 249 0
1966 1965 -249 0
-1967 1966 250 0
-1967 -1966 -250 0
1967 -1966 250 0
1967 1966 -250 0
-1968 1967 251 0
-1968 -1967 -251 0
1968 -1967 251 0
1968 1967 -251 0
-1969 1968 252 0
-1969 -1968 -252 0
1969 -1968 252 0
1969 1968 -252 0
-1970 1969 253 0
-1970 -1969 -253 0
1970 -1969 253 0
1970 1969 -253 0
-1971 1970 255 0
-1971 -1970 -255 0
1971 -1970 255 0
1971 1970 -255 0
-1972 1971 257 0
-1972 -1971 -257 0
1972 -1971 257 0
1972 1971 -257 0
-1973 1972 258 0
-1973 -1972 -258 0
1973 -1972 258 0
1973 1972 -258 0
-1974 1973 259 0
-1974 -1973 -259 0
1974 -1973 259 0
1974 1973 -259 0
-1975 1974 260 0
-1975 -1974 -260 0
1975 -1974 260 0
1975 1974 -260 0
-1976 1975 261 0
-1976 -1975 -261 0
1976 -1975 261 0
1976 1975 -261 0
-1977 1976 262 0
-1977 -1976 -262 0
1977 -1976 262 0
1977 1976 -262 0
-1978 1977 263 0
-1978 -1977 -263 0
1978 -1977 263 0
1978 1977 -263 0
-1979 1978 264 0
-1979 -1978 -264 0
1979 -1978 264 0
1979 1978 -264 0
-1980 1979 266 0
-1980 -1979 -266 0
1980 -1979 266 0
1980 1979 -266 0
-1981 1980 267 0
-1981 -1980 -267 0
1981 -1980 267 0
1981 1980 -267 0
-1982 1981 270 0
-1982 -1981 -270 0
1982 -1981 270 0
1982 1981 -270 0
-1983 1982 272 0
-1983 -1982 -272 0
1983 -1982 272 0
1983 1982 -272 0
-1984 1983 277 0
-1984 -1983 -277 0
1984 -1983 277 0
1984 1983 -277 0
-1985 1984 279 0
-1985 -1984 -279 0
1985 -1984 279 0
1985 1984 -279 0
-1986 1985 281 0
-1986 -1985 -281 0
1986 -1985 281 0
1986 1985 -281 0
-1987 1986 282 0
-1987 -1986 -282 0
1987 -1986 282 0
1987 1986 -282 0
-1988 1987 283 0
-1988 -1987 -283 0
1988 -1987 283 0
1988 1987 -283 0
-1989 1988 286 0
-1989 -1988 -286 0
1989 -1988 286 0
1989 1988 -286 0
-1990 1989 288 0
-1990 -1989 -288 0
1990 -1989 288 0
1990 1989 -288 0
-1990 0
-1991 74 76 0
-1991 -74 -76 0
1991 -74 76 0
1991 74 -76 0
-1992 1991 82 0
-1992 -1991 -82 0
1992 -1991 82 0
1992 1991 -82 0
-1993 1992 83 0
-1993 -1992 -83 0
1993 -1992 83 0
1993 1992 -83 0
-1994 1993 84 0
-1994 -1993 -84 0
1994 -1993 84 0
1994 1993 -84 0
-1995 1994 86 0
-1995 -1994 -86 0
1995 -1994 86 0
1995 1994 -86 0
-1996 1995 87 0
-1996 -1995 -87 0
1996 -1995 87 0
1996 1995 -87 0
-1997 1996 90 0
-1997 -1996 -90 0
1997 -1996 90 0
1997 1996 -90 0
-1998 1997 92 0
-1998 -1997 -92 0
1998 -1997 92 0
1998 1997 -92 0
-1999 1998 93 0
-1999 -1998 -93 0
1999 -1998 93 0
1999 1998 -93 0
-2000 1999 94 0
-2000 -1999 -94 0
2000 -1999 94 0
2000 1999 -94 0
-2001 2000 100 0
-2001 -2000 -100 0
2001 -2000 100 0
2001 2000 -100 0
-2002 2001 102 0
-2002 -2001 -102 0
2002 -2001 102 0
2002 2001 -102 0
-2003 2002 104 0
-2003 -2002 -104 0
2003 -2002 104 0
2003 2002 -104 0
-2004 2003 105 0
-2004 -2003 -105 0
2004 -2003 105 0
2004 2003 -105 0
-2005 2004 108 0
-2005 -2004 -108 0
2005 -2004 108 0
2005 2004 -108 0
-2006 2005 110 0
-2006 -2005 -110 0
2006 -2005 110 0
2006 2005 -110 0
-2007 2006 111 0
-2007 -2006 -111 0
2007 -2006 111 0
2007 2006 -111 0
-2008 2007 112 0
-2008 -2007 -112 0
2008 -2007 112 0
2008 2007 -112 0
-2009 2008 113 0
-2009 -2008 -113 0
2009 -2008 113 0
2009 2008 -113 0
-2010 2009 115 0
-2010 -2009 -115 0
2010 -2009 115 0
2010 2009 -115 0
-2011 2010 117 0
-2011 -2010 -117 0
2011 -2010 117 0
2011 2010 -117 0
-2012 2011 118 0
-2012 -2011 -118 0
2012 -2011 118 0
2012 2011 -118 0
-2013 2012 119 0
-2013 -2012 -119 0
2013 -2012 119 0
2013 2012 -119 0
-2014 2013 120 0
-2014 -2013 -120 0
2014 -2013 120 0
2014 2013 -120 0
-2015 2014 122 0
-2015 -2014 -122 0
2015 -2014 122 0
2015 2014 -122 0
-2016 2015 126 0
-2016 -2015 -126 0
2016 -2015 126 0
2016 2015 -126 0
-2017 2016 128 0
-2017 -2016 -128 0
2017 -2016 128 0
2017 2016 -128 0
-2018 2017 129 0
-2018 -2017 -129 0
2018 -2017 129 0
2018 2017 -129 0
-2019 2018 130 0
-2019 -2018 -130 0
2019 -2018 130 0
2019 2018 -130 0
-2020 2019 131 0
-2020 -2019 -131 0
2020 -2019 131 0
2020 2019 -131 0
-2021 2020 136 0
-2021 -2020 -136 0
2021 -2020 136 0
2021 2020 -136 0
-2022 2021 137 0
-2022 -2021 -137 0
2022 -2021 137 0
2022 2021 -137 0
-2023 2022 138 0
-2023 -2022 -138 0
2023 -2022 138 0
2023 2022 -138 0
-2024 2023 139 0
-2024 -2023 -139 0
2024 -2023 139 0
2024 2023 -139 0
-2025 2024 140 0
-2025 -2024 -140 0
2025 -2024 140 0
2025 2024 -140 0
-2026 2025 143 0
-2026 -2025 -143 0
2026 -2025 143 0
2026 2025 -143 0
-2027 2026 144 0
-2027 -2026 -144 0
2027 -2026 144 0
2027 2026 -144 0
-2028 2027 167 0
-2028 -2027 -167 0
2028 -2027 167 0
2028 2027 -167 0
-2029 2028 215 0
-2029 -2028 -215 0
2029 -2028 215 0
2029 2028 -215 0
-2030 2029 217 0
-2030 -2029 -217 0
2030 -2029 217 0
2030 2029 -217 0
-2031 2030 219 0
-2031 -2030 -219 0
2031 -2030 219 0
2031 2030 -219 0
-2032 2031 221 0
-2032 -2031 -221 0
2032 -2031 221 0
2032 2031 -221 0
-2033 2032 223 0
-2033 -2032 -223 0
2033 -2032 223 0
2033 2032 -223 0
-2034 2033 225 0
-2034 -2033 -225 0
2034 -2033 225 0
2034 2033 -225 0
-2035 2034 226 0
-2035 -2034 -226 0
2035 -2034 226 0
2035 2034 -226 0
-2036 2035 227 0
-2036 -2035 -227 0
2036 -2035 227 0
2036 2035 -227 0
-2037 2036 228 0
-2037 -2036 -228 0
2037 -2036 228 0
2037 2036 -228 0
-2038 2037 237 0
-2038 -2037 -237 0
2038 -2037 237 0
2038 2037 -237 0
-2039 2038 238 0
-2039 -2038 -238 0
2039 -2038 238 0
2039 2038 -238 0
-2040 2039 240 0
-2040 -2039 -240 0
2040 -2039 240 0
2040 2039 -240 0
-2041 2040 244 0
-2041 -2040 -244 0
2041 -2040 244 0
2041 2040 -244 0
-2042 2041 245 0
-2042 -2041 -245 0
2042 -2041 245 0
2042 2041 -245 0
-2043 2042 247 0
-2043 -2042 -247 0
2043 -2042 247 0
2043 2042 -247 0
-2044 2043 250 0
-2044 -2043 -250 0
2044 -2043 250 0
2044 2043 -250 0
-2045 2044 251 0
-2045 -2044 -251 0
2045 -2044 251 0
2045 2044 -251 0
-2046 2045 252 0
-2046 -2045 -252 0
2046 -2045 252 0
2046 2045 -252 0
-2047 2046 253 0
-2047 -2046 -253 0
2047 -2046 253 0
2047 2046 -253 0
-2048 2047 254 0
-2048 -2047 -254 0
2048 -2047 254 0
2048 2047 -254 0
-2049 2048 256 0
-2049 -2048 -256 0
2049 -2048 256 0
2049 2048 -256 0
-2050 2049 258 0
-2050 -2049 -258 0
2050 -2049 258 0
2050 2049 -258 0
-2051 2050 259 0
-2051 -2050 -259 0
2051 -2050 259 0
2051 2050 -259 0
-2052 2051 260 0
-2052 -2051 -260 0
2052 -2051 260 0
2052 2051 -260 0
-2053 2052 261 0
-2053 -2052 -261 0
2053 -2052 261 0
2053 2052 -261 0
-2054 2053 262 0
-2054 -2053 -262 0
2054 -2053 262 0
2054 2053 -262 0
-2055 2054 263 0
-2055 -2054 -263 0
2055 -2054 263 0
2055 2054 -263 0
-2056 2055 264 0
-2056 -2055 -264 0
2056 -2055 264 0
2056 2055 -264 0
-2057 2056 265 0
-2057 -2056 -265 0
2057 -2056 265 0
2057 2056 -265 0
-2058 2057 267 0
-2058 -2057 -267 0
2058 -2057 267 0
2058 2057 -267 0
-2059 2058 268 0
-2059 -2058 -268 0
2059 -2058 268 0
2059 2058 -268 0
-2060 2059 273 0
-2060 -2059 -273 0
2060 -2059 273 0
2060 2059 -273 0
-2061 2060 277 0
-2061 -2060 -277 0
2061 -2060 277 0
2061 2060 -277 0
-2062 2061 278 0
-2062 -2061 -278 0
2062 -2061 278 0
2062 2061 -278 0
-2063 2062 280 0
-2063 -2062 -280 0
2063 -2062 280 0
2063 2062 -280 0
-2064 2063 282 0
-2064 -2063 -282 0
2064 -2063 282 0
2064 2063 -282 0
-2065 2064 283 0
-2065 -2064 -283 0
2065 -2064 283 0
2065 2064 -283 0
-2066 2065 284 0
-2066 -2065 -284 0
2066 -2065 284 0
2066 2065 -284 0
-2067 2066 287 0
-2067 -2066 -287 0
2067 -2066 287 0
2067 2066 -287 0
-2067 0
-2068 75 77 0
-2068 -75 -77 0
2068 -75 77 0
2068 75 -77 0
-2069 2068 79 0
-2069 -2068 -79 0
2069 -2068 79 0
2069 2068 -79 0
-2070 2069 83 0
-2070 -2069 -83 0
2070 -2069 83 0
2070 2069 -83 0
-2071 2070 84 0
-2071 -2070 -84 0
2071 -2070 84 0
2071 2070 -84 0
-2072 2071 85 0
-2072 -2071 -85 0
2072 -2071 85 0
2072 2071 -85 0
-2073 2072 87 0
-2073 -2072 -87 0
2073 -2072 87 0
2073 2072 -87 0
-2074 2073 88 0
-2074 -2073 -88 0
2074 -2073 88 0
2074 2073 -88 0
-2075 2074 93 0
-2075 -2074 -93 0
2075 -2074 93 0
2075 2074 -93 0
-2076 2075 94 0
-2076 -2075 -94 0
2076 -2075 94 0
2076 2075 -94 0
-2077 2076 95 0
-2077 -2076 -95 0
2077 -2076 95 0
2077 2076 -95 0
-2078 2077 97 0
-2078 -2077 -97 0
2078 -2077 97 0
2078 2077 -97 0
-2079 2078 101 0
-2079 -2078 -101 0
2079 -2078 101 0
2079 2078 -101 0
-2080 2079 103 0
-2080 -2079 -103 0
2080 -2079 103 0
2080 2079 -103 0
-2081 2080 105 0
-2081 -2080 -105 0
2081 -2080 105 0
2081 2080 -105 0
-2082 2081 106 0
-2082 -2081 -106 0
2082 -2081 106 0
2082 2081 -106 0
-2083 2082 111 0
-2083 -2082 -111 0
2083 -2082 111 0
2083 2082 -111 0
-2084 2083 112 0
-2084 -2083 -112 0
2084 -2083 112 0
2084 2083 -112 0
-2085 2084 113 0
-2085 -2084 -113 0
2085 -2084 113 0
2085 2084 -113 0
-2086 2085 114 0
-2086 -2085 -114 0
2086 -2085 114 0
2086 2085 -114 0
-2087 2086 115 0
-2087 -2086 -115 0
2087 -2086 115 0
2087 2086 -115 0
-2088 2087 116 0
-2088 -2087 -116 0
2088 -2087 116 0
2088 2087 -116 0
-2089 2088 118 0
-2089 -2088 -118 0
2089 -2088 118 0
2089 2088 -118 0
-2090 2089 119 0
-2090 -2089 -119 0
2090 -2089 119 0
2090 2089 -119 0
-2091 2090 120 0
-2091 -2090 -120 0
2091 -2090 120 0
2091 2090 -120 0
-2092 2091 121 0
-2092 -2091 -121 0
2092 -2091 121 0
2092 2091 -121 0
-2093 2092 123 0
-2093 -2092 -123 0
2093 -2092 123 0
2093 2092 -123 0
-2094 2093 129 0
-2094 -2093 -129 0
2094 -2093 129 0
2094 2093 -129 0
-2095 2094 130 0
-2095 -2094 -130 0
2095 -2094 130 0
2095 2094 -130 0
-2096 2095 131 0
-2096 -2095 -131 0
2096 -2095 131 0
2096 2095 -131 0
-2097 2096 132 0
-2097 -2096 -132 0
2097 -2096 132 0
2097 2096 -132 0
-2098 2097 133 0
-2098 -2097 -133 0
2098 -2097 133 0
2098 2097 -133 0
-2099 2098 137 0
-2099 -2098 -137 0
2099 -2098 137 0
2099 2098 -137 0
-2100 2099 138 0
-2100 -2099 -138 0
2100 -2099 138 0
2100 2099 -138 0
-2101 2100 139 0
-2101 -2100 -139 0
2101 -2100 139 0
2101 2100 -139 0
-2102 2101 140 0
-2102 -2101 -140 0
2102 -2101 140 0
2102 2101 -140 0
-2103 2102 141 0
-2103 -2102 -141 0
2103 -2102 141 0
2103 2102 -141 0
-2104 2103 144 0
-2104 -2103 -144 0
2104 -2103 144 0
2104 2103 -144 0
-2105 2104 168 0
-2105 -2104 -168 0
2105 -2104 168 0
2105 2104 -168 0
-2106 2105 216 0
-2106 -2105 -216 0
2106 -2105 216 0
2106 2105 -216 0
-2107 2106 218 0
-2107 -2106 -218 0
2107 -2106 218 0
2107 2106 -218 0
-2108 2107 220 0
-2108 -2107 -220 0
2108 -2107 220 0
2108 2107 -220 0
-2109 2108 222 0
-2109 -2108 -222 0
2109 -2108 222 0
2109 2108 -222 0
-2110 2109 223 0
-2110 -2109 -223 0
2110 -2109 223 0
2110 2109 -223 0
-2111 2110 224 0
-2111 -2110 -224 0
2111 -2110 224 0
2111 2110 -224 0
-2112 2111 226 0
-2112 -2111 -226 0
2112 -2111 226 0
2112 2111 -226 0
-2113 2112 227 0
-2113 -2112 -227 0
2113 -2112 227 0
2113 2112 -227 0
-2114 2113 228 0
-2114 -2113 -228 0
2114 -2113 228 0
2114 2113 -228 0
-2115 2114 235 0
-2115 -2114 -235 0
2115 -2114 235 0
2115 2114 -235 0
-2116 2115 238 0
-2116 -2115 -238 0
2116 -2115 238 0
2116 2115 -238 0
-2117 2116 239 0
-2117 -2116 -239 0
2117 -2116 239 0
2117 2116 -239 0
-2118 2117 245 0
-2118 -2117 -245 0
2118 -2117 245 0
2118 2117 -245 0
-2119 2118 246 0
-2119 -2118 -246 0
2119 -2118 246 0
2119 2118 -246 0
-2120 2119 247 0
-2120 -2119 -247 0
2120 -2119 247 0
2120 2119 -247 0
-2121 2120 248 0
-2121 -2120 -248 0
2121 -2120 248 0
2121 2120 -248 0
-2122 2121 251 0
-2122 -2121 -251 0
2122 -2121 251 0
2122 2121 -251 0
-2123 2122 252 0
-2123 -2122 -252 0
2123 -2122 252 0
2123 2122 -252 0
-2124 2123 253 0
-2124 -2123 -253 0
2124 -2123 253 0
2124 2123 -253 0
-2125 2124 254 0
-2125 -2124 -254 0
2125 -2124 254 0
2125 2124 -254 0
-2126 2125 255 0
-2126 -2125 -255 0
2126 -2125 255 0
2126 2125 -255 0
-2127 2126 257 0
-2127 -2126 -257 0
2127 -2126 257 0
2127 2126 -257 0
-2128 2127 259 0
-2128 -2127 -259 0
2128 -2127 259 0
2128 2127 -259 0
-2129 2128 260 0
-2129 -2128 -260 0
2129 -2128 260 0
2129 2128 -260 0
-2130 2129 261 0
-2130 -2129 -261 0
2130 -2129 261 0
2130 2129 -261 0
-2131 2130 262 0
-2131 -2130 -262 0
2131 -2130 262 0
2131 2130 -262 0
-2132 2131 263 0
-2132 -2131 -263 0
2132 -2131 263 0
2132 2131 -263 0
-2133 2132 264 0
-2133 -2132 -264 0
2133 -2132 264 0
2133 2132 -264 0
-2134 2133 266 0
-2134 -2133 -266 0
2134 -2133 266 0
2134 2133 -266 0
-2135 2134 268 0
-2135 -2134 -268 0
2135 -2134 268 0
2135 2134 -268 0
-2136 2135 269 0
-2136 -2135 -269 0
2136 -2135 269 0
2136 2135 -269 0
-2137 2136 274 0
-2137 -2136 -274 0
2137 -2136 274 0
2137 2136 -274 0
-2138 2137 277 0
-2138 -2137 -277 0
2138 -2137 277 0
2138 2137 -277 0
-2139 2138 278 0
-2139 -2138 -278 0
2139 -2138 278 0
2139 2138 -278 0
-2140 2139 279 0
-2140 -2139 -279 0
2140 -2139 279 0
2140 2139 -279 0
-2141 2140 281 0
-2141 -2140 -281 0
2141 -2140 281 0
2141 2140 -281 0
-2142 2141 284 0
-2142 -2141 -284 0
2142 -2141 284 0
2142 2141 -284 0
-2143 2142 285 0
-2143 -2142 -285 0
2143 -2142 285 0
2143 2142 -285 0
-2144 2143 288 0
-2144 -2143 -288 0
2144 -2143 288 0
2144 2143 -288 0
-2144 0
-2145 69 70 0
-2145 -69 -70 0
2145 -69 70 0
2145 69 -70 0
-2146 2145 71 0
-2146 -2145 -71 0
2146 -2145 71 0
2146 2145 -71 0
-2147 2146 73 0
-2147 -2146 -73 0
2147 -2146 73 0
2147 2146 -73 0
-2148 2147 75 0
-2148 -2147 -75 0
2148 -2147 75 0
2148 2147 -75 0
-2149 2148 77 0
-2149 -2148 -77 0
2149 -2148 77 0
2149 2148 -77 0
-2150 2149 80 0
-2150 -2149 -80 0
2150 -2149 80 0
2150 2149 -80 0
-2151 2150 81 0
-2151 -2150 -81 0
2151 -2150 81 0
2151 2150 -81 0
-2152 2151 82 0
-2152 -2151 -82 0
2152 -2151 82 0
2152 2151 -82 0
-2153 2152 85 0
-2153 -2152 -85 0
2153 -2152 85 0
2153 2152 -85 0
-2154 2153 86 0
-2154 -2153 -86 0
2154 -2153 86 0
2154 2153 -86 0
-2155 2154 88 0
-2155 -2154 -88 0
2155 -2154 88 0
2155 2154 -88 0
-2156 2155 92 0
-2156 -2155 -92 0
2156 -2155 92 0
2156 2155 -92 0
-2157 2156 95 0
-2157 -2156 -95 0
2157 -2156 95 0
2157 2156 -95 0
-2158 2157 99 0
-2158 -2157 -99 0
2158 -2157 99 0
2158 2157 -99 0
-2159 2158 102 0
-2159 -2158 -102 0
2159 -2158 102 0
2159 2158 -102 0
-2160 2159 103 0
-2160 -2159 -103 0
2160 -2159 103 0
2160 2159 -103 0
-2161 2160 104 0
-2161 -2160 -104 0
2161 -2160 104 0
2161 2160 -104 0
-2162 2161 105 0
-2162 -2161 -105 0
2162 -2161 105 0
2162 2161 -105 0
-2163 2162 106 0
-2163 -2162 -106 0
2163 -2162 106 0
2163 2162 -106 0
-2164 2163 107 0
-2164 -2163 -107 0
2164 -2163 107 0
2164 2163 -107 0
-2165 2164 109 0
-2165 -2164 -109 0
2165 -2164 109 0
2165 2164 -109 0
-2166 2165 111 0
-2166 -2165 -111 0
2166 -2165 111 0
2166 2165 -111 0
-2167 2166 112 0
-2167 -2166 -112 0
2167 -2166 112 0
2167 2166 -112 0
-2168 2167 116 0
-2168 -2167 -116 0
2168 -2167 116 0
2168 2167 -116 0
-2169 2168 117 0
-2169 -2168 -117 0
2169 -2168 117 0
2169 2168 -117 0
-2170 2169 119 0
-2170 -2169 -119 0
2170 -2169 119 0
2170 2169 -119 0
-2171 2170 120 0
-2171 -2170 -120 0
2171 -2170 120 0
2171 2170 -120 0
-2172 2171 121 0
-2172 -2171 -121 0
2172 -2171 121 0
2172 2171 -121 0
-2173 2172 123 0
-2173 -2172 -123 0
2173 -2172 123 0
2173 2172 -123 0
-2174 2173 124 0
-2174 -2173 -124 0
2174 -2173 124 0
2174 2173 -124 0
-2175 2174 130 0
-2175 -2174 -130 0
2175 -2174 130 0
2175 2174 -130 0
-2176 2175 131 0
-2176 -2175 -131 0
2176 -2175 131 0
2176 2175 -131 0
-2177 2176 133 0
-2177 -2176 -133 0
2177 -2176 133 0
2177 2176 -133 0
-2178 2177 134 0
-2178 -2177 -134 0
2178 -2177 134 0
2178 2177 -134 0
-2179 2178 136 0
-2179 -2178 -136 0
2179 -2178 136 0
2179 2178 -136 0
-2180 2179 139 0
-2180 -2179 -139 0
2180 -2179 139 0
2180 2179 -139 0
-2181 2180 141 0
-2181 -2180 -141 0
2181 -2180 141 0
2181 2180 -141 0
-2182 2181 142 0
-2182 -2181 -142 0
2182 -2181 142 0
2182 2181 -142 0
-2183 2182 144 0
-2183 -2182 -144 0
2183 -2182 144 0
2183 2182 -144 0
-2184 2183 169 0
-2184 -2183 -169 0
2184 -2183 169 0
2184 2183 -169 0
-2185 2184 213 0
-2185 -2184 -213 0
2185 -2184 213 0
2185 2184 -213 0
-2186 2185 214 0
-2186 -2185 -214 0
2186 -2185 214 0
2186 2185 -214 0
-2187 2186 216 0
-2187 -2186 -216 0
2187 -2186 216 0
2187 2186 -216 0
-2188 2187 225 0
-2188 -2187 -225 0
2188 -2187 225 0
2188 2187 -225 0
-2189 2188 233 0
-2189 -2188 -233 0
2189 -2188 233 0
2189 2188 -233 0
-2190 2189 235 0
-2190 -2189 -235 0
2190 -2189 235 0
2190 2189 -235 0
-2191 2190 236 0
-2191 -2190 -236 0
2191 -2190 236 0
2191 2190 -236 0
-2192 2191 237 0
-2192 -2191 -237 0
2192 -2191 237 0
2192 2191 -237 0
-2193 2192 238 0
-2193 -2192 -238 0
2193 -2192 238 0
2193 2192 -238 0
-2194 2193 239 0
-2194 -2193 -239 0
2194 -2193 239 0
2194 2193 -239 0
-2195 2194 240 0
-2195 -2194 -240 0
2195 -2194 240 0
2195 2194 -240 0
-2196 2195 241 0
-2196 -2195 -241 0
2196 -2195 241 0
2196 2195 -241 0
-2197 2196 242 0
-2197 -2196 -242 0
2197 -2196 242 0
2197 2196 -242 0
-2198 2197 243 0
-2198 -2197 -243 0
2198 -2197 243 0
2198 2197 -243 0
-2199 2198 245 0
-2199 -2198 -245 0
2199 -2198 245 0
2199 2198 -245 0
-2200 2199 246 0
-2200 -2199 -246 0
2200 -2199 246 0
2200 2199 -246 0
-2201 2200 253 0
-2201 -2200 -253 0
2201 -2200 253 0
2201 2200 -253 0
-2202 2201 254 0
-2202 -2201 -254 0
2202 -2201 254 0
2202 2201 -254 0
-2203 2202 255 0
-2203 -2202 -255 0
2203 -2202 255 0
2203 2202 -255 0
-2204 2203 256 0
-2204 -2203 -256 0
2204 -2203 256 0
2204 2203 -256 0
-2205 2204 257 0
-2205 -2204 -257 0
2205 -2204 257 0
2205 2204 -257 0
-2206 2205 258 0
-2206 -2205 -258 0
2206 -2205 258 0
2206 2205 -258 0
-2207 2206 266 0
-2207 -2206 -266 0
2207 -2206 266 0
2207 2206 -266 0
-2208 2207 268 0
-2208 -2207 -268 0
2208 -2207 268 0
2208 2207 -268 0
-2209 2208 270 0
-2209 -2208 -270 0
2209 -2208 270 0
2209 2208 -270 0
-2210 2209 272 0
-2210 -2209 -272 0
2210 -2209 272 0
2210 2209 -272 0
-2211 2210 274 0
-2211 -2210 -274 0
2211 -2210 274 0
2211 2210 -274 0
-2212 2211 276 0
-2212 -2211 -276 0
2212 -2211 276 0
2212 2211 -276 0
-2213 2212 283 0
-2213 -2212 -283 0
2213 -2212 283 0
2213 2212 -283 0
-2214 2213 285 0
-2214 -2213 -285 0
2214 -2213 285 0
2214 2213 -285 0
-2215 2214 287 0
-2215 -2214 -287 0
2215 -2214 287 0
2215 2214 -287 0
-2215 0
-2216 70 71 0
-2216 -70 -71 0
2216 -70 71 0
2216 70 -71 0
-2217 2216 72 0
-2217 -2216 -72 0
2217 -2216 72 0
2217 2216 -72 0
-2218 2217 74 0
-2218 -2217 -74 0
2218 -2217 74 0
2218 2217 -74 0
-2219 2218 76 0
-2219 -2218 -76 0
2219 -2218 76 0
2219 2218 -76 0
-2220 2219 78 0
-2220 -2219 -78 0
2220 -2219 78 0
2220 2219 -78 0
-2221 2220 79 0
-2221 -2220 -79 0
2221 -2220 79 0
2221 2220 -79 0
-2222 2221 82 0
-2222 -2221 -82 0
2222 -2221 82 0
2222 2221 -82 0
-2223 2222 85 0
-2223 -2222 -85 0
2223 -2222 85 0
2223 2222 -85 0
-2224 2223 86 0
-2224 -2223 -86 0
2224 -2223 86 0
2224 2223 -86 0
-2225 2224 91 0
-2225 -2224 -91 0
2225 -2224 91 0
2225 2224 -91 0
-2226 2225 95 0
-2226 -2225 -95 0
2226 -2225 95 0
2226 2225 -95 0
-2227 2226 96 0
-2227 -2226 -96 0
2227 -2226 96 0
2227 2226 -96 0
-2228 2227 97 0
-2228 -2227 -97 0
2228 -2227 97 0
2228 2227 -97 0
-2229 2228 100 0
-2229 -2228 -100 0
2229 -2228 100 0
2229 2228 -100 0
-2230 2229 104 0
-2230 -2229 -104 0
2230 -2229 104 0
2230 2229 -104 0
-2231 2230 105 0
-2231 -2230 -105 0
2231 -2230 105 0
2231 2230 -105 0
-2232 2231 106 0
-2232 -2231 -106 0
2232 -2231 106 0
2232 2231 -106 0
-2233 2232 107 0
-2233 -2232 -107 0
2233 -2232 107 0
2233 2232 -107 0
-2234 2233 108 0
-2234 -2233 -108 0
2234 -2233 108 0
2234 2233 -108 0
-2235 2234 109 0
-2235 -2234 -109 0
2235 -2234 109 0
2235 2234 -109 0
-2236 2235 110 0
-2236 -2235 -110 0
2236 -2235 110 0
2236 2235 -110 0
-2237 2236 111 0
-2237 -2236 -111 0
2237 -2236 111 0
2237 2236 -111 0
-2238 2237 112 0
-2238 -2237 -112 0
2238 -2237 112 0
2238 2237 -112 0
-2239 2238 115 0
-2239 -2238 -115 0
2239 -2238 115 0
2239 2238 -115 0
-2240 2239 117 0
-2240 -2239 -117 0
2240 -2239 117 0
2240 2239 -117 0
-2241 2240 118 0
-2241 -2240 -118 0
2241 -2240 118 0
2241 2240 -118 0
-2242 2241 120 0
-2242 -2241 -120 0
2242 -2241 120 0
2242 2241 -120 0
-2243 2242 122 0
-2243 -2242 -122 0
2243 -2242 122 0
2243 2242 -122 0
-2244 2243 124 0
-2244 -2243 -124 0
2244 -2243 124 0
2244 2243 -124 0
-2245 2244 125 0
-2245 -2244 -125 0
2245 -2244 125 0
2245 2244 -125 0
-2246 2245 131 0
-2246 -2245 -131 0
2246 -2245 131 0
2246 2245 -131 0
-2247 2246 132 0
-2247 -2246 -132 0
2247 -2246 132 0
2247 2246 -132 0
-2248 2247 134 0
-2248 -2247 -134 0
2248 -2247 134 0
2248 2247 -134 0
-2249 2248 135 0
-2249 -2248 -135 0
2249 -2248 135 0
2249 2248 -135 0
-2250 2249 137 0
-2250 -2249 -137 0
2250 -2249 137 0
2250 2249 -137 0
-2251 2250 139 0
-2251 -2250 -139 0
2251 -2250 139 0
2251 2250 -139 0
-2252 2251 140 0
-2252 -2251 -140 0
2252 -2251 140 0
2252 2251 -140 0
-2253 2252 142 0
-2253 -2252 -142 0
2253 -2252 142 0
2253 2252 -142 0
-2254 2253 143 0
-2254 -2253 -143 0
2254 -2253 143 0
2254 2253 -143 0
-2255 2254 170 0
-2255 -2254 -170 0
2255 -2254 170 0
2255 2254 -170 0
-2256 2255 213 0
-2256 -2255 -213 0
2256 -2255 213 0
2256 2255 -213 0
-2257 2256 214 0
-2257 -2256 -214 0
2257 -2256 214 0
2257 2256 -214 0
-2258 2257 226 0
-2258 -2257 -226 0
2258 -2257 226 0
2258 2257 -226 0
-2259 2258 234 0
-2259 -2258 -234 0
2259 -2258 234 0
2259 2258 -234 0
-2260 2259 245 0
-2260 -2259 -245 0
2260 -2259 245 0
2260 2259 -245 0
-2260 0
-2261 69 72 0
-2261 -69 -72 0
2261 -69 72 0
2261 69 -72 0
-2262 2261 73 0
-2262 -2261 -73 0
2262 -2261 73 0
2262 2261 -73 0
-2263 2262 74 0
-2263 -2262 -74 0
2263 -2262 74 0
2263 2262 -74 0
-2264 2263 75 0
-2264 -2263 -75 0
2264 -2263 75 0
2264 2263 -75 0
-2265 2264 76 0
-2265 -2264 -76 0
2265 -2264 76 0
2265 2264 -76 0
-2266 2265 77 0
-2266 -2265 -77 0
2266 -2265 77 0
2266 2265 -77 0
-2267 2266 78 0
-2267 -2266 -78 0
2267 -2266 78 0
2267 2266 -78 0
-2268 2267 80 0
-2268 -2267 -80 0
2268 -2267 80 0
2268 2267 -80 0
-2269 2268 83 0
-2269 -2268 -83 0
2269 -2268 83 0
2269 2268 -83 0
-2270 2269 86 0
-2270 -2269 -86 0
2270 -2269 86 0
2270 2269 -86 0
-2271 2270 87 0
-2271 -2270 -87 0
2271 -2270 87 0
2271 2270 -87 0
-2272 2271 92 0
-2272 -2271 -92 0
2272 -2271 92 0
2272 2271 -92 0
-2273 2272 93 0
-2273 -2272 -93 0
2273 -2272 93 0
2273 2272 -93 0
-2274 2273 95 0
-2274 -2273 -95 0
2274 -2273 95 0
2274 2273 -95 0
-2275 2274 96 0
-2275 -2274 -96 0
2275 -2274 96 0
2275 2274 -96 0
-2276 2275 97 0
-2276 -2275 -97 0
2276 -2275 97 0
2276 2275 -97 0
-2277 2276 99 0
-2277 -2276 -99 0
2277 -2276 99 0
2277 2276 -99 0
-2278 2277 100 0
-2278 -2277 -100 0
2278 -2277 100 0
2278 2277 -100 0
-2279 2278 102 0
-2279 -2278 -102 0
2279 -2278 102 0
2279 2278 -102 0
-2280 2279 103 0
-2280 -2279 -103 0
2280 -2279 103 0
2280 2279 -103 0
-2281 2280 104 0
-2281 -2280 -104 0
2281 -2280 104 0
2281 2280 -104 0
-2282 2281 105 0
-2282 -2281 -105 0
2282 -2281 105 0
2282 2281 -105 0
-2283 2282 107 0
-2283 -2282 -107 0
2283 -2282 107 0
2283 2282 -107 0
-2284 2283 109 0
-2284 -2283 -109 0
2284 -2283 109 0
2284 2283 -109 0
-2285 2284 110 0
-2285 -2284 -110 0
2285 -2284 110 0
2285 2284 -110 0
-2286 2285 112 0
-2286 -2285 -112 0
2286 -2285 112 0
2286 2285 -112 0
-2287 2286 115 0
-2287 -2286 -115 0
2287 -2286 115 0
2287 2286 -115 0
-2288 2287 119 0
-2288 -2287 -119 0
2288 -2287 119 0
2288 2287 -119 0
-2289 2288 120 0
-2289 -2288 -120 0
2289 -2288 120 0
2289 2288 -120 0
-2290 2289 121 0
-2290 -2289 -121 0
2290 -2289 121 0
2290 2289 -121 0
-2291 2290 122 0
-2291 -2290 -122 0
2291 -2290 122 0
2291 2290 -122 0
-2292 2291 124 0
-2292 -2291 -124 0
2292 -2291 124 0
2292 2291 -124 0
-2293 2292 128 0
-2293 -2292 -128 0
2293 -2292 128 0
2293 2292 -128 0
-2294 2293 129 0
-2294 -2293 -129 0
2294 -2293 129 0
2294 2293 -129 0
-2295 2294 130 0
-2295 -2294 -130 0
2295 -2294 130 0
2295 2294 -130 0
-2296 2295 131 0
-2296 -2295 -131 0
2296 -2295 131 0
2296 2295 -131 0
-2297 2296 134 0
-2297 -2296 -134 0
2297 -2296 134 0
2297 2296 -134 0
-2298 2297 135 0
-2298 -2297 -135 0
2298 -2297 135 0
2298 2297 -135 0
-2299 2298 141 0
-2299 -2298 -141 0
2299 -2298 141 0
2299 2298 -141 0
-2300 2299 142 0
-2300 -2299 -142 0
2300 -2299 142 0
2300 2299 -142 0
-2301 2300 143 0
-2301 -2300 -143 0
2301 -2300 143 0
2301 2300 -143 0
-2302 2301 171 0
-2302 -2301 -171 0
2302 -2301 171 0
2302 2301 -171 0
-2303 2302 214 0
-2303 -2302 -214 0
2303 -2302 214 0
2303 2302 -214 0
-2304 2303 215 0
-2304 -2303 -215 0
2304 -2303 215 0
2304 2303 -215 0
-2305 2304 227 0
-2305 -2304 -227 0
2305 -2304 227 0
2305 2304 -227 0
-2306 2305 229 0
-2306 -2305 -229 0
2306 -2305 229 0
2306 2305 -229 0
-2307 2306 246 0
-2307 -2306 -246 0
2307 -2306 246 0
2307 2306 -246 0
-2307 0
-2308 69 70 0
-2308 -69 -70 0
2308 -69 70 0
2308 69 -70 0
-2309 2308 71 0
-2309 -2308 -71 0
2309 -2308 71 0
2309 2308 -71 0
-2310 2309 73 0
-2310 -2309 -73 0
2310 -2309 73 0
2310 2309 -73 0
-2311 2310 75 0
-2311 -2310 -75 0
2311 -2310 75 0
2311 2310 -75 0
-2312 2311 77 0
-2312 -2311 -77 0
2312 -2311 77 0
2312 2311 -77 0
-2313 2312 81 0
-2313 -2312 -81 0
2313 -2312 81 0
2313 2312 -81 0
-2314 2313 84 0
-2314 -2313 -84 0
2314 -2313 84 0
2314 2313 -84 0
-2315 2314 87 0
-2315 -2314 -87 0
2315 -2314 87 0
2315 2314 -87 0
-2316 2315 88 0
-2316 -2315 -88 0
2316 -2315 88 0
2316 2315 -88 0
-2317 2316 94 0
-2317 -2316 -94 0
2317 -2316 94 0
2317 2316 -94 0
-2318 2317 95 0
-2318 -2317 -95 0
2318 -2317 95 0
2318 2317 -95 0
-2319 2318 96 0
-2319 -2318 -96 0
2319 -2318 96 0
2319 2318 -96 0
-2320 2319 99 0
-2320 -2319 -99 0
2320 -2319 99 0
2320 2319 -99 0
-2321 2320 102 0
-2321 -2320 -102 0
2321 -2320 102 0
2321 2320 -102 0
-2322 2321 105 0
-2322 -2321 -105 0
2322 -2321 105 0
2322 2321 -105 0
-2323 2322 109 0
-2323 -2322 -109 0
2323 -2322 109 0
2323 2322 -109 0
-2324 2323 110 0
-2324 -2323 -110 0
2324 -2323 110 0
2324 2323 -110 0
-2325 2324 115 0
-2325 -2324 -115 0
2325 -2324 115 0
2325 2324 -115 0
-2326 2325 118 0
-2326 -2325 -118 0
2326 -2325 118 0
2326 2325 -118 0
-2327 2326 121 0
-2327 -2326 -121 0
2327 -2326 121 0
2327 2326 -121 0
-2328 2327 124 0
-2328 -2327 -124 0
2328 -2327 124 0
2328 2327 -124 0
-2329 2328 126 0
-2329 -2328 -126 0
2329 -2328 126 0
2329 2328 -126 0
-2330 2329 127 0
-2330 -2329 -127 0
2330 -2329 127 0
2330 2329 -127 0
-2331 2330 128 0
-2331 -2330 -128 0
2331 -2330 128 0
2331 2330 -128 0
-2332 2331 134 0
-2332 -2331 -134 0
2332 -2331 134 0
2332 2331 -134 0
-2333 2332 135 0
-2333 -2332 -135 0
2333 -2332 135 0
2333 2332 -135 0
-2334 2333 138 0
-2334 -2333 -138 0
2334 -2333 138 0
2334 2333 -138 0
-2335 2334 140 0
-2335 -2334 -140 0
2335 -2334 140 0
2335 2334 -140 0
-2336 2335 143 0
-2336 -2335 -143 0
2336 -2335 143 0
2336 2335 -143 0
-2337 2336 172 0
-2337 -2336 -172 0
2337 -2336 172 0
2337 2336 -172 0
-2338 2337 215 0
-2338 -2337 -215 0
2338 -2337 215 0
2338 2337 -215 0
-2339 2338 216 0
-2339 -2338 -216 0
2339 -2338 216 0
2339 2338 -216 0
-2340 2339 228 0
-2340 -2339 -228 0
2340 -2339 228 0
2340 2339 -228 0
-2341 2340 230 0
-2341 -2340 -230 0
2341 -2340 230 0
2341 2340 -230 0
-2342 2341 241 0
-2342 -2341 -241 0
2342 -2341 241 0
2342 2341 -241 0
-2342 0
-2343 70 71 0
-2343 -70 -71 0
2343 -70 71 0
2343 70 -71 0
-2344 2343 72 0
-2344 -2343 -72 0
2344 -2343 72 0
2344 2343 -72 0
-2345 2344 74 0
-2345 -2344 -74 0
2345 -2344 74 0
2345 2344 -74 0
-2346 2345 76 0
-2346 -2345 -76 0
2346 -2345 76 0
2346 2345 -76 0
-2347 2346 78 0
-2347 -2346 -78 0
2347 -2346 78 0
2347 2346 -78 0
-2348 2347 81 0
-2348 -2347 -81 0
2348 -2347 81 0
2348 2347 -81 0
-2349 2348 82 0
-2349 -2348 -82 0
2349 -2348 82 0
2349 2348 -82 0
-2350 2349 83 0
-2350 -2349 -83 0
2350 -2349 83 0
2350 2349 -83 0
-2351 2350 85 0
-2351 -2350 -85 0
2351 -2350 85 0
2351 2350 -85 0
-2352 2351 87 0
-2352 -2351 -87 0
2352 -2351 87 0
2352 2351 -87 0
-2353 2352 88 0
-2353 -2352 -88 0
2353 -2352 88 0
2353 2352 -88 0
-2354 2353 93 0
-2354 -2353 -93 0
2354 -2353 93 0
2354 2353 -93 0
-2355 2354 96 0
-2355 -2354 -96 0
2355 -2354 96 0
2355 2354 -96 0
-2356 2355 97 0
-2356 -2355 -97 0
2356 -2355 97 0
2356 2355 -97 0
-2357 2356 100 0
-2357 -2356 -100 0
2357 -2356 100 0
2357 2356 -100 0
-2358 2357 106 0
-2358 -2357 -106 0
2358 -2357 106 0
2358 2357 -106 0
-2359 2358 109 0
-2359 -2358 -109 0
2359 -2358 109 0
2359 2358 -109 0
-2360 2359 110 0
-2360 -2359 -110 0
2360 -2359 110 0
2360 2359 -110 0
-2361 2360 113 0
-2361 -2360 -113 0
2361 -2360 113 0
2361 2360 -113 0
-2362 2361 116 0
-2362 -2361 -116 0
2362 -2361 116 0
2362 2361 -116 0
-2363 2362 119 0
-2363 -2362 -119 0
2363 -2362 119 0
2363 2362 -119 0
-2364 2363 121 0
-2364 -2363 -121 0
2364 -2363 121 0
2364 2363 -121 0
-2365 2364 122 0
-2365 -2364 -122 0
2365 -2364 122 0
2365 2364 -122 0
-2366 2365 125 0
-2366 -2365 -125 0
2366 -2365 125 0
2366 2365 -125 0
-2367 2366 128 0
-2367 -2366 -128 0
2367 -2366 128 0
2367 2366 -128 0
-2368 2367 129 0
-2368 -2367 -129 0
2368 -2367 129 0
2368 2367 -129 0
-2369 2368 133 0
-2369 -2368 -133 0
2369 -2368 133 0
2369 2368 -133 0
-2370 2369 135 0
-2370 -2369 -135 0
2370 -2369 135 0
2370 2369 -135 0
-2371 2370 136 0
-2371 -2370 -136 0
2371 -2370 136 0
2371 2370 -136 0
-2372 2371 141 0
-2372 -2371 -141 0
2372 -2371 141 0
2372 2371 -141 0
-2373 2372 144 0
-2373 -2372 -144 0
2373 -2372 144 0
2373 2372 -144 0
-2374 2373 173 0
-2374 -2373 -173 0
2374 -2373 173 0
2374 2373 -173 0
-2375 2374 213 0
-2375 -2374 -213 0
2375 -2374 213 0
2375 2374 -213 0
-2376 2375 215 0
-2376 -2375 -215 0
2376 -2375 215 0
2376 2375 -215 0
-2377 2376 216 0
-2377 -2376 -216 0
2377 -2376 216 0
2377 2376 -216 0
-2378 2377 223 0
-2378 -2377 -223 0
2378 -2377 223 0
2378 2377 -223 0
-2379 2378 231 0
-2379 -2378 -231 0
2379 -2378 231 0
2379 2378 -231 0
-2380 2379 235 0
-2380 -2379 -235 0
2380 -2379 235 0
2380 2379 -235 0
-2381 2380 236 0
-2381 -2380 -236 0
2381 -2380 236 0
2381 2380 -236 0
-2382 2381 237 0
-2382 -2381 -237 0
2382 -2381 237 0
2382 2381 -237 0
-2383 2382 238 0
-2383 -2382 -238 0
2383 -2382 238 0
2383 2382 -238 0
-2384 2383 239 0
-2384 -2383 -239 0
2384 -2383 239 0
2384 2383 -239 0
-2385 2384 240 0
-2385 -2384 -240 0
2385 -2384 240 0
2385 2384 -240 0
-2386 2385 241 0
-2386 -2385 -241 0
2386 -2385 241 0
2386 2385 -241 0
-2387 2386 243 0
-2387 -2386 -243 0
2387 -2386 243 0
2387 2386 -243 0
-2388 2387 244 0
-2388 -2387 -244 0
2388 -2387 244 0
2388 2387 -244 0
-2389 2388 245 0
-2389 -2388 -245 0
2389 -2388 245 0
2389 2388 -245 0
-2390 2389 246 0
-2390 -2389 -246 0
2390 -2389 246 0
2390 2389 -246 0
-2391 2390 253 0
-2391 -2390 -253 0
2391 -2390 253 0
2391 2390 -253 0
-2392 2391 254 0
-2392 -2391 -254 0
2392 -2391 254 0
2392 2391 -254 0
-2393 2392 255 0
-2393 -2392 -255 0
2393 -2392 255 0
2393 2392 -255 0
-2394 2393 256 0
-2394 -2393 -256 0
2394 -2393 256 0
2394 2393 -256 0
-2395 2394 257 0
-2395 -2394 -257 0
2395 -2394 257 0
2395 2394 -257 0
-2396 2395 258 0
-2396 -2395 -258 0
2396 -2395 258 0
2396 2395 -258 0
-2397 2396 265 0
-2397 -2396 -265 0
2397 -2396 265 0
2397 2396 -265 0
-2398 2397 267 0
-2398 -2397 -267 0
2398 -2397 267 0
2398 2397 -267 0
-2399 2398 269 0
-2399 -2398 -269 0
2399 -2398 269 0
2399 2398 -269 0
-2400 2399 271 0
-2400 -2399 -271 0
2400 -2399 271 0
2400 2399 -271 0
-2401 2400 273 0
-2401 -2400 -273 0
2401 -2400 273 0
2401 2400 -273 0
-2402 2401 275 0
-2402 -2401 -275 0
2402 -2401 275 0
2402 2401 -275 0
-2403 2402 284 0
-2403 -2402 -284 0
2403 -2402 284 0
2403 2402 -284 0
-2404 2403 286 0
-2404 -2403 -286 0
2404 -2403 286 0
2404 2403 -286 0
-2405 2404 288 0
-2405 -2404 -288 0
2405 -2404 288 0
2405 2404 -288 0
-2405 0
-2406 69 72 0
-2406 -69 -72 0
2406 -69 72 0
2406 69 -72 0
-2407 2406 73 0
-2407 -2406 -73 0
2407 -2406 73 0
2407 2406 -73 0
-2408 2407 74 0
-2408 -2407 -74 0
2408 -2407 74 0
2408 2407 -74 0
-2409 2408 75 0
-2409 -2408 -75 0
2409 -2408 75 0
2409 2408 -75 0
-2410 2409 76 0
-2410 -2409 -76 0
2410 -2409 76 0
2410 2409 -76 0
-2411 2410 77 0
-2411 -2410 -77 0
2411 -2410 77 0
2411 2410 -77 0
-2412 2411 78 0
-2412 -2411 -78 0
2412 -2411 78 0
2412 2411 -78 0
-2413 2412 79 0
-2413 -2412 -79 0
2413 -2412 79 0
2413 2412 -79 0
-2414 2413 81 0
-2414 -2413 -81 0
2414 -2413 81 0
2414 2413 -81 0
-2415 2414 82 0
-2415 -2414 -82 0
2415 -2414 82 0
2415 2414 -82 0
-2416 2415 84 0
-2416 -2415 -84 0
2416 -2415 84 0
2416 2415 -84 0
-2417 2416 85 0
-2417 -2416 -85 0
2417 -2416 85 0
2417 2416 -85 0
-2418 2417 86 0
-2418 -2417 -86 0
2418 -2417 86 0
2418 2417 -86 0
-2419 2418 87 0
-2419 -2418 -87 0
2419 -2418 87 0
2419 2418 -87 0
-2420 2419 88 0
-2420 -2419 -88 0
2420 -2419 88 0
2420 2419 -88 0
-2421 2420 91 0
-2421 -2420 -91 0
2421 -2420 91 0
2421 2420 -91 0
-2422 2421 94 0
-2422 -2421 -94 0
2422 -2421 94 0
2422 2421 -94 0
-2423 2422 97 0
-2423 -2422 -97 0
2423 -2422 97 0
2423 2422 -97 0
-2424 2423 99 0
-2424 -2423 -99 0
2424 -2423 99 0
2424 2423 -99 0
-2425 2424 100 0
-2425 -2424 -100 0
2425 -2424 100 0
2425 2424 -100 0
-2426 2425 102 0
-2426 -2425 -102 0
2426 -2425 102 0
2426 2425 -102 0
-2427 2426 104 0
-2427 -2426 -104 0
2427 -2426 104 0
2427 2426 -104 0
-2428 2427 106 0
-2428 -2427 -106 0
2428 -2427 106 0
2428 2427 -106 0
-2429 2428 107 0
-2429 -2428 -107 0
2429 -2428 107 0
2429 2428 -107 0
-2430 2429 108 0
-2430 -2429 -108 0
2430 -2429 108 0
2430 2429 -108 0
-2431 2430 110 0
-2431 -2430 -110 0
2431 -2430 110 0
2431 2430 -110 0
-2432 2431 111 0
-2432 -2431 -111 0
2432 -2431 111 0
2432 2431 -111 0
-2433 2432 114 0
-2433 -2432 -114 0
2433 -2432 114 0
2433 2432 -114 0
-2434 2433 116 0
-2434 -2433 -116 0
2434 -2433 116 0
2434 2433 -116 0
-2435 2434 117 0
-2435 -2434 -117 0
2435 -2434 117 0
2435 2434 -117 0
-2436 2435 118 0
-2436 -2435 -118 0
2436 -2435 118 0
2436 2435 -118 0
-2437 2436 121 0
-2437 -2436 -121 0
2437 -2436 121 0
2437 2436 -121 0
-2438 2437 124 0
-2438 -2437 -124 0
2438 -2437 124 0
2438 2437 -124 0
-2439 2438 125 0
-2439 -2438 -125 0
2439 -2438 125 0
2439 2438 -125 0
-2440 2439 127 0
-2440 -2439 -127 0
2440 -2439 127 0
2440 2439 -127 0
-2441 2440 128 0
-2441 -2440 -128 0
2441 -2440 128 0
2441 2440 -128 0
-2442 2441 131 0
-2442 -2441 -131 0
2442 -2441 131 0
2442 2441 -131 0
-2443 2442 132 0
-2443 -2442 -132 0
2443 -2442 132 0
2443 2442 -132 0
-2444 2443 137 0
-2444 -2443 -137 0
2444 -2443 137 0
2444 2443 -137 0
-2445 2444 138 0
-2445 -2444 -138 0
2445 -2444 138 0
2445 2444 -138 0
-2446 2445 139 0
-2446 -2445 -139 0
2446 -2445 139 0
2446 2445 -139 0
-2447 2446 140 0
-2447 -2446 -140 0
2447 -2446 140 0
2447 2446 -140 0
-2448 2447 144 0
-2448 -2447 -144 0
2448 -2447 144 0
2448 2447 -144 0
-2449 2448 174 0
-2449 -2448 -174 0
2449 -2448 174 0
2449 2448 -174 0
-2450 2449 213 0
-2450 -2449 -213 0
2450 -2449 213 0
2450 2449 -213 0
-2451 2450 214 0
-2451 -2450 -214 0
2451 -2450 214 0
2451 2450 -214 0
-2452 2451 215 0
-2452 -2451 -215 0
2452 -2451 215 0
2452 2451 -215 0
-2453 2452 216 0
-2453 -2452 -216 0
2453 -2452 216 0
2453 2452 -216 0
-2454 2453 224 0
-2454 -2453 -224 0
2454 -2453 224 0
2454 2453 -224 0
-2455 2454 232 0
-2455 -2454 -232 0
2455 -2454 232 0
2455 2454 -232 0
-2456 2455 243 0
-2456 -2455 -243 0
2456 -2455 243 0
2456 2455 -243 0
-2457 2456 265 0
-2457 -2456 -265 0
2457 -2456 265 0
2457 2456 -265 0
-2458 2457 266 0
-2458 -2457 -266 0
2458 -2457 266 0
2458 2457 -266 0
-2459 2458 267 0
-2459 -2458 -267 0
2459 -2458 267 0
2459 2458 -267 0
-2460 2459 268 0
-2460 -2459 -268 0
2460 -2459 268 0
2460 2459 -268 0
-2461 2460 269 0
-2461 -2460 -269 0
2461 -2460 269 0
2461 2460 -269 0
-2462 2461 270 0
-2462 -2461 -270 0
2462 -2461 270 0
2462 2461 -270 0
-2463 2462 271 0
-2463 -2462 -271 0
2463 -2462 271 0
2463 2462 -271 0
-2464 2463 272 0
-2464 -2463 -272 0
2464 -2463 272 0
2464 2463 -272 0
-2465 2464 273 0
-2465 -2464 -273 0
2465 -2464 273 0
2465 2464 -273 0
-2466 2465 274 0
-2466 -2465 -274 0
2466 -2465 274 0
2466 2465 -274 0
-2467 2466 275 0
-2467 -2466 -275 0
2467 -2466 275 0
2467 2466 -275 0
-2468 2467 276 0
-2468 -2467 -276 0
2468 -2467 276 0
2468 2467 -276 0
-2469 2468 283 0
-2469 -2468 -283 0
2469 -2468 283 0
2469 2468 -283 0
-2470 2469 284 0
-2470 -2469 -284 0
2470 -2469 284 0
2470 2469 -284 0
-2471 2470 285 0
-2471 -2470 -285 0
2471 -2470 285 0
2471 2470 -285 0
-2472 2471 286 0
-2472 -2471 -286 0
2472 -2471 286 0
2472 2471 -286 0
-2473 2472 287 0
-2473 -2472 -287 0
2473 -2472 287 0
2473 2472 -287 0
-2474 2473 288 0
-2474 -2473 -288 0
2474 -2473 288 0
2474 2473 -288 0
-2474 0
-2475 74 76 0
-2475 -74 -76 0
2475 -74 76 0
2475 74 -76 0
-2476 2475 77 0
-2476 -2475 -77 0
2476 -2475 77 0
2476 2475 -77 0
-2477 2476 80 0
-2477 -2476 -80 0
2477 -2476 80 0
2477 2476 -80 0
-2478 2477 81 0
-2478 -2477 -81 0
2478 -2477 81 0
2478 2477 -81 0
-2479 2478 82 0
-2479 -2478 -82 0
2479 -2478 82 0
2479 2478 -82 0
-2480 2479 83 0
-2480 -2479 -83 0
2480 -2479 83 0
2480 2479 -83 0
-2481 2480 86 0
-2481 -2480 -86 0
2481 -2480 86 0
2481 2480 -86 0
-2482 2481 87 0
-2482 -2481 -87 0
2482 -2481 87 0
2482 2481 -87 0
-2483 2482 88 0
-2483 -2482 -88 0
2483 -2482 88 0
2483 2482 -88 0
-2484 2483 89 0
-2484 -2483 -89 0
2484 -2483 89 0
2484 2483 -89 0
-2485 2484 92 0
-2485 -2484 -92 0
2485 -2484 92 0
2485 2484 -92 0
-2486 2485 94 0
-2486 -2485 -94 0
2486 -2485 94 0
2486 2485 -94 0
-2487 2486 97 0
-2487 -2486 -97 0
2487 -2486 97 0
2487 2486 -97 0
-2488 2487 98 0
-2488 -2487 -98 0
2488 -2487 98 0
2488 2487 -98 0
-2489 2488 100 0
-2489 -2488 -100 0
2489 -2488 100 0
2489 2488 -100 0
-2490 2489 101 0
-2490 -2489 -101 0
2490 -2489 101 0
2490 2489 -101 0
-2491 2490 104 0
-2491 -2490 -104 0
2491 -2490 104 0
2491 2490 -104 0
-2492 2491 105 0
-2492 -2491 -105 0
2492 -2491 105 0
2492 2491 -105 0
-2493 2492 106 0
-2493 -2492 -106 0
2493 -2492 106 0
2493 2492 -106 0
-2494 2493 107 0
-2494 -2493 -107 0
2494 -2493 107 0
2494 2493 -107 0
-2495 2494 109 0
-2495 -2494 -109 0
2495 -2494 109 0
2495 2494 -109 0
-2496 2495 110 0
-2496 -2495 -110 0
2496 -2495 110 0
2496 2495 -110 0
-2497 2496 111 0
-2497 -2496 -111 0
2497 -2496 111 0
2497 2496 -111 0
-2498 2497 112 0
-2498 -2497 -112 0
2498 -2497 112 0
2498 2497 -112 0
-2499 2498 115 0
-2499 -2498 -115 0
2499 -2498 115 0
2499 2498 -115 0
-2500 2499 116 0
-2500 -2499 -116 0
2500 -2499 116 0
2500 2499 -116 0
-2501 2500 118 0
-2501 -2500 -118 0
2501 -2500 118 0
2501 2500 -118 0
-2502 2501 121 0
-2502 -2501 -121 0
2502 -2501 121 0
2502 2501 -121 0
-2503 2502 122 0
-2503 -2502 -122 0
2503 -2502 122 0
2503 2502 -122 0
-2504 2503 124 0
-2504 -2503 -124 0
2504 -2503 124 0
2504 2503 -124 0
-2505 2504 127 0
-2505 -2504 -127 0
2505 -2504 127 0
2505 2504 -127 0
-2506 2505 128 0
-2506 -2505 -128 0
2506 -2505 128 0
2506 2505 -128 0
-2507 2506 129 0
-2507 -2506 -129 0
2507 -2506 129 0
2507 2506 -129 0
-2508 2507 130 0
-2508 -2507 -130 0
2508 -2507 130 0
2508 2507 -130 0
-2509 2508 131 0
-2509 -2508 -131 0
2509 -2508 131 0
2509 2508 -131 0
-2510 2509 133 0
-2510 -2509 -133 0
2510 -2509 133 0
2510 2509 -133 0
-2511 2510 134 0
-2511 -2510 -134 0
2511 -2510 134 0
2511 2510 -134 0
-2512 2511 136 0
-2512 -2511 -136 0
2512 -2511 136 0
2512 2511 -136 0
-2513 2512 137 0
-2513 -2512 -137 0
2513 -2512 137 0
2513 2512 -137 0
-2514 2513 140 0
-2514 -2513 -140 0
2514 -2513 140 0
2514 2513 -140 0
-2515 2514 141 0
-2515 -2514 -141 0
2515 -2514 141 0
2515 2514 -141 0
-2516 2515 142 0
-2516 -2515 -142 0
2516 -2515 142 0
2516 2515 -142 0
-2517 2516 143 0
-2517 -2516 -143 0
2517 -2516 143 0
2517 2516 -143 0
-2518 2517 175 0
-2518 -2517 -175 0
2518 -2517 175 0
2518 2517 -175 0
-2519 2518 213 0
-2519 -2518 -213 0
2519 -2518 213 0
2519 2518 -213 0
-2520 2519 215 0
-2520 -2519 -215 0
2520 -2519 215 0
2520 2519 -215 0
-2521 2520 218 0
-2521 -2520 -218 0
2521 -2520 218 0
2521 2520 -218 0
-2522 2521 219 0
-2522 -2521 -219 0
2522 -2521 219 0
2522 2521 -219 0
-2523 2522 220 0
-2523 -2522 -220 0
2523 -2522 220 0
2523 2522 -220 0
-2524 2523 222 0
-2524 -2523 -222 0
2524 -2523 222 0
2524 2523 -222 0
-2525 2524 223 0
-2525 -2524 -223 0
2525 -2524 223 0
2525 2524 -223 0
-2526 2525 224 0
-2526 -2525 -224 0
2526 -2525 224 0
2526 2525 -224 0
-2527 2526 225 0
-2527 -2526 -225 0
2527 -2526 225 0
2527 2526 -225 0
-2528 2527 228 0
-2528 -2527 -228 0
2528 -2527 228 0
2528 2527 -228 0
-2529 2528 229 0
-2529 -2528 -229 0
2529 -2528 229 0
2529 2528 -229 0
-2530 2529 231 0
-2530 -2529 -231 0
2530 -2529 231 0
2530 2529 -231 0
-2531 2530 233 0
-2531 -2530 -233 0
2531 -2530 233 0
2531 2530 -233 0
-2532 2531 239 0
-2532 -2531 -239 0
2532 -2531 239 0
2532 2531 -239 0
-2533 2532 242 0
-2533 -2532 -242 0
2533 -2532 242 0
2533 2532 -242 0
-2534 2533 243 0
-2534 -2533 -243 0
2534 -2533 243 0
2534 2533 -243 0
-2535 2534 244 0
-2535 -2534 -244 0
2535 -2534 244 0
2535 2534 -244 0
-2536 2535 245 0
-2536 -2535 -245 0
2536 -2535 245 0
2536 2535 -245 0
-2537 2536 247 0
-2537 -2536 -247 0
2537 -2536 247 0
2537 2536 -247 0
-2538 2537 249 0
-2538 -2537 -249 0
2538 -2537 249 0
2538 2537 -249 0
-2539 2538 250 0
-2539 -2538 -250 0
2539 -2538 250 0
2539 2538 -250 0
-2540 2539 253 0
-2540 -2539 -253 0
2540 -2539 253 0
2540 2539 -253 0
-2541 2540 257 0
-2541 -2540 -257 0
2541 -2540 257 0
2541 2540 -257 0
-2542 2541 259 0
-2542 -2541 -259 0
2542 -2541 259 0
2542 2541 -259 0
-2543 2542 260 0
-2543 -2542 -260 0
2543 -2542 260 0
2543 2542 -260 0
-2544 2543 261 0
-2544 -2543 -261 0
2544 -2543 261 0
2544 2543 -261 0
-2545 2544 264 0
-2545 -2544 -264 0
2545 -2544 264 0
2545 2544 -264 0
-2546 2545 272 0
-2546 -2545 -272 0
2546 -2545 272 0
2546 2545 -272 0
-2547 2546 274 0
-2547 -2546 -274 0
2547 -2546 274 0
2547 2546 -274 0
-2548 2547 275 0
-2548 -2547 -275 0
2548 -2547 275 0
2548 2547 -275 0
-2549 2548 276 0
-2549 -2548 -276 0
2549 -2548 276 0
2549 2548 -276 0
-2550 2549 277 0
-2550 -2549 -277 0
2550 -2549 277 0
2550 2549 -277 0
-2551 2550 282 0
-2551 -2550 -282 0
2551 -2550 282 0
2551 2550 -282 0
-2552 2551 283 0
-2552 -2551 -283 0
2552 -2551 283 0
2552 2551 -283 0
-2553 2552 284 0
-2553 -2552 -284 0
2553 -2552 284 0
2553 2552 -284 0
-2554 2553 285 0
-2554 -2553 -285 0
2554 -2553 285 0
2554 2553 -285 0
-2555 2554 288 0
-2555 -2554 -288 0
2555 -2554 288 0
2555 2554 -288 0
-2555 0
-2556 75 77 0
-2556 -75 -77 0
2556 -75 77 0
2556 75 -77 0
-2557 2556 78 0
-2557 -2556 -78 0
2557 -2556 78 0
2557 2556 -78 0
-2558 2557 81 0
-2558 -2557 -81 0
2558 -2557 81 0
2558 2557 -81 0
-2559 2558 82 0
-2559 -2558 -82 0
2559 -2558 82 0
2559 2558 -82 0
-2560 2559 83 0
-2560 -2559 -83 0
2560 -2559 83 0
2560 2559 -83 0
-2561 2560 84 0
-2561 -2560 -84 0
2561 -2560 84 0
2561 2560 -84 0
-2562 2561 87 0
-2562 -2561 -87 0
2562 -2561 87 0
2562 2561 -87 0
-2563 2562 88 0
-2563 -2562 -88 0
2563 -2562 88 0
2563 2562 -88 0
-2564 2563 89 0
-2564 -2563 -89 0
2564 -2563 89 0
2564 2563 -89 0
-2565 2564 90 0
-2565 -2564 -90 0
2565 -2564 90 0
2565 2564 -90 0
-2566 2565 93 0
-2566 -2565 -93 0
2566 -2565 93 0
2566 2565 -93 0
-2567 2566 95 0
-2567 -2566 -95 0
2567 -2566 95 0
2567 2566 -95 0
-2568 2567 98 0
-2568 -2567 -98 0
2568 -2567 98 0
2568 2567 -98 0
-2569 2568 99 0
-2569 -2568 -99 0
2569 -2568 99 0
2569 2568 -99 0
-2570 2569 101 0
-2570 -2569 -101 0
2570 -2569 101 0
2570 2569 -101 0
-2571 2570 102 0
-2571 -2570 -102 0
2571 -2570 102 0
2571 2570 -102 0
-2572 2571 105 0
-2572 -2571 -105 0
2572 -2571 105 0
2572 2571 -105 0
-2573 2572 106 0
-2573 -2572 -106 0
2573 -2572 106 0
2573 2572 -106 0
-2574 2573 107 0
-2574 -2573 -107 0
2574 -2573 107 0
2574 2573 -107 0
-2575 2574 108 0
-2575 -2574 -108 0
2575 -2574 108 0
2575 2574 -108 0
-2576 2575 110 0
-2576 -2575 -110 0
2576 -2575 110 0
2576 2575 -110 0
-2577 2576 111 0
-2577 -2576 -111 0
2577 -2576 111 0
2577 2576 -111 0
-2578 2577 112 0
-2578 -2577 -112 0
2578 -2577 112 0
2578 2577 -112 0
-2579 2578 113 0
-2579 -2578 -113 0
2579 -2578 113 0
2579 2578 -113 0
-2580 2579 116 0
-2580 -2579 -116 0
2580 -2579 116 0
2580 2579 -116 0
-2581 2580 117 0
-2581 -2580 -117 0
2581 -2580 117 0
2581 2580 -117 0
-2582 2581 119 0
-2582 -2581 -119 0
2582 -2581 119 0
2582 2581 -119 0
-2583 2582 122 0
-2583 -2582 -122 0
2583 -2582 122 0
2583 2582 -122 0
-2584 2583 123 0
-2584 -2583 -123 0
2584 -2583 123 0
2584 2583 -123 0
-2585 2584 125 0
-2585 -2584 -125 0
2585 -2584 125 0
2585 2584 -125 0
-2586 2585 128 0
-2586 -2585 -128 0
2586 -2585 128 0
2586 2585 -128 0
-2587 2586 129 0
-2587 -2586 -129 0
2587 -2586 129 0
2587 2586 -129 0
-2588 2587 130 0
-2588 -2587 -130 0
2588 -2587 130 0
2588 2587 -130 0
-2589 2588 131 0
-2589 -2588 -131 0
2589 -2588 131 0
2589 2588 -131 0
-2590 2589 132 0
-2590 -2589 -132 0
2590 -2589 132 0
2590 2589 -132 0
-2591 2590 134 0
-2591 -2590 -134 0
2591 -2590 134 0
2591 2590 -134 0
-2592 2591 135 0
-2592 -2591 -135 0
2592 -2591 135 0
2592 2591 -135 0
-2593 2592 137 0
-2593 -2592 -137 0
2593 -2592 137 0
2593 2592 -137 0
-2594 2593 138 0
-2594 -2593 -138 0
2594 -2593 138 0
2594 2593 -138 0
-2595 2594 141 0
-2595 -2594 -141 0
2595 -2594 141 0
2595 2594 -141 0
-2596 2595 142 0
-2596 -2595 -142 0
2596 -2595 142 0
2596 2595 -142 0
-2597 2596 143 0
-2597 -2596 -143 0
2597 -2596 143 0
2597 2596 -143 0
-2598 2597 144 0
-2598 -2597 -144 0
2598 -2597 144 0
2598 2597 -144 0
-2599 2598 176 0
-2599 -2598 -176 0
2599 -2598 176 0
2599 2598 -176 0
-2600 2599 214 0
-2600 -2599 -214 0
2600 -2599 214 0
2600 2599 -214 0
-2601 2600 216 0
-2601 -2600 -216 0
2601 -2600 216 0
2601 2600 -216 0
-2602 2601 217 0
-2602 -2601 -217 0
2602 -2601 217 0
2602 2601 -217 0
-2603 2602 219 0
-2603 -2602 -219 0
2603 -2602 219 0
2603 2602 -219 0
-2604 2603 220 0
-2604 -2603 -220 0
2604 -2603 220 0
2604 2603 -220 0
-2605 2604 221 0
-2605 -2604 -221 0
2605 -2604 221 0
2605 2604 -221 0
-2606 2605 223 0
-2606 -2605 -223 0
2606 -2605 223 0
2606 2605 -223 0
-2607 2606 224 0
-2607 -2606 -224 0
2607 -2606 224 0
2607 2606 -224 0
-2608 2607 225 0
-2608 -2607 -225 0
2608 -2607 225 0
2608 2607 -225 0
-2609 2608 226 0
-2609 -2608 -226 0
2609 -2608 226 0
2609 2608 -226 0
-2610 2609 230 0
-2610 -2609 -230 0
2610 -2609 230 0
2610 2609 -230 0
-2611 2610 232 0
-2611 -2610 -232 0
2611 -2610 232 0
2611 2610 -232 0
-2612 2611 234 0
-2612 -2611 -234 0
2612 -2611 234 0
2612 2611 -234 0
-2613 2612 240 0
-2613 -2612 -240 0
2613 -2612 240 0
2613 2612 -240 0
-2614 2613 243 0
-2614 -2613 -243 0
2614 -2613 243 0
2614 2613 -243 0
-2615 2614 244 0
-2615 -2614 -244 0
2615 -2614 244 0
2615 2614 -244 0
-2616 2615 245 0
-2616 -2615 -245 0
2616 -2615 245 0
2616 2615 -245 0
-2617 2616 246 0
-2617 -2616 -246 0
2617 -2616 246 0
2617 2616 -246 0
-2618 2617 248 0
-2618 -2617 -248 0
2618 -2617 248 0
2618 2617 -248 0
-2619 2618 250 0
-2619 -2618 -250 0
2619 -2618 250 0
2619 2618 -250 0
-2620 2619 251 0
-2620 -2619 -251 0
2620 -2619 251 0
2620 2619 -251 0
-2621 2620 254 0
-2621 -2620 -254 0
2621 -2620 254 0
2621 2620 -254 0
-2622 2621 258 0
-2622 -2621 -258 0
2622 -2621 258 0
2622 2621 -258 0
-2623 2622 259 0
-2623 -2622 -259 0
2623 -2622 259 0
2623 2622 -259 0
-2624 2623 260 0
-2624 -2623 -260 0
2624 -2623 260 0
2624 2623 -260 0
-2625 2624 261 0
-2625 -2624 -261 0
2625 -2624 261 0
2625 2624 -261 0
-2626 2625 262 0
-2626 -2625 -262 0
2626 -2625 262 0
2626 2625 -262 0
-2627 2626 271 0
-2627 -2626 -271 0
2627 -2626 271 0
2627 2626 -271 0
-2628 2627 273 0
-2628 -2627 -273 0
2628 -2627 273 0
2628 2627 -273 0
-2629 2628 275 0
-2629 -2628 -275 0
2629 -2628 275 0
2629 2628 -275 0
-2630 2629 276 0
-2630 -2629 -276 0
2630 -2629 276 0
2630 2629 -276 0
-2631 2630 277 0
-2631 -2630 -277 0
2631 -2630 277 0
2631 2630 -277 0
-2632 2631 278 0
-2632 -2631 -278 0
2632 -2631 278 0
2632 2631 -278 0
-2633 2632 283 0
-2633 -2632 -283 0
2633 -2632 283 0
2633 2632 -283 0
-2634 2633 284 0
-2634 -2633 -284 0
2634 -2633 284 0
2634 2633 -284 0
-2635 2634 285 0
-2635 -2634 -285 0
2635 -2634 285 0
2635 2634 -285 0
-2636 2635 286 0
-2636 -2635 -286 0
2636 -2635 286 0
2636 2635 -286 0
-2636 0
-2637 73 76 0
-2637 -73 -76 0
2637 -73 76 0
2637 73 -76 0
-2638 2637 78 0
-2638 -2637 -78 0
2638 -2637 78 0
2638 2637 -78 0
-2639 2638 81 0
-2639 -2638 -81 0
2639 -2638 81 0
2639 2638 -81 0
-2640 2639 82 0
-2640 -2639 -82 0
2640 -2639 82 0
2640 2639 -82 0
-2641 2640 84 0
-2641 -2640 -84 0
2641 -2640 84 0
2641 2640 -84 0
-2642 2641 87 0
-2642 -2641 -87 0
2642 -2641 87 0
2642 2641 -87 0
-2643 2642 88 0
-2643 -2642 -88 0
2643 -2642 88 0
2643 2642 -88 0
-2644 2643 90 0
-2644 -2643 -90 0
2644 -2643 90 0
2644 2643 -90 0
-2645 2644 91 0
-2645 -2644 -91 0
2645 -2644 91 0
2645 2644 -91 0
-2646 2645 93 0
-2646 -2645 -93 0
2646 -2645 93 0
2646 2645 -93 0
-2647 2646 94 0
-2647 -2646 -94 0
2647 -2646 94 0
2647 2646 -94 0
-2648 2647 95 0
-2648 -2647 -95 0
2648 -2647 95 0
2648 2647 -95 0
-2649 2648 96 0
-2649 -2648 -96 0
2649 -2648 96 0
2649 2648 -96 0
-2650 2649 97 0
-2650 -2649 -97 0
2650 -2649 97 0
2650 2649 -97 0
-2651 2650 99 0
-2651 -2650 -99 0
2651 -2650 99 0
2651 2650 -99 0
-2652 2651 100 0
-2652 -2651 -100 0
2652 -2651 100 0
2652 2651 -100 0
-2653 2652 102 0
-2653 -2652 -102 0
2653 -2652 102 0
2653 2652 -102 0
-2654 2653 103 0
-2654 -2653 -103 0
2654 -2653 103 0
2654 2653 -103 0
-2655 2654 106 0
-2655 -2654 -106 0
2655 -2654 106 0
2655 2654 -106 0
-2656 2655 107 0
-2656 -2655 -107 0
2656 -2655 107 0
2656 2655 -107 0
-2657 2656 108 0
-2657 -2656 -108 0
2657 -2656 108 0
2657 2656 -108 0
-2658 2657 109 0
-2658 -2657 -109 0
2658 -2657 109 0
2658 2657 -109 0
-2659 2658 112 0
-2659 -2658 -112 0
2659 -2658 112 0
2659 2658 -112 0
-2660 2659 114 0
-2660 -2659 -114 0
2660 -2659 114 0
2660 2659 -114 0
-2661 2660 117 0
-2661 -2660 -117 0
2661 -2660 117 0
2661 2660 -117 0
-2662 2661 118 0
-2662 -2661 -118 0
2662 -2661 118 0
2662 2661 -118 0
-2663 2662 120 0
-2663 -2662 -120 0
2663 -2662 120 0
2663 2662 -120 0
-2664 2663 123 0
-2664 -2663 -123 0
2664 -2663 123 0
2664 2663 -123 0
-2665 2664 124 0
-2665 -2664 -124 0
2665 -2664 124 0
2665 2664 -124 0
-2666 2665 126 0
-2666 -2665 -126 0
2666 -2665 126 0
2666 2665 -126 0
-2667 2666 127 0
-2667 -2666 -127 0
2667 -2666 127 0
2667 2666 -127 0
-2668 2667 129 0
-2668 -2667 -129 0
2668 -2667 129 0
2668 2667 -129 0
-2669 2668 130 0
-2669 -2668 -130 0
2669 -2668 130 0
2669 2668 -130 0
-2670 2669 131 0
-2670 -2669 -131 0
2670 -2669 131 0
2670 2669 -131 0
-2671 2670 132 0
-2671 -2670 -132 0
2671 -2670 132 0
2671 2670 -132 0
-2672 2671 133 0
-2672 -2671 -133 0
2672 -2671 133 0
2672 2671 -133 0
-2673 2672 135 0
-2673 -2672 -135 0
2673 -2672 135 0
2673 2672 -135 0
-2674 2673 136 0
-2674 -2673 -136 0
2674 -2673 136 0
2674 2673 -136 0
-2675 2674 138 0
-2675 -2674 -138 0
2675 -2674 138 0
2675 2674 -138 0
-2676 2675 139 0
-2676 -2675 -139 0
2676 -2675 139 0
2676 2675 -139 0
-2677 2676 142 0
-2677 -2676 -142 0
2677 -2676 142 0
2677 2676 -142 0
-2678 2677 143 0
-2678 -2677 -143 0
2678 -2677 143 0
2678 2677 -143 0
-2679 2678 144 0
-2679 -2678 -144 0
2679 -2678 144 0
2679 2678 -144 0
-2680 2679 177 0
-2680 -2679 -177 0
2680 -2679 177 0
2680 2679 -177 0
-2681 2680 213 0
-2681 -2680 -213 0
2681 -2680 213 0
2681 2680 -213 0
-2682 2681 218 0
-2682 -2681 -218 0
2682 -2681 218 0
2682 2681 -218 0
-2683 2682 220 0
-2683 -2682 -220 0
2683 -2682 220 0
2683 2682 -220 0
-2684 2683 221 0
-2684 -2683 -221 0
2684 -2683 221 0
2684 2683 -221 0
-2685 2684 222 0
-2685 -2684 -222 0
2685 -2684 222 0
2685 2684 -222 0
-2686 2685 224 0
-2686 -2685 -224 0
2686 -2685 224 0
2686 2685 -224 0
-2687 2686 225 0
-2687 -2686 -225 0
2687 -2686 225 0
2687 2686 -225 0
-2688 2687 226 0
-2688 -2687 -226 0
2688 -2687 226 0
2688 2687 -226 0
-2689 2688 227 0
-2689 -2688 -227 0
2689 -2688 227 0
2689 2688 -227 0
-2690 2689 229 0
-2690 -2689 -229 0
2690 -2689 229 0
2690 2689 -229 0
-2691 2690 231 0
-2691 -2690 -231 0
2691 -2690 231 0
2691 2690 -231 0
-2692 2691 233 0
-2692 -2691 -233 0
2692 -2691 233 0
2692 2691 -233 0
-2693 2692 236 0
-2693 -2692 -236 0
2693 -2692 236 0
2693 2692 -236 0
-2694 2693 237 0
-2694 -2693 -237 0
2694 -2693 237 0
2694 2693 -237 0
-2695 2694 238 0
-2695 -2694 -238 0
2695 -2694 238 0
2695 2694 -238 0
-2696 2695 239 0
-2696 -2695 -239 0
2696 -2695 239 0
2696 2695 -239 0
-2697 2696 240 0
-2697 -2696 -240 0
2697 -2696 240 0
2697 2696 -240 0
-2698 2697 242 0
-2698 -2697 -242 0
2698 -2697 242 0
2698 2697 -242 0
-2699 2698 243 0
-2699 -2698 -243 0
2699 -2698 243 0
2699 2698 -243 0
-2700 2699 249 0
-2700 -2699 -249 0
2700 -2699 249 0
2700 2699 -249 0
-2701 2700 251 0
-2701 -2700 -251 0
2701 -2700 251 0
2701 2700 -251 0
-2702 2701 252 0
-2702 -2701 -252 0
2702 -2701 252 0
2702 2701 -252 0
-2703 2702 254 0
-2703 -2702 -254 0
2703 -2702 254 0
2703 2702 -254 0
-2704 2703 256 0
-2704 -2703 -256 0
2704 -2703 256 0
2704 2703 -256 0
-2705 2704 257 0
-2705 -2704 -257 0
2705 -2704 257 0
2705 2704 -257 0
-2706 2705 258 0
-2706 -2705 -258 0
2706 -2705 258 0
2706 2705 -258 0
-2707 2706 260 0
-2707 -2706 -260 0
2707 -2706 260 0
2707 2706 -260 0
-2708 2707 261 0
-2708 -2707 -261 0
2708 -2707 261 0
2708 2707 -261 0
-2709 2708 262 0
-2709 -2708 -262 0
2709 -2708 262 0
2709 2708 -262 0
-2710 2709 263 0
-2710 -2709 -263 0
2710 -2709 263 0
2710 2709 -263 0
-2711 2710 265 0
-2711 -2710 -265 0
2711 -2710 265 0
2711 2710 -265 0
-2712 2711 267 0
-2712 -2711 -267 0
2712 -2711 267 0
2712 2711 -267 0
-2713 2712 269 0
-2713 -2712 -269 0
2713 -2712 269 0
2713 2712 -269 0
-2714 2713 272 0
-2714 -2713 -272 0
2714 -2713 272 0
2714 2713 -272 0
-2715 2714 273 0
-2715 -2714 -273 0
2715 -2714 273 0
2715 2714 -273 0
-2716 2715 274 0
-2716 -2715 -274 0
2716 -2715 274 0
2716 2715 -274 0
-2717 2716 275 0
-2717 -2716 -275 0
2717 -2716 275 0
2717 2716 -275 0
-2718 2717 276 0
-2718 -2717 -276 0
2718 -2717 276 0
2718 2717 -276 0
-2719 2718 278 0
-2719 -2718 -278 0
2719 -2718 278 0
2719 2718 -278 0
-2720 2719 279 0
-2720 -2719 -279 0
2720 -2719 279 0
2720 2719 -279 0
-2721 2720 285 0
-2721 -2720 -285 0
2721 -2720 285 0
2721 2720 -285 0
-2722 2721 287 0
-2722 -2721 -287 0
2722 -2721 287 0
2722 2721 -287 0
-2723 2722 288 0
-2723 -2722 -288 0
2723 -2722 288 0
2723 2722 -288 0
-2723 0
-2724 73 74 0
-2724 -73 -74 0
2724 -73 74 0
2724 73 -74 0
-2725 2724 77 0
-2725 -2724 -77 0
2725 -2724 77 0
2725 2724 -77 0
-2726 2725 79 0
-2726 -2725 -79 0
2726 -2725 79 0
2726 2725 -79 0
-2727 2726 82 0
-2727 -2726 -82 0
2727 -2726 82 0
2727 2726 -82 0
-2728 2727 83 0
-2728 -2727 -83 0
2728 -2727 83 0
2728 2727 -83 0
-2729 2728 85 0
-2729 -2728 -85 0
2729 -2728 85 0
2729 2728 -85 0
-2730 2729 88 0
-2730 -2729 -88 0
2730 -2729 88 0
2730 2729 -88 0
-2731 2730 89 0
-2731 -2730 -89 0
2731 -2730 89 0
2731 2730 -89 0
-2732 2731 91 0
-2732 -2731 -91 0
2732 -2731 91 0
2732 2731 -91 0
-2733 2732 92 0
-2733 -2732 -92 0
2733 -2732 92 0
2733 2732 -92 0
-2734 2733 94 0
-2734 -2733 -94 0
2734 -2733 94 0
2734 2733 -94 0
-2735 2734 95 0
-2735 -2734 -95 0
2735 -2734 95 0
2735 2734 -95 0
-2736 2735 96 0
-2736 -2735 -96 0
2736 -2735 96 0
2736 2735 -96 0
-2737 2736 97 0
-2737 -2736 -97 0
2737 -2736 97 0
2737 2736 -97 0
-2738 2737 98 0
-2738 -2737 -98 0
2738 -2737 98 0
2738 2737 -98 0
-2739 2738 100 0
-2739 -2738 -100 0
2739 -2738 100 0
2739 2738 -100 0
-2740 2739 101 0
-2740 -2739 -101 0
2740 -2739 101 0
2740 2739 -101 0
-2741 2740 103 0
-2741 -2740 -103 0
2741 -2740 103 0
2741 2740 -103 0
-2742 2741 104 0
-2742 -2741 -104 0
2742 -2741 104 0
2742 2741 -104 0
-2743 2742 107 0
-2743 -2742 -107 0
2743 -2742 107 0
2743 2742 -107 0
-2744 2743 108 0
-2744 -2743 -108 0
2744 -2743 108 0
2744 2743 -108 0
-2745 2744 109 0
-2745 -2744 -109 0
2745 -2744 109 0
2745 2744 -109 0
-2746 2745 110 0
-2746 -2745 -110 0
2746 -2745 110 0
2746 2745 -110 0
-2747 2746 113 0
-2747 -2746 -113 0
2747 -2746 113 0
2747 2746 -113 0
-2748 2747 115 0
-2748 -2747 -115 0
2748 -2747 115 0
2748 2747 -115 0
-2749 2748 118 0
-2749 -2748 -118 0
2749 -2748 118 0
2749 2748 -118 0
-2750 2749 119 0
-2750 -2749 -119 0
2750 -2749 119 0
2750 2749 -119 0
-2751 2750 121 0
-2751 -2750 -121 0
2751 -2750 121 0
2751 2750 -121 0
-2752 2751 124 0
-2752 -2751 -124 0
2752 -2751 124 0
2752 2751 -124 0
-2753 2752 125 0
-2753 -2752 -125 0
2753 -2752 125 0
2753 2752 -125 0
-2754 2753 127 0
-2754 -2753 -127 0
2754 -2753 127 0
2754 2753 -127 0
-2755 2754 128 0
-2755 -2754 -128 0
2755 -2754 128 0
2755 2754 -128 0
-2756 2755 130 0
-2756 -2755 -130 0
2756 -2755 130 0
2756 2755 -130 0
-2757 2756 131 0
-2757 -2756 -131 0
2757 -2756 131 0
2757 2756 -131 0
-2758 2757 132 0
-2758 -2757 -132 0
2758 -2757 132 0
2758 2757 -132 0
-2759 2758 133 0
-2759 -2758 -133 0
2759 -2758 133 0
2759 2758 -133 0
-2760 2759 134 0
-2760 -2759 -134 0
2760 -2759 134 0
2760 2759 -134 0
-2761 2760 136 0
-2761 -2760 -136 0
2761 -2760 136 0
2761 2760 -136 0
-2762 2761 137 0
-2762 -2761 -137 0
2762 -2761 137 0
2762 2761 -137 0
-2763 2762 139 0
-2763 -2762 -139 0
2763 -2762 139 0
2763 2762 -139 0
-2764 2763 140 0
-2764 -2763 -140 0
2764 -2763 140 0
2764 2763 -140 0
-2765 2764 143 0
-2765 -2764 -143 0
2765 -2764 143 0
2765 2764 -143 0
-2766 2765 144 0
-2766 -2765 -144 0
2766 -2765 144 0
2766 2765 -144 0
-2767 2766 178 0
-2767 -2766 -178 0
2767 -2766 178 0
2767 2766 -178 0
-2768 2767 214 0
-2768 -2767 -214 0
2768 -2767 214 0
2768 2767 -214 0
-2769 2768 217 0
-2769 -2768 -217 0
2769 -2768 217 0
2769 2768 -217 0
-2770 2769 219 0
-2770 -2769 -219 0
2770 -2769 219 0
2770 2769 -219 0
-2771 2770 221 0
-2771 -2770 -221 0
2771 -2770 221 0
2771 2770 -221 0
-2772 2771 222 0
-2772 -2771 -222 0
2772 -2771 222 0
2772 2771 -222 0
-2773 2772 225 0
-2773 -2772 -225 0
2773 -2772 225 0
2773 2772 -225 0
-2774 2773 226 0
-2774 -2773 -226 0
2774 -2773 226 0
2774 2773 -226 0
-2775 2774 227 0
-2775 -2774 -227 0
2775 -2774 227 0
2775 2774 -227 0
-2776 2775 228 0
-2776 -2775 -228 0
2776 -2775 228 0
2776 2775 -228 0
-2777 2776 230 0
-2777 -2776 -230 0
2777 -2776 230 0
2777 2776 -230 0
-2778 2777 232 0
-2778 -2777 -232 0
2778 -2777 232 0
2778 2777 -232 0
-2779 2778 234 0
-2779 -2778 -234 0
2779 -2778 234 0
2779 2778 -234 0
-2780 2779 235 0
-2780 -2779 -235 0
2780 -2779 235 0
2780 2779 -235 0
-2781 2780 237 0
-2781 -2780 -237 0
2781 -2780 237 0
2781 2780 -237 0
-2782 2781 238 0
-2782 -2781 -238 0
2782 -2781 238 0
2782 2781 -238 0
-2783 2782 239 0
-2783 -2782 -239 0
2783 -2782 239 0
2783 2782 -239 0
-2784 2783 240 0
-2784 -2783 -240 0
2784 -2783 240 0
2784 2783 -240 0
-2785 2784 243 0
-2785 -2784 -243 0
2785 -2784 243 0
2785 2784 -243 0
-2786 2785 244 0
-2786 -2785 -244 0
2786 -2785 244 0
2786 2785 -244 0
-2787 2786 247 0
-2787 -2786 -247 0
2787 -2786 247 0
2787 2786 -247 0
-2788 2787 250 0
-2788 -2787 -250 0
2788 -2787 250 0
2788 2787 -250 0
-2789 2788 252 0
-2789 -2788 -252 0
2789 -2788 252 0
2789 2788 -252 0
-2790 2789 253 0
-2790 -2789 -253 0
2790 -2789 253 0
2790 2789 -253 0
-2791 2790 255 0
-2791 -2790 -255 0
2791 -2790 255 0
2791 2790 -255 0
-2792 2791 257 0
-2792 -2791 -257 0
2792 -2791 257 0
2792 2791 -257 0
-2793 2792 258 0
-2793 -2792 -258 0
2793 -2792 258 0
2793 2792 -258 0
-2794 2793 261 0
-2794 -2793 -261 0
2794 -2793 261 0
2794 2793 -261 0
-2795 2794 262 0
-2795 -2794 -262 0
2795 -2794 262 0
2795 2794 -262 0
-2796 2795 263 0
-2796 -2795 -263 0
2796 -2795 263 0
2796 2795 -263 0
-2797 2796 264 0
-2797 -2796 -264 0
2797 -2796 264 0
2797 2796 -264 0
-2798 2797 266 0
-2798 -2797 -266 0
2798 -2797 266 0
2798 2797 -266 0
-2799 2798 268 0
-2799 -2798 -268 0
2799 -2798 268 0
2799 2798 -268 0
-2800 2799 270 0
-2800 -2799 -270 0
2800 -2799 270 0
2800 2799 -270 0
-2801 2800 271 0
-2801 -2800 -271 0
2801 -2800 271 0
2801 2800 -271 0
-2802 2801 273 0
-2802 -2801 -273 0
2802 -2801 273 0
2802 2801 -273 0
-2803 2802 274 0
-2803 -2802 -274 0
2803 -2802 274 0
2803 2802 -274 0
-2804 2803 275 0
-2804 -2803 -275 0
2804 -2803 275 0
2804 2803 -275 0
-2805 2804 276 0
-2805 -2804 -276 0
2805 -2804 276 0
2805 2804 -276 0
-2806 2805 279 0
-2806 -2805 -279 0
2806 -2805 279 0
2806 2805 -279 0
-2807 2806 280 0
-2807 -2806 -280 0
2807 -2806 280 0
2807 2806 -280 0
-2808 2807 283 0
-2808 -2807 -283 0
2808 -2807 283 0
2808 2807 -283 0
-2809 2808 286 0
-2809 -2808 -286 0
2809 -2808 286 0
2809 2808 -286 0
-2810 2809 288 0
-2810 -2809 -288 0
2810 -2809 288 0
2810 2809 -288 0
-2810 0
-2811 74 75 0
-2811 -74 -75 0
2811 -74 75 0
2811 74 -75 0
-2812 2811 78 0
-2812 -2811 -78 0
2812 -2811 78 0
2812 2811 -78 0
-2813 2812 80 0
-2813 -2812 -80 0
2813 -2812 80 0
2813 2812 -80 0
-2814 2813 83 0
-2814 -2813 -83 0
2814 -2813 83 0
2814 2813 -83 0
-2815 2814 84 0
-2815 -2814 -84 0
2815 -2814 84 0
2815 2814 -84 0
-2816 2815 86 0
-2816 -2815 -86 0
2816 -2815 86 0
2816 2815 -86 0
-2817 2816 89 0
-2817 -2816 -89 0
2817 -2816 89 0
2817 2816 -89 0
-2818 2817 90 0
-2818 -2817 -90 0
2818 -2817 90 0
2818 2817 -90 0
-2819 2818 91 0
-2819 -2818 -91 0
2819 -2818 91 0
2819 2818 -91 0
-2820 2819 92 0
-2820 -2819 -92 0
2820 -2819 92 0
2820 2819 -92 0
-2821 2820 93 0
-2821 -2820 -93 0
2821 -2820 93 0
2821 2820 -93 0
-2822 2821 95 0
-2822 -2821 -95 0
2822 -2821 95 0
2822 2821 -95 0
-2823 2822 96 0
-2823 -2822 -96 0
2823 -2822 96 0
2823 2822 -96 0
-2824 2823 98 0
-2824 -2823 -98 0
2824 -2823 98 0
2824 2823 -98 0
-2825 2824 99 0
-2825 -2824 -99 0
2825 -2824 99 0
2825 2824 -99 0
-2826 2825 101 0
-2826 -2825 -101 0
2826 -2825 101 0
2826 2825 -101 0
-2827 2826 102 0
-2827 -2826 -102 0
2827 -2826 102 0
2827 2826 -102 0
-2828 2827 103 0
-2828 -2827 -103 0
2828 -2827 103 0
2828 2827 -103 0
-2829 2828 104 0
-2829 -2828 -104 0
2829 -2828 104 0
2829 2828 -104 0
-2830 2829 105 0
-2830 -2829 -105 0
2830 -2829 105 0
2830 2829 -105 0
-2831 2830 108 0
-2831 -2830 -108 0
2831 -2830 108 0
2831 2830 -108 0
-2832 2831 110 0
-2832 -2831 -110 0
2832 -2831 110 0
2832 2831 -110 0
-2833 2832 111 0
-2833 -2832 -111 0
2833 -2832 111 0
2833 2832 -111 0
-2834 2833 114 0
-2834 -2833 -114 0
2834 -2833 114 0
2834 2833 -114 0
-2835 2834 116 0
-2835 -2834 -116 0
2835 -2834 116 0
2835 2834 -116 0
-2836 2835 119 0
-2836 -2835 -119 0
2836 -2835 119 0
2836 2835 -119 0
-2837 2836 120 0
-2837 -2836 -120 0
2837 -2836 120 0
2837 2836 -120 0
-2838 2837 122 0
-2838 -2837 -122 0
2838 -2837 122 0
2838 2837 -122 0
-2839 2838 125 0
-2839 -2838 -125 0
2839 -2838 125 0
2839 2838 -125 0
-2840 2839 126 0
-2840 -2839 -126 0
2840 -2839 126 0
2840 2839 -126 0
-2841 2840 127 0
-2841 -2840 -127 0
2841 -2840 127 0
2841 2840 -127 0
-2842 2841 128 0
-2842 -2841 -128 0
2842 -2841 128 0
2842 2841 -128 0
-2843 2842 129 0
-2843 -2842 -129 0
2843 -2842 129 0
2843 2842 -129 0
-2844 2843 131 0
-2844 -2843 -131 0
2844 -2843 131 0
2844 2843 -131 0
-2845 2844 132 0
-2845 -2844 -132 0
2845 -2844 132 0
2845 2844 -132 0
-2846 2845 134 0
-2846 -2845 -134 0
2846 -2845 134 0
2846 2845 -134 0
-2847 2846 135 0
-2847 -2846 -135 0
2847 -2846 135 0
2847 2846 -135 0
-2848 2847 137 0
-2848 -2847 -137 0
2848 -2847 137 0
2848 2847 -137 0
-2849 2848 138 0
-2849 -2848 -138 0
2849 -2848 138 0
2849 2848 -138 0
-2850 2849 139 0
-2850 -2849 -139 0
2850 -2849 139 0
2850 2849 -139 0
-2851 2850 140 0
-2851 -2850 -140 0
2851 -2850 140 0
2851 2850 -140 0
-2852 2851 141 0
-2852 -2851 -141 0
2852 -2851 141 0
2852 2851 -141 0
-2853 2852 144 0
-2853 -2852 -144 0
2853 -2852 144 0
2853 2852 -144 0
-2854 2853 179 0
-2854 -2853 -179 0
2854 -2853 179 0
2854 2853 -179 0
-2855 2854 215 0
-2855 -2854 -215 0
2855 -2854 215 0
2855 2854 -215 0
-2856 2855 217 0
-2856 -2855 -217 0
2856 -2855 217 0
2856 2855 -217 0
-2857 2856 218 0
-2857 -2856 -218 0
2857 -2856 218 0
2857 2856 -218 0
-2858 2857 220 0
-2858 -2857 -220 0
2858 -2857 220 0
2858 2857 -220 0
-2859 2858 222 0
-2859 -2858 -222 0
2859 -2858 222 0
2859 2858 -222 0
-2860 2859 223 0
-2860 -2859 -223 0
2860 -2859 223 0
2860 2859 -223 0
-2861 2860 226 0
-2861 -2860 -226 0
2861 -2860 226 0
2861 2860 -226 0
-2862 2861 227 0
-2862 -2861 -227 0
2862 -2861 227 0
2862 2861 -227 0
-2863 2862 228 0
-2863 -2862 -228 0
2863 -2862 228 0
2863 2862 -228 0
-2864 2863 229 0
-2864 -2863 -229 0
2864 -2863 229 0
2864 2863 -229 0
-2865 2864 231 0
-2865 -2864 -231 0
2865 -2864 231 0
2865 2864 -231 0
-2866 2865 233 0
-2866 -2865 -233 0
2866 -2865 233 0
2866 2865 -233 0
-2867 2866 235 0
-2867 -2866 -235 0
2867 -2866 235 0
2867 2866 -235 0
-2868 2867 236 0
-2868 -2867 -236 0
2868 -2867 236 0
2868 2867 -236 0
-2869 2868 238 0
-2869 -2868 -238 0
2869 -2868 238 0
2869 2868 -238 0
-2870 2869 239 0
-2870 -2869 -239 0
2870 -2869 239 0
2870 2869 -239 0
-2871 2870 240 0
-2871 -2870 -240 0
2871 -2870 240 0
2871 2870 -240 0
-2872 2871 244 0
-2872 -2871 -244 0
2872 -2871 244 0
2872 2871 -244 0
-2873 2872 245 0
-2873 -2872 -245 0
2873 -2872 245 0
2873 2872 -245 0
-2874 2873 247 0
-2874 -2873 -247 0
2874 -2873 247 0
2874 2873 -247 0
-2875 2874 248 0
-2875 -2874 -248 0
2875 -2874 248 0
2875 2874 -248 0
-2876 2875 251 0
-2876 -2875 -251 0
2876 -2875 251 0
2876 2875 -251 0
-2877 2876 253 0
-2877 -2876 -253 0
2877 -2876 253 0
2877 2876 -253 0
-2878 2877 254 0
-2878 -2877 -254 0
2878 -2877 254 0
2878 2877 -254 0
-2879 2878 256 0
-2879 -2878 -256 0
2879 -2878 256 0
2879 2878 -256 0
-2880 2879 258 0
-2880 -2879 -258 0
2880 -2879 258 0
2880 2879 -258 0
-2881 2880 259 0
-2881 -2880 -259 0
2881 -2880 259 0
2881 2880 -259 0
-2882 2881 262 0
-2882 -2881 -262 0
2882 -2881 262 0
2882 2881 -262 0
-2883 2882 263 0
-2883 -2882 -263 0
2883 -2882 263 0
2883 2882 -263 0
-2884 2883 264 0
-2884 -2883 -264 0
2884 -2883 264 0
2884 2883 -264 0
-2885 2884 265 0
-2885 -2884 -265 0
2885 -2884 265 0
2885 2884 -265 0
-2886 2885 267 0
-2886 -2885 -267 0
2886 -2885 267 0
2886 2885 -267 0
-2887 2886 269 0
-2887 -2886 -269 0
2887 -2886 269 0
2887 2886 -269 0
-2888 2887 271 0
-2888 -2887 -271 0
2888 -2887 271 0
2888 2887 -271 0
-2889 2888 272 0
-2889 -2888 -272 0
2889 -2888 272 0
2889 2888 -272 0
-2890 2889 274 0
-2890 -2889 -274 0
2890 -2889 274 0
2890 2889 -274 0
-2891 2890 275 0
-2891 -2890 -275 0
2891 -2890 275 0
2891 2890 -275 0
-2892 2891 276 0
-2892 -2891 -276 0
2892 -2891 276 0
2892 2891 -276 0
-2893 2892 280 0
-2893 -2892 -280 0
2893 -2892 280 0
2893 2892 -280 0
-2894 2893 281 0
-2894 -2893 -281 0
2894 -2893 281 0
2894 2893 -281 0
-2895 2894 283 0
-2895 -2894 -283 0
2895 -2894 283 0
2895 2894 -283 0
-2896 2895 284 0
-2896 -2895 -284 0
2896 -2895 284 0
2896 2895 -284 0
-2897 2896 287 0
-2897 -2896 -287 0
2897 -2896 287 0
2897 2896 -287 0
-2897 0
-2898 73 75 0
-2898 -73 -75 0
2898 -73 75 0
2898 73 -75 0
-2899 2898 76 0
-2899 -2898 -76 0
2899 -2898 76 0
2899 2898 -76 0
-2900 2899 79 0
-2900 -2899 -79 0
2900 -2899 79 0
2900 2899 -79 0
-2901 2900 81 0
-2901 -2900 -81 0
2901 -2900 81 0
2901 2900 -81 0
-2902 2901 84 0
-2902 -2901 -84 0
2902 -2901 84 0
2902 2901 -84 0
-2903 2902 85 0
-2903 -2902 -85 0
2903 -2902 85 0
2903 2902 -85 0
-2904 2903 87 0
-2904 -2903 -87 0
2904 -2903 87 0
2904 2903 -87 0
-2905 2904 90 0
-2905 -2904 -90 0
2905 -2904 90 0
2905 2904 -90 0
-2906 2905 91 0
-2906 -2905 -91 0
2906 -2905 91 0
2906 2905 -91 0
-2907 2906 92 0
-2907 -2906 -92 0
2907 -2906 92 0
2907 2906 -92 0
-2908 2907 93 0
-2908 -2907 -93 0
2908 -2907 93 0
2908 2907 -93 0
-2909 2908 94 0
-2909 -2908 -94 0
2909 -2908 94 0
2909 2908 -94 0
-2910 2909 96 0
-2910 -2909 -96 0
2910 -2909 96 0
2910 2909 -96 0
-2911 2910 97 0
-2911 -2910 -97 0
2911 -2910 97 0
2911 2910 -97 0
-2912 2911 99 0
-2912 -2911 -99 0
2912 -2911 99 0
2912 2911 -99 0
-2913 2912 100 0
-2913 -2912 -100 0
2913 -2912 100 0
2913 2912 -100 0
-2914 2913 102 0
-2914 -2913 -102 0
2914 -2913 102 0
2914 2913 -102 0
-2915 2914 103 0
-2915 -2914 -103 0
2915 -2914 103 0
2915 2914 -103 0
-2916 2915 104 0
-2916 -2915 -104 0
2916 -2915 104 0
2916 2915 -104 0
-2917 2916 105 0
-2917 -2916 -105 0
2917 -2916 105 0
2917 2916 -105 0
-2918 2917 106 0
-2918 -2917 -106 0
2918 -2917 106 0
2918 2917 -106 0
-2919 2918 109 0
-2919 -2918 -109 0
2919 -2918 109 0
2919 2918 -109 0
-2920 2919 111 0
-2920 -2919 -111 0
2920 -2919 111 0
2920 2919 -111 0
-2921 2920 112 0
-2921 -2920 -112 0
2921 -2920 112 0
2921 2920 -112 0
-2922 2921 115 0
-2922 -2921 -115 0
2922 -2921 115 0
2922 2921 -115 0
-2923 2922 117 0
-2923 -2922 -117 0
2923 -2922 117 0
2923 2922 -117 0
-2924 2923 120 0
-2924 -2923 -120 0
2924 -2923 120 0
2924 2923 -120 0
-2925 2924 121 0
-2925 -2924 -121 0
2925 -2924 121 0
2925 2924 -121 0
-2926 2925 123 0
-2926 -2925 -123 0
2926 -2925 123 0
2926 2925 -123 0
-2927 2926 126 0
-2927 -2926 -126 0
2927 -2926 126 0
2927 2926 -126 0
-2928 2927 127 0
-2928 -2927 -127 0
2928 -2927 127 0
2928 2927 -127 0
-2929 2928 128 0
-2929 -2928 -128 0
2929 -2928 128 0
2929 2928 -128 0
-2930 2929 129 0
-2930 -2929 -129 0
2930 -2929 129 0
2930 2929 -129 0
-2931 2930 130 0
-2931 -2930 -130 0
2931 -2930 130 0
2931 2930 -130 0
-2932 2931 132 0
-2932 -2931 -132 0
2932 -2931 132 0
2932 2931 -132 0
-2933 2932 133 0
-2933 -2932 -133 0
2933 -2932 133 0
2933 2932 -133 0
-2934 2933 135 0
-2934 -2933 -135 0
2934 -2933 135 0
2934 2933 -135 0
-2935 2934 136 0
-2935 -2934 -136 0
2935 -2934 136 0
2935 2934 -136 0
-2936 2935 138 0
-2936 -2935 -138 0
2936 -2935 138 0
2936 2935 -138 0
-2937 2936 139 0
-2937 -2936 -139 0
2937 -2936 139 0
2937 2936 -139 0
-2938 2937 140 0
-2938 -2937 -140 0
2938 -2937 140 0
2938 2937 -140 0
-2939 2938 141 0
-2939 -2938 -141 0
2939 -2938 141 0
2939 2938 -141 0
-2940 2939 142 0
-2940 -2939 -142 0
2940 -2939 142 0
2940 2939 -142 0
-2941 2940 180 0
-2941 -2940 -180 0
2941 -2940 180 0
2941 2940 -180 0
-2942 2941 216 0
-2942 -2941 -216 0
2942 -2941 216 0
2942 2941 -216 0
-2943 2942 217 0
-2943 -2942 -217 0
2943 -2942 217 0
2943 2942 -217 0
-2944 2943 218 0
-2944 -2943 -218 0
2944 -2943 218 0
2944 2943 -218 0
-2945 2944 219 0
-2945 -2944 -219 0
2945 -2944 219 0
2945 2944 -219 0
-2946 2945 221 0
-2946 -2945 -221 0
2946 -2945 221 0
2946 2945 -221 0
-2947 2946 223 0
-2947 -2946 -223 0
2947 -2946 223 0
2947 2946 -223 0
-2948 2947 224 0
-2948 -2947 -224 0
2948 -2947 224 0
2948 2947 -224 0
-2949 2948 227 0
-2949 -2948 -227 0
2949 -2948 227 0
2949 2948 -227 0
-2950 2949 228 0
-2950 -2949 -228 0
2950 -2949 228 0
2950 2949 -228 0
-2951 2950 230 0
-2951 -2950 -230 0
2951 -2950 230 0
2951 2950 -230 0
-2952 2951 232 0
-2952 -2951 -232 0
2952 -2951 232 0
2952 2951 -232 0
-2953 2952 234 0
-2953 -2952 -234 0
2953 -2952 234 0
2953 2952 -234 0
-2954 2953 235 0
-2954 -2953 -235 0
2954 -2953 235 0
2954 2953 -235 0
-2955 2954 236 0
-2955 -2954 -236 0
2955 -2954 236 0
2955 2954 -236 0
-2956 2955 237 0
-2956 -2955 -237 0
2956 -2955 237 0
2956 2955 -237 0
-2957 2956 239 0
-2957 -2956 -239 0
2957 -2956 239 0
2957 2956 -239 0
-2958 2957 240 0
-2958 -2957 -240 0
2958 -2957 240 0
2958 2957 -240 0
-2959 2958 245 0
-2959 -2958 -245 0
2959 -2958 245 0
2959 2958 -245 0
-2960 2959 246 0
-2960 -2959 -246 0
2960 -2959 246 0
2960 2959 -246 0
-2961 2960 248 0
-2961 -2960 -248 0
2961 -2960 248 0
2961 2960 -248 0
-2962 2961 249 0
-2962 -2961 -249 0
2962 -2961 249 0
2962 2961 -249 0
-2963 2962 252 0
-2963 -2962 -252 0
2963 -2962 252 0
2963 2962 -252 0
-2964 2963 253 0
-2964 -2963 -253 0
2964 -2963 253 0
2964 2963 -253 0
-2965 2964 254 0
-2965 -2964 -254 0
2965 -2964 254 0
2965 2964 -254 0
-2966 2965 255 0
-2966 -2965 -255 0
2966 -2965 255 0
2966 2965 -255 0
-2967 2966 257 0
-2967 -2966 -257 0
2967 -2966 257 0
2967 2966 -257 0
-2968 2967 259 0
-2968 -2967 -259 0
2968 -2967 259 0
2968 2967 -259 0
-2969 2968 260 0
-2969 -2968 -260 0
2969 -2968 260 0
2969 2968 -260 0
-2970 2969 263 0
-2970 -2969 -263 0
2970 -2969 263 0
2970 2969 -263 0
-2971 2970 264 0
-2971 -2970 -264 0
2971 -2970 264 0
2971 2970 -264 0
-2972 2971 266 0
-2972 -2971 -266 0
2972 -2971 266 0
2972 2971 -266 0
-2973 2972 268 0
-2973 -2972 -268 0
2973 -2972 268 0
2973 2972 -268 0
-2974 2973 270 0
-2974 -2973 -270 0
2974 -2973 270 0
2974 2973 -270 0
-2975 2974 271 0
-2975 -2974 -271 0
2975 -2974 271 0
2975 2974 -271 0
-2976 2975 272 0
-2976 -2975 -272 0
2976 -2975 272 0
2976 2975 -272 0
-2977 2976 273 0
-2977 -2976 -273 0
2977 -2976 273 0
2977 2976 -273 0
-2978 2977 275 0
-2978 -2977 -275 0
2978 -2977 275 0
2978 2977 -275 0
-2979 2978 276 0
-2979 -2978 -276 0
2979 -2978 276 0
2979 2978 -276 0
-2980 2979 281 0
-2980 -2979 -281 0
2980 -2979 281 0
2980 2979 -281 0
-2981 2980 282 0
-2981 -2980 -282 0
2981 -2980 282 0
2981 2980 -282 0
-2982 2981 284 0
-2982 -2981 -284 0
2982 -2981 284 0
2982 2981 -284 0
-2983 2982 285 0
-2983 -2982 -285 0
2983 -2982 285 0
2983 2982 -285 0
-2984 2983 288 0
-2984 -2983 -288 0
2984 -2983 288 0
2984 2983 -288 0
-2984 0
-2985 69 70 0
-2985 -69 -70 0
2985 -69 70 0
2985 69 -70 0
-2986 2985 71 0
-2986 -2985 -71 0
2986 -2985 71 0
2986 2985 -71 0
-2987 2986 75 0
-2987 -2986 -75 0
2987 -2986 75 0
2987 2986 -75 0
-2988 2987 81 0
-2988 -2987 -81 0
2988 -2987 81 0
2988 2987 -81 0
-2989 2988 82 0
-2989 -2988 -82 0
2989 -2988 82 0
2989 2988 -82 0
-2990 2989 83 0
-2990 -2989 -83 0
2990 -2989 83 0
2990 2989 -83 0
-2991 2990 84 0
-2991 -2990 -84 0
2991 -2990 84 0
2991 2990 -84 0
-2992 2991 85 0
-2992 -2991 -85 0
2992 -2991 85 0
2992 2991 -85 0
-2993 2992 86 0
-2993 -2992 -86 0
2993 -2992 86 0
2993 2992 -86 0
-2994 2993 90 0
-2994 -2993 -90 0
2994 -2993 90 0
2994 2993 -90 0
-2995 2994 91 0
-2995 -2994 -91 0
2995 -2994 91 0
2995 2994 -91 0
-2996 2995 92 0
-2996 -2995 -92 0
2996 -2995 92 0
2996 2995 -92 0
-2997 2996 97 0
-2997 -2996 -97 0
2997 -2996 97 0
2997 2996 -97 0
-2998 2997 98 0
-2998 -2997 -98 0
2998 -2997 98 0
2998 2997 -98 0
-2999 2998 104 0
-2999 -2998 -104 0
2999 -2998 104 0
2999 2998 -104 0
-3000 2999 105 0
-3000 -2999 -105 0
3000 -2999 105 0
3000 2999 -105 0
-3001 3000 108 0
-3001 -3000 -108 0
3001 -3000 108 0
3001 3000 -108 0
-3002 3001 109 0
-3002 -3001 -109 0
3002 -3001 109 0
3002 3001 -109 0
-3003 3002 112 0
-3003 -3002 -112 0
3003 -3002 112 0
3003 3002 -112 0
-3004 3003 115 0
-3004 -3003 -115 0
3004 -3003 115 0
3004 3003 -115 0
-3005 3004 117 0
-3005 -3004 -117 0
3005 -3004 117 0
3005 3004 -117 0
-3006 3005 119 0
-3006 -3005 -119 0
3006 -3005 119 0
3006 3005 -119 0
-3007 3006 121 0
-3007 -3006 -121 0
3007 -3006 121 0
3007 3006 -121 0
-3008 3007 125 0
-3008 -3007 -125 0
3008 -3007 125 0
3008 3007 -125 0
-3009 3008 126 0
-3009 -3008 -126 0
3009 -3008 126 0
3009 3008 -126 0
-3010 3009 127 0
-3010 -3009 -127 0
3010 -3009 127 0
3010 3009 -127 0
-3011 3010 130 0
-3011 -3010 -130 0
3011 -3010 130 0
3011 3010 -130 0
-3012 3011 131 0
-3012 -3011 -131 0
3012 -3011 131 0
3012 3011 -131 0
-3013 3012 133 0
-3013 -3012 -133 0
3013 -3012 133 0
3013 3012 -133 0
-3014 3013 135 0
-3014 -3013 -135 0
3014 -3013 135 0
3014 3013 -135 0
-3015 3014 136 0
-3015 -3014 -136 0
3015 -3014 136 0
3015 3014 -136 0
-3016 3015 138 0
-3016 -3015 -138 0
3016 -3015 138 0
3016 3015 -138 0
-3017 3016 139 0
-3017 -3016 -139 0
3017 -3016 139 0
3017 3016 -139 0
-3018 3017 141 0
-3018 -3017 -141 0
3018 -3017 141 0
3018 3017 -141 0
-3019 3018 143 0
-3019 -3018 -143 0
3019 -3018 143 0
3019 3018 -143 0
-3020 3019 181 0
-3020 -3019 -181 0
3020 -3019 181 0
3020 3019 -181 0
-3021 3020 213 0
-3021 -3020 -213 0
3021 -3020 213 0
3021 3020 -213 0
-3022 3021 214 0
-3022 -3021 -214 0
3022 -3021 214 0
3022 3021 -214 0
-3023 3022 216 0
-3023 -3022 -216 0
3023 -3022 216 0
3023 3022 -216 0
-3024 3023 223 0
-3024 -3023 -223 0
3024 -3023 223 0
3024 3023 -223 0
-3025 3024 224 0
-3025 -3024 -224 0
3025 -3024 224 0
3025 3024 -224 0
-3026 3025 225 0
-3026 -3025 -225 0
3026 -3025 225 0
3026 3025 -225 0
-3027 3026 226 0
-3027 -3026 -226 0
3027 -3026 226 0
3027 3026 -226 0
-3028 3027 227 0
-3028 -3027 -227 0
3028 -3027 227 0
3028 3027 -227 0
-3029 3028 228 0
-3029 -3028 -228 0
3029 -3028 228 0
3029 3028 -228 0
-3030 3029 236 0
-3030 -3029 -236 0
3030 -3029 236 0
3030 3029 -236 0
-3031 3030 238 0
-3031 -3030 -238 0
3031 -3030 238 0
3031 3030 -238 0
-3032 3031 240 0
-3032 -3031 -240 0
3032 -3031 240 0
3032 3031 -240 0
-3033 3032 242 0
-3033 -3032 -242 0
3033 -3032 242 0
3033 3032 -242 0
-3034 3033 244 0
-3034 -3033 -244 0
3034 -3033 244 0
3034 3033 -244 0
-3035 3034 246 0
-3035 -3034 -246 0
3035 -3034 246 0
3035 3034 -246 0
-3036 3035 253 0
-3036 -3035 -253 0
3036 -3035 253 0
3036 3035 -253 0
-3037 3036 255 0
-3037 -3036 -255 0
3037 -3036 255 0
3037 3036 -255 0
-3038 3037 257 0
-3038 -3037 -257 0
3038 -3037 257 0
3038 3037 -257 0
-3039 3038 266 0
-3039 -3038 -266 0
3039 -3038 266 0
3039 3038 -266 0
-3040 3039 269 0
-3040 -3039 -269 0
3040 -3039 269 0
3040 3039 -269 0
-3041 3040 270 0
-3041 -3040 -270 0
3041 -3040 270 0
3041 3040 -270 0
-3042 3041 271 0
-3042 -3041 -271 0
3042 -3041 271 0
3042 3041 -271 0
-3043 3042 272 0
-3043 -3042 -272 0
3043 -3042 272 0
3043 3042 -272 0
-3044 3043 274 0
-3044 -3043 -274 0
3044 -3043 274 0
3044 3043 -274 0
-3045 3044 277 0
-3045 -3044 -277 0
3045 -3044 277 0
3045 3044 -277 0
-3046 3045 278 0
-3046 -3045 -278 0
3046 -3045 278 0
3046 3045 -278 0
-3047 3046 279 0
-3047 -3046 -279 0
3047 -3046 279 0
3047 3046 -279 0
-3048 3047 280 0
-3048 -3047 -280 0
3048 -3047 280 0
3048 3047 -280 0
-3049 3048 281 0
-3049 -3048 -281 0
3049 -3048 281 0
3049 3048 -281 0
-3050 3049 282 0
-3050 -3049 -282 0
3050 -3049 282 0
3050 3049 -282 0
-3051 3050 284 0
-3051 -3050 -284 0
3051 -3050 284 0
3051 3050 -284 0
-3052 3051 286 0
-3052 -3051 -286 0
3052 -3051 286 0
3052 3051 -286 0
-3053 3052 287 0
-3053 -3052 -287 0
3053 -3052 287 0
3053 3052 -287 0
-3053 0
-3054 70 71 0
-3054 -70 -71 0
3054 -70 71 0
3054 70 -71 0
-3055 3054 72 0
-3055 -3054 -72 0
3055 -3054 72 0
3055 3054 -72 0
-3056 3055 76 0
-3056 -3055 -76 0
3056 -3055 76 0
3056 3055 -76 0
-3057 3056 81 0
-3057 -3056 -81 0
3057 -3056 81 0
3057 3056 -81 0
-3058 3057 82 0
-3058 -3057 -82 0
3058 -3057 82 0
3058 3057 -82 0
-3059 3058 84 0
-3059 -3058 -84 0
3059 -3058 84 0
3059 3058 -84 0
-3060 3059 86 0
-3060 -3059 -86 0
3060 -3059 86 0
3060 3059 -86 0
-3061 3060 89 0
-3061 -3060 -89 0
3061 -3060 89 0
3061 3060 -89 0
-3062 3061 91 0
-3062 -3061 -91 0
3062 -3061 91 0
3062 3061 -91 0
-3063 3062 92 0
-3063 -3062 -92 0
3063 -3062 92 0
3063 3062 -92 0
-3064 3063 95 0
-3064 -3063 -95 0
3064 -3063 95 0
3064 3063 -95 0
-3065 3064 98 0
-3065 -3064 -98 0
3065 -3064 98 0
3065 3064 -98 0
-3066 3065 99 0
-3066 -3065 -99 0
3066 -3065 99 0
3066 3065 -99 0
-3067 3066 103 0
-3067 -3066 -103 0
3067 -3066 103 0
3067 3066 -103 0
-3068 3067 105 0
-3068 -3067 -105 0
3068 -3067 105 0
3068 3067 -105 0
-3069 3068 106 0
-3069 -3068 -106 0
3069 -3068 106 0
3069 3068 -106 0
-3070 3069 109 0
-3070 -3069 -109 0
3070 -3069 109 0
3070 3069 -109 0
-3071 3070 110 0
-3071 -3070 -110 0
3071 -3070 110 0
3071 3070 -110 0
-3072 3071 111 0
-3072 -3071 -111 0
3072 -3071 111 0
3072 3071 -111 0
-3073 3072 116 0
-3073 -3072 -116 0
3073 -3072 116 0
3073 3072 -116 0
-3074 3073 118 0
-3074 -3073 -118 0
3074 -3073 118 0
3074 3073 -118 0
-3075 3074 120 0
-3075 -3074 -120 0
3075 -3074 120 0
3075 3074 -120 0
-3076 3075 121 0
-3076 -3075 -121 0
3076 -3075 121 0
3076 3075 -121 0
-3077 3076 122 0
-3077 -3076 -122 0
3077 -3076 122 0
3077 3076 -122 0
-3078 3077 126 0
-3078 -3077 -126 0
3078 -3077 126 0
3078 3077 -126 0
-3079 3078 128 0
-3079 -3078 -128 0
3079 -3078 128 0
3079 3078 -128 0
-3080 3079 131 0
-3080 -3079 -131 0
3080 -3079 131 0
3080 3079 -131 0
-3081 3080 132 0
-3081 -3080 -132 0
3081 -3080 132 0
3081 3080 -132 0
-3082 3081 133 0
-3082 -3081 -133 0
3082 -3081 133 0
3082 3081 -133 0
-3083 3082 134 0
-3083 -3082 -134 0
3083 -3082 134 0
3083 3082 -134 0
-3084 3083 136 0
-3084 -3083 -136 0
3084 -3083 136 0
3084 3083 -136 0
-3085 3084 137 0
-3085 -3084 -137 0
3085 -3084 137 0
3085 3084 -137 0
-3086 3085 140 0
-3086 -3085 -140 0
3086 -3085 140 0
3086 3085 -140 0
-3087 3086 142 0
-3087 -3086 -142 0
3087 -3086 142 0
3087 3086 -142 0
-3088 3087 144 0
-3088 -3087 -144 0
3088 -3087 144 0
3088 3087 -144 0
-3089 3088 182 0
-3089 -3088 -182 0
3089 -3088 182 0
3089 3088 -182 0
-3090 3089 213 0
-3090 -3089 -213 0
3090 -3089 213 0
3090 3089 -213 0
-3091 3090 214 0
-3091 -3090 -214 0
3091 -3090 214 0
3091 3090 -214 0
-3092 3091 223 0
-3092 -3091 -223 0
3092 -3091 223 0
3092 3091 -223 0
-3093 3092 224 0
-3093 -3092 -224 0
3093 -3092 224 0
3093 3092 -224 0
-3094 3093 225 0
-3094 -3093 -225 0
3094 -3093 225 0
3094 3093 -225 0
-3095 3094 226 0
-3095 -3094 -226 0
3095 -3094 226 0
3095 3094 -226 0
-3096 3095 227 0
-3096 -3095 -227 0
3096 -3095 227 0
3096 3095 -227 0
-3097 3096 228 0
-3097 -3096 -228 0
3097 -3096 228 0
3097 3096 -228 0
-3098 3097 236 0
-3098 -3097 -236 0
3098 -3097 236 0
3098 3097 -236 0
-3099 3098 238 0
-3099 -3098 -238 0
3099 -3098 238 0
3099 3098 -238 0
-3100 3099 240 0
-3100 -3099 -240 0
3100 -3099 240 0
3100 3099 -240 0
-3101 3100 242 0
-3101 -3100 -242 0
3101 -3100 242 0
3101 3100 -242 0
-3102 3101 244 0
-3102 -3101 -244 0
3102 -3101 244 0
3102 3101 -244 0
-3103 3102 246 0
-3103 -3102 -246 0
3103 -3102 246 0
3103 3102 -246 0
-3104 3103 253 0
-3104 -3103 -253 0
3104 -3103 253 0
3104 3103 -253 0
-3105 3104 255 0
-3105 -3104 -255 0
3105 -3104 255 0
3105 3104 -255 0
-3106 3105 257 0
-3106 -3105 -257 0
3106 -3105 257 0
3106 3105 -257 0
-3107 3106 269 0
-3107 -3106 -269 0
3107 -3106 269 0
3107 3106 -269 0
-3108 3107 270 0
-3108 -3107 -270 0
3108 -3107 270 0
3108 3107 -270 0
-3109 3108 271 0
-3109 -3108 -271 0
3109 -3108 271 0
3109 3108 -271 0
-3110 3109 272 0
-3110 -3109 -272 0
3110 -3109 272 0
3110 3109 -272 0
-3111 3110 277 0
-3111 -3110 -277 0
3111 -3110 277 0
3111 3110 -277 0
-3112 3111 278 0
-3112 -3111 -278 0
3112 -3111 278 0
3112 3111 -278 0
-3113 3112 279 0
-3113 -3112 -279 0
3113 -3112 279 0
3113 3112 -279 0
-3114 3113 280 0
-3114 -3113 -280 0
3114 -3113 280 0
3114 3113 -280 0
-3115 3114 281 0
-3115 -3114 -281 0
3115 -3114 281 0
3115 3114 -281 0
-3116 3115 282 0
-3116 -3115 -282 0
3116 -3115 282 0
3116 3115 -282 0
-3117 3116 284 0
-3117 -3116 -284 0
3117 -3116 284 0
3117 3116 -284 0
-3118 3117 285 0
-3118 -3117 -285 0
3118 -3117 285 0
3118 3117 -285 0
-3119 3118 286 0
-3119 -3118 -286 0
3119 -3118 286 0
3119 3118 -286 0
-3120 3119 287 0
-3120 -3119 -287 0
3120 -3119 287 0
3120 3119 -287 0
-3120 0
-3121 69 72 0
-3121 -69 -72 0
3121 -69 72 0
3121 69 -72 0
-3122 3121 74 0
-3122 -3121 -74 0
3122 -3121 74 0
3122 3121 -74 0
-3123 3122 76 0
-3123 -3122 -76 0
3123 -3122 76 0
3123 3122 -76 0
-3124 3123 77 0
-3124 -3123 -77 0
3124 -3123 77 0
3124 3123 -77 0
-3125 3124 78 0
-3125 -3124 -78 0
3125 -3124 78 0
3125 3124 -78 0
-3126 3125 79 0
-3126 -3125 -79 0
3126 -3125 79 0
3126 3125 -79 0
-3127 3126 82 0
-3127 -3126 -82 0
3127 -3126 82 0
3127 3126 -82 0
-3128 3127 83 0
-3128 -3127 -83 0
3128 -3127 83 0
3128 3127 -83 0
-3129 3128 87 0
-3129 -3128 -87 0
3129 -3128 87 0
3129 3128 -87 0
-3130 3129 90 0
-3130 -3129 -90 0
3130 -3129 90 0
3130 3129 -90 0
-3131 3130 91 0
-3131 -3130 -91 0
3131 -3130 91 0
3131 3130 -91 0
-3132 3131 92 0
-3132 -3131 -92 0
3132 -3131 92 0
3132 3131 -92 0
-3133 3132 95 0
-3133 -3132 -95 0
3133 -3132 95 0
3133 3132 -95 0
-3134 3133 96 0
-3134 -3133 -96 0
3134 -3133 96 0
3134 3133 -96 0
-3135 3134 97 0
-3135 -3134 -97 0
3135 -3134 97 0
3135 3134 -97 0
-3136 3135 98 0
-3136 -3135 -98 0
3136 -3135 98 0
3136 3135 -98 0
-3137 3136 101 0
-3137 -3136 -101 0
3137 -3136 101 0
3137 3136 -101 0
-3138 3137 102 0
-3138 -3137 -102 0
3138 -3137 102 0
3138 3137 -102 0
-3139 3138 107 0
-3139 -3138 -107 0
3139 -3138 107 0
3139 3138 -107 0
-3140 3139 108 0
-3140 -3139 -108 0
3140 -3139 108 0
3140 3139 -108 0
-3141 3140 109 0
-3141 -3140 -109 0
3141 -3140 109 0
3141 3140 -109 0
-3142 3141 110 0
-3142 -3141 -110 0
3142 -3141 110 0
3142 3141 -110 0
-3143 3142 112 0
-3143 -3142 -112 0
3143 -3142 112 0
3143 3142 -112 0
-3144 3143 113 0
-3144 -3143 -113 0
3144 -3143 113 0
3144 3143 -113 0
-3145 3144 115 0
-3145 -3144 -115 0
3145 -3144 115 0
3145 3144 -115 0
-3146 3145 116 0
-3146 -3145 -116 0
3146 -3145 116 0
3146 3145 -116 0
-3147 3146 117 0
-3147 -3146 -117 0
3147 -3146 117 0
3147 3146 -117 0
-3148 3147 118 0
-3148 -3147 -118 0
3148 -3147 118 0
3148 3147 -118 0
-3149 3148 119 0
-3149 -3148 -119 0
3149 -3148 119 0
3149 3148 -119 0
-3150 3149 120 0
-3150 -3149 -120 0
3150 -3149 120 0
3150 3149 -120 0
-3151 3150 124 0
-3151 -3150 -124 0
3151 -3150 124 0
3151 3150 -124 0
-3152 3151 125 0
-3152 -3151 -125 0
3152 -3151 125 0
3152 3151 -125 0
-3153 3152 126 0
-3153 -3152 -126 0
3153 -3152 126 0
3153 3152 -126 0
-3154 3153 128 0
-3154 -3153 -128 0
3154 -3153 128 0
3154 3153 -128 0
-3155 3154 130 0
-3155 -3154 -130 0
3155 -3154 130 0
3155 3154 -130 0
-3156 3155 131 0
-3156 -3155 -131 0
3156 -3155 131 0
3156 3155 -131 0
-3157 3156 135 0
-3157 -3156 -135 0
3157 -3156 135 0
3157 3156 -135 0
-3158 3157 136 0
-3158 -3157 -136 0
3158 -3157 136 0
3158 3157 -136 0
-3159 3158 137 0
-3159 -3158 -137 0
3159 -3158 137 0
3159 3158 -137 0
-3160 3159 139 0
-3160 -3159 -139 0
3160 -3159 139 0
3160 3159 -139 0
-3161 3160 140 0
-3161 -3160 -140 0
3161 -3160 140 0
3161 3160 -140 0
-3162 3161 141 0
-3162 -3161 -141 0
3162 -3161 141 0
3162 3161 -141 0
-3163 3162 142 0
-3163 -3162 -142 0
3163 -3162 142 0
3163 3162 -142 0
-3164 3163 143 0
-3164 -3163 -143 0
3164 -3163 143 0
3164 3163 -143 0
-3165 3164 144 0
-3165 -3164 -144 0
3165 -3164 144 0
3165 3164 -144 0
-3166 3165 183 0
-3166 -3165 -183 0
3166 -3165 183 0
3166 3165 -183 0
-3167 3166 214 0
-3167 -3166 -214 0
3167 -3166 214 0
3167 3166 -214 0
-3168 3167 215 0
-3168 -3167 -215 0
3168 -3167 215 0
3168 3167 -215 0
-3169 3168 223 0
-3169 -3168 -223 0
3169 -3168 223 0
3169 3168 -223 0
-3170 3169 224 0
-3170 -3169 -224 0
3170 -3169 224 0
3170 3169 -224 0
-3171 3170 225 0
-3171 -3170 -225 0
3171 -3170 225 0
3171 3170 -225 0
-3172 3171 226 0
-3172 -3171 -226 0
3172 -3171 226 0
3172 3171 -226 0
-3173 3172 227 0
-3173 -3172 -227 0
3173 -3172 227 0
3173 3172 -227 0
-3174 3173 228 0
-3174 -3173 -228 0
3174 -3173 228 0
3174 3173 -228 0
-3175 3174 235 0
-3175 -3174 -235 0
3175 -3174 235 0
3175 3174 -235 0
-3176 3175 237 0
-3176 -3175 -237 0
3176 -3175 237 0
3176 3175 -237 0
-3177 3176 239 0
-3177 -3176 -239 0
3177 -3176 239 0
3177 3176 -239 0
-3178 3177 241 0
-3178 -3177 -241 0
3178 -3177 241 0
3178 3177 -241 0
-3179 3178 243 0
-3179 -3178 -243 0
3179 -3178 243 0
3179 3178 -243 0
-3180 3179 245 0
-3180 -3179 -245 0
3180 -3179 245 0
3180 3179 -245 0
-3181 3180 254 0
-3181 -3180 -254 0
3181 -3180 254 0
3181 3180 -254 0
-3182 3181 256 0
-3182 -3181 -256 0
3182 -3181 256 0
3182 3181 -256 0
-3183 3182 258 0
-3183 -3182 -258 0
3183 -3182 258 0
3183 3182 -258 0
-3184 3183 265 0
-3184 -3183 -265 0
3184 -3183 265 0
3184 3183 -265 0
-3185 3184 270 0
-3185 -3184 -270 0
3185 -3184 270 0
3185 3184 -270 0
-3186 3185 272 0
-3186 -3185 -272 0
3186 -3185 272 0
3186 3185 -272 0
-3187 3186 273 0
-3187 -3186 -273 0
3187 -3186 273 0
3187 3186 -273 0
-3188 3187 277 0
-3188 -3187 -277 0
3188 -3187 277 0
3188 3187 -277 0
-3189 3188 278 0
-3189 -3188 -278 0
3189 -3188 278 0
3189 3188 -278 0
-3190 3189 279 0
-3190 -3189 -279 0
3190 -3189 279 0
3190 3189 -279 0
-3191 3190 280 0
-3191 -3190 -280 0
3191 -3190 280 0
3191 3190 -280 0
-3192 3191 281 0
-3192 -3191 -281 0
3192 -3191 281 0
3192 3191 -281 0
-3193 3192 282 0
-3193 -3192 -282 0
3193 -3192 282 0
3193 3192 -282 0
-3194 3193 285 0
-3194 -3193 -285 0
3194 -3193 285 0
3194 3193 -285 0
-3195 3194 286 0
-3195 -3194 -286 0
3195 -3194 286 0
3195 3194 -286 0
-3196 3195 287 0
-3196 -3195 -287 0
3196 -3195 287 0
3196 3195 -287 0
-3197 3196 288 0
-3197 -3196 -288 0
3197 -3196 288 0
3197 3196 -288 0
-3197 0
-3198 69 70 0
-3198 -69 -70 0
3198 -69 70 0
3198 69 -70 0
-3199 3198 71 0
-3199 -3198 -71 0
3199 -3198 71 0
3199 3198 -71 0
-3200 3199 73 0
-3200 -3199 -73 0
3200 -3199 73 0
3200 3199 -73 0
-3201 3200 74 0
-3201 -3200 -74 0
3201 -3200 74 0
3201 3200 -74 0
-3202 3201 75 0
-3202 -3201 -75 0
3202 -3201 75 0
3202 3201 -75 0
-3203 3202 76 0
-3203 -3202 -76 0
3203 -3202 76 0
3203 3202 -76 0
-3204 3203 77 0
-3204 -3203 -77 0
3204 -3203 77 0
3204 3203 -77 0
-3205 3204 80 0
-3205 -3204 -80 0
3205 -3204 80 0
3205 3204 -80 0
-3206 3205 83 0
-3206 -3205 -83 0
3206 -3205 83 0
3206 3205 -83 0
-3207 3206 84 0
-3207 -3206 -84 0
3207 -3206 84 0
3207 3206 -84 0
-3208 3207 85 0
-3208 -3207 -85 0
3208 -3207 85 0
3208 3207 -85 0
-3209 3208 88 0
-3209 -3208 -88 0
3209 -3208 88 0
3209 3208 -88 0
-3210 3209 92 0
-3210 -3209 -92 0
3210 -3209 92 0
3210 3209 -92 0
-3211 3210 95 0
-3211 -3210 -95 0
3211 -3210 95 0
3211 3210 -95 0
-3212 3211 96 0
-3212 -3211 -96 0
3212 -3211 96 0
3212 3211 -96 0
-3213 3212 100 0
-3213 -3212 -100 0
3213 -3212 100 0
3213 3212 -100 0
-3214 3213 101 0
-3214 -3213 -101 0
3214 -3213 101 0
3214 3213 -101 0
-3215 3214 103 0
-3215 -3214 -103 0
3215 -3214 103 0
3215 3214 -103 0
-3216 3215 104 0
-3216 -3215 -104 0
3216 -3215 104 0
3216 3215 -104 0
-3217 3216 106 0
-3217 -3216 -106 0
3217 -3216 106 0
3217 3216 -106 0
-3218 3217 109 0
-3218 -3217 -109 0
3218 -3217 109 0
3218 3217 -109 0
-3219 3218 110 0
-3219 -3218 -110 0
3219 -3218 110 0
3219 3218 -110 0
-3220 3219 114 0
-3220 -3219 -114 0
3220 -3219 114 0
3220 3219 -114 0
-3221 3220 115 0
-3221 -3220 -115 0
3221 -3220 115 0
3221 3220 -115 0
-3222 3221 117 0
-3222 -3221 -117 0
3222 -3221 117 0
3222 3221 -117 0
-3223 3222 119 0
-3223 -3222 -119 0
3223 -3222 119 0
3223 3222 -119 0
-3224 3223 122 0
-3224 -3223 -122 0
3224 -3223 122 0
3224 3223 -122 0
-3225 3224 123 0
-3225 -3224 -123 0
3225 -3224 123 0
3225 3224 -123 0
-3226 3225 124 0
-3226 -3225 -124 0
3226 -3225 124 0
3226 3225 -124 0
-3227 3226 127 0
-3227 -3226 -127 0
3227 -3226 127 0
3227 3226 -127 0
-3228 3227 128 0
-3228 -3227 -128 0
3228 -3227 128 0
3228 3227 -128 0
-3229 3228 130 0
-3229 -3228 -130 0
3229 -3228 130 0
3229 3228 -130 0
-3230 3229 134 0
-3230 -3229 -134 0
3230 -3229 134 0
3230 3229 -134 0
-3231 3230 137 0
-3231 -3230 -137 0
3231 -3230 137 0
3231 3230 -137 0
-3232 3231 139 0
-3232 -3231 -139 0
3232 -3231 139 0
3232 3231 -139 0
-3233 3232 141 0
-3233 -3232 -141 0
3233 -3232 141 0
3233 3232 -141 0
-3234 3233 143 0
-3234 -3233 -143 0
3234 -3233 143 0
3234 3233 -143 0
-3235 3234 184 0
-3235 -3234 -184 0
3235 -3234 184 0
3235 3234 -184 0
-3236 3235 215 0
-3236 -3235 -215 0
3236 -3235 215 0
3236 3235 -215 0
-3237 3236 216 0
-3237 -3236 -216 0
3237 -3236 216 0
3237 3236 -216 0
-3238 3237 223 0
-3238 -3237 -223 0
3238 -3237 223 0
3238 3237 -223 0
-3239 3238 224 0
-3239 -3238 -224 0
3239 -3238 224 0
3239 3238 -224 0
-3240 3239 225 0
-3240 -3239 -225 0
3240 -3239 225 0
3240 3239 -225 0
-3241 3240 226 0
-3241 -3240 -226 0
3241 -3240 226 0
3241 3240 -226 0
-3242 3241 227 0
-3242 -3241 -227 0
3242 -3241 227 0
3242 3241 -227 0
-3243 3242 228 0
-3243 -3242 -228 0
3243 -3242 228 0
3243 3242 -228 0
-3244 3243 236 0
-3244 -3243 -236 0
3244 -3243 236 0
3244 3243 -236 0
-3245 3244 238 0
-3245 -3244 -238 0
3245 -3244 238 0
3245 3244 -238 0
-3246 3245 240 0
-3246 -3245 -240 0
3246 -3245 240 0
3246 3245 -240 0
-3247 3246 242 0
-3247 -3246 -242 0
3247 -3246 242 0
3247 3246 -242 0
-3248 3247 244 0
-3248 -3247 -244 0
3248 -3247 244 0
3248 3247 -244 0
-3249 3248 246 0
-3249 -3248 -246 0
3249 -3248 246 0
3249 3248 -246 0
-3250 3249 253 0
-3250 -3249 -253 0
3250 -3249 253 0
3250 3249 -253 0
-3251 3250 255 0
-3251 -3250 -255 0
3251 -3250 255 0
3251 3250 -255 0
-3252 3251 257 0
-3252 -3251 -257 0
3252 -3251 257 0
3252 3251 -257 0
-3253 3252 265 0
-3253 -3252 -265 0
3253 -3252 265 0
3253 3252 -265 0
-3254 3253 266 0
-3254 -3253 -266 0
3254 -3253 266 0
3254 3253 -266 0
-3255 3254 273 0
-3255 -3254 -273 0
3255 -3254 273 0
3255 3254 -273 0
-3256 3255 274 0
-3256 -3255 -274 0
3256 -3255 274 0
3256 3255 -274 0
-3257 3256 277 0
-3257 -3256 -277 0
3257 -3256 277 0
3257 3256 -277 0
-3258 3257 278 0
-3258 -3257 -278 0
3258 -3257 278 0
3258 3257 -278 0
-3259 3258 279 0
-3259 -3258 -279 0
3259 -3258 279 0
3259 3258 -279 0
-3260 3259 280 0
-3260 -3259 -280 0
3260 -3259 280 0
3260 3259 -280 0
-3261 3260 281 0
-3261 -3260 -281 0
3261 -3260 281 0
3261 3260 -281 0
-3262 3261 282 0
-3262 -3261 -282 0
3262 -3261 282 0
3262 3261 -282 0
-3263 3262 283 0
-3263 -3262 -283 0
3263 -3262 283 0
3263 3262 -283 0
-3264 3263 286 0
-3264 -3263 -286 0
3264 -3263 286 0
3264 3263 -286 0
-3265 3264 287 0
-3265 -3264 -287 0
3265 -3264 287 0
3265 3264 -287 0
-3266 3265 288 0
-3266 -3265 -288 0
3266 -3265 288 0
3266 3265 -288 0
-3266 0
-3267 70 71 0
-3267 -70 -71 0
3267 -70 71 0
3267 70 -71 0
-3268 3267 72 0
-3268 -3267 -72 0
3268 -3267 72 0
3268 3267 -72 0
-3269 3268 74 0
-3269 -3268 -74 0
3269 -3268 74 0
3269 3268 -74 0
-3270 3269 75 0
-3270 -3269 -75 0
3270 -3269 75 0
3270 3269 -75 0
-3271 3270 76 0
-3271 -3270 -76 0
3271 -3270 76 0
3271 3270 -76 0
-3272 3271 77 0
-3272 -3271 -77 0
3272 -3271 77 0
3272 3271 -77 0
-3273 3272 78 0
-3273 -3272 -78 0
3273 -3272 78 0
3273 3272 -78 0
-3274 3273 83 0
-3274 -3273 -83 0
3274 -3273 83 0
3274 3273 -83 0
-3275 3274 84 0
-3275 -3274 -84 0
3275 -3274 84 0
3275 3274 -84 0
-3276 3275 85 0
-3276 -3275 -85 0
3276 -3275 85 0
3276 3275 -85 0
-3277 3276 86 0
-3277 -3276 -86 0
3277 -3276 86 0
3277 3276 -86 0
-3278 3277 87 0
-3278 -3277 -87 0
3278 -3277 87 0
3278 3277 -87 0
-3279 3278 95 0
-3279 -3278 -95 0
3279 -3278 95 0
3279 3278 -95 0
-3280 3279 96 0
-3280 -3279 -96 0
3280 -3279 96 0
3280 3279 -96 0
-3281 3280 101 0
-3281 -3280 -101 0
3281 -3280 101 0
3281 3280 -101 0
-3282 3281 102 0
-3282 -3281 -102 0
3282 -3281 102 0
3282 3281 -102 0
-3283 3282 104 0
-3283 -3282 -104 0
3283 -3282 104 0
3283 3282 -104 0
-3284 3283 105 0
-3284 -3283 -105 0
3284 -3283 105 0
3284 3283 -105 0
-3285 3284 107 0
-3285 -3284 -107 0
3285 -3284 107 0
3285 3284 -107 0
-3286 3285 110 0
-3286 -3285 -110 0
3286 -3285 110 0
3286 3285 -110 0
-3287 3286 113 0
-3287 -3286 -113 0
3287 -3286 113 0
3287 3286 -113 0
-3288 3287 116 0
-3288 -3287 -116 0
3288 -3287 116 0
3288 3287 -116 0
-3289 3288 118 0
-3289 -3288 -118 0
3289 -3288 118 0
3289 3288 -118 0
-3290 3289 120 0
-3290 -3289 -120 0
3290 -3289 120 0
3290 3289 -120 0
-3291 3290 123 0
-3291 -3290 -123 0
3291 -3290 123 0
3291 3290 -123 0
-3292 3291 124 0
-3292 -3291 -124 0
3292 -3291 124 0
3292 3291 -124 0
-3293 3292 125 0
-3293 -3292 -125 0
3293 -3292 125 0
3293 3292 -125 0
-3294 3293 128 0
-3294 -3293 -128 0
3294 -3293 128 0
3294 3293 -128 0
-3295 3294 129 0
-3295 -3294 -129 0
3295 -3294 129 0
3295 3294 -129 0
-3296 3295 131 0
-3296 -3295 -131 0
3296 -3295 131 0
3296 3295 -131 0
-3297 3296 135 0
-3297 -3296 -135 0
3297 -3296 135 0
3297 3296 -135 0
-3298 3297 138 0
-3298 -3297 -138 0
3298 -3297 138 0
3298 3297 -138 0
-3299 3298 140 0
-3299 -3298 -140 0
3299 -3298 140 0
3299 3298 -140 0
-3300 3299 142 0
-3300 -3299 -142 0
3300 -3299 142 0
3300 3299 -142 0
-3301 3300 144 0
-3301 -3300 -144 0
3301 -3300 144 0
3301 3300 -144 0
-3302 3301 185 0
-3302 -3301 -185 0
3302 -3301 185 0
3302 3301 -185 0
-3303 3302 213 0
-3303 -3302 -213 0
3303 -3302 213 0
3303 3302 -213 0
-3304 3303 215 0
-3304 -3303 -215 0
3304 -3303 215 0
3304 3303 -215 0
-3305 3304 216 0
-3305 -3304 -216 0
3305 -3304 216 0
3305 3304 -216 0
-3306 3305 223 0
-3306 -3305 -223 0
3306 -3305 223 0
3306 3305 -223 0
-3307 3306 224 0
-3307 -3306 -224 0
3307 -3306 224 0
3307 3306 -224 0
-3308 3307 225 0
-3308 -3307 -225 0
3308 -3307 225 0
3308 3307 -225 0
-3309 3308 226 0
-3309 -3308 -226 0
3309 -3308 226 0
3309 3308 -226 0
-3310 3309 227 0
-3310 -3309 -227 0
3310 -3309 227 0
3310 3309 -227 0
-3311 3310 228 0
-3311 -3310 -228 0
3311 -3310 228 0
3311 3310 -228 0
-3312 3311 236 0
-3312 -3311 -236 0
3312 -3311 236 0
3312 3311 -236 0
-3313 3312 238 0
-3313 -3312 -238 0
3313 -3312 238 0
3313 3312 -238 0
-3314 3313 240 0
-3314 -3313 -240 0
3314 -3313 240 0
3314 3313 -240 0
-3315 3314 242 0
-3315 -3314 -242 0
3315 -3314 242 0
3315 3314 -242 0
-3316 3315 244 0
-3316 -3315 -244 0
3316 -3315 244 0
3316 3315 -244 0
-3317 3316 246 0
-3317 -3316 -246 0
3317 -3316 246 0
3317 3316 -246 0
-3318 3317 253 0
-3318 -3317 -253 0
3318 -3317 253 0
3318 3317 -253 0
-3319 3318 255 0
-3319 -3318 -255 0
3319 -3318 255 0
3319 3318 -255 0
-3320 3319 257 0
-3320 -3319 -257 0
3320 -3319 257 0
3320 3319 -257 0
-3321 3320 265 0
-3321 -3320 -265 0
3321 -3320 265 0
3321 3320 -265 0
-3322 3321 266 0
-3322 -3321 -266 0
3322 -3321 266 0
3322 3321 -266 0
-3323 3322 269 0
-3323 -3322 -269 0
3323 -3322 269 0
3323 3322 -269 0
-3324 3323 271 0
-3324 -3323 -271 0
3324 -3323 271 0
3324 3323 -271 0
-3325 3324 273 0
-3325 -3324 -273 0
3325 -3324 273 0
3325 3324 -273 0
-3326 3325 274 0
-3326 -3325 -274 0
3326 -3325 274 0
3326 3325 -274 0
-3327 3326 277 0
-3327 -3326 -277 0
3327 -3326 277 0
3327 3326 -277 0
-3328 3327 278 0
-3328 -3327 -278 0
3328 -3327 278 0
3328 3327 -278 0
-3329 3328 279 0
-3329 -3328 -279 0
3329 -3328 279 0
3329 3328 -279 0
-3330 3329 280 0
-3330 -3329 -280 0
3330 -3329 280 0
3330 3329 -280 0
-3331 3330 281 0
-3331 -3330 -281 0
3331 -3330 281 0
3331 3330 -281 0
-3332 3331 282 0
-3332 -3331 -282 0
3332 -3331 282 0
3332 3331 -282 0
-3333 3332 283 0
-3333 -3332 -283 0
3333 -3332 283 0
3333 3332 -283 0
-3334 3333 286 0
-3334 -3333 -286 0
3334 -3333 286 0
3334 3333 -286 0
-3335 3334 287 0
-3335 -3334 -287 0
3335 -3334 287 0
3335 3334 -287 0
-3335 0
-3336 69 72 0
-3336 -69 -72 0
3336 -69 72 0
3336 69 -72 0
-3337 3336 73 0
-3337 -3336 -73 0
3337 -3336 73 0
3337 3336 -73 0
-3338 3337 74 0
-3338 -3337 -74 0
3338 -3337 74 0
3338 3337 -74 0
-3339 3338 75 0
-3339 -3338 -75 0
3339 -3338 75 0
3339 3338 -75 0
-3340 3339 77 0
-3340 -3339 -77 0
3340 -3339 77 0
3340 3339 -77 0
-3341 3340 81 0
-3341 -3340 -81 0
3341 -3340 81 0
3341 3340 -81 0
-3342 3341 83 0
-3342 -3341 -83 0
3342 -3341 83 0
3342 3341 -83 0
-3343 3342 84 0
-3343 -3342 -84 0
3343 -3342 84 0
3343 3342 -84 0
-3344 3343 85 0
-3344 -3343 -85 0
3344 -3343 85 0
3344 3343 -85 0
-3345 3344 86 0
-3345 -3344 -86 0
3345 -3344 86 0
3345 3344 -86 0
-3346 3345 88 0
-3346 -3345 -88 0
3346 -3345 88 0
3346 3345 -88 0
-3347 3346 89 0
-3347 -3346 -89 0
3347 -3346 89 0
3347 3346 -89 0
-3348 3347 91 0
-3348 -3347 -91 0
3348 -3347 91 0
3348 3347 -91 0
-3349 3348 96 0
-3349 -3348 -96 0
3349 -3348 96 0
3349 3348 -96 0
-3350 3349 98 0
-3350 -3349 -98 0
3350 -3349 98 0
3350 3349 -98 0
-3351 3350 99 0
-3351 -3350 -99 0
3351 -3350 99 0
3351 3350 -99 0
-3352 3351 100 0
-3352 -3351 -100 0
3352 -3351 100 0
3352 3351 -100 0
-3353 3352 101 0
-3353 -3352 -101 0
3353 -3352 101 0
3353 3352 -101 0
-3354 3353 104 0
-3354 -3353 -104 0
3354 -3353 104 0
3354 3353 -104 0
-3355 3354 105 0
-3355 -3354 -105 0
3355 -3354 105 0
3355 3354 -105 0
-3356 3355 111 0
-3356 -3355 -111 0
3356 -3355 111 0
3356 3355 -111 0
-3357 3356 114 0
-3357 -3356 -114 0
3357 -3356 114 0
3357 3356 -114 0
-3358 3357 115 0
-3358 -3357 -115 0
3358 -3357 115 0
3358 3357 -115 0
-3359 3358 116 0
-3359 -3358 -116 0
3359 -3358 116 0
3359 3358 -116 0
-3360 3359 117 0
-3360 -3359 -117 0
3360 -3359 117 0
3360 3359 -117 0
-3361 3360 118 0
-3361 -3360 -118 0
3361 -3360 118 0
3361 3360 -118 0
-3362 3361 119 0
-3362 -3361 -119 0
3362 -3361 119 0
3362 3361 -119 0
-3363 3362 120 0
-3363 -3362 -120 0
3363 -3362 120 0
3363 3362 -120 0
-3364 3363 121 0
-3364 -3363 -121 0
3364 -3363 121 0
3364 3363 -121 0
-3365 3364 122 0
-3365 -3364 -122 0
3365 -3364 122 0
3365 3364 -122 0
-3366 3365 123 0
-3366 -3365 -123 0
3366 -3365 123 0
3366 3365 -123 0
-3367 3366 127 0
-3367 -3366 -127 0
3367 -3366 127 0
3367 3366 -127 0
-3368 3367 128 0
-3368 -3367 -128 0
3368 -3367 128 0
3368 3367 -128 0
-3369 3368 131 0
-3369 -3368 -131 0
3369 -3368 131 0
3369 3368 -131 0
-3370 3369 133 0
-3370 -3369 -133 0
3370 -3369 133 0
3370 3369 -133 0
-3371 3370 134 0
-3371 -3370 -134 0
3371 -3370 134 0
3371 3370 -134 0
-3372 3371 138 0
-3372 -3371 -138 0
3372 -3371 138 0
3372 3371 -138 0
-3373 3372 139 0
-3373 -3372 -139 0
3373 -3372 139 0
3373 3372 -139 0
-3374 3373 140 0
-3374 -3373 -140 0
3374 -3373 140 0
3374 3373 -140 0
-3375 3374 141 0
-3375 -3374 -141 0
3375 -3374 141 0
3375 3374 -141 0
-3376 3375 142 0
-3376 -3375 -142 0
3376 -3375 142 0
3376 3375 -142 0
-3377 3376 143 0
-3377 -3376 -143 0
3377 -3376 143 0
3377 3376 -143 0
-3378 3377 144 0
-3378 -3377 -144 0
3378 -3377 144 0
3378 3377 -144 0
-3379 3378 186 0
-3379 -3378 -186 0
3379 -3378 186 0
3379 3378 -186 0
-3380 3379 213 0
-3380 -3379 -213 0
3380 -3379 213 0
3380 3379 -213 0
-3381 3380 214 0
-3381 -3380 -214 0
3381 -3380 214 0
3381 3380 -214 0
-3382 3381 215 0
-3382 -3381 -215 0
3382 -3381 215 0
3382 3381 -215 0
-3383 3382 216 0
-3383 -3382 -216 0
3383 -3382 216 0
3383 3382 -216 0
-3384 3383 223 0
-3384 -3383 -223 0
3384 -3383 223 0
3384 3383 -223 0
-3385 3384 224 0
-3385 -3384 -224 0
3385 -3384 224 0
3385 3384 -224 0
-3386 3385 225 0
-3386 -3385 -225 0
3386 -3385 225 0
3386 3385 -225 0
-3387 3386 226 0
-3387 -3386 -226 0
3387 -3386 226 0
3387 3386 -226 0
-3388 3387 227 0
-3388 -3387 -227 0
3388 -3387 227 0
3388 3387 -227 0
-3389 3388 228 0
-3389 -3388 -228 0
3389 -3388 228 0
3389 3388 -228 0
-3390 3389 236 0
-3390 -3389 -236 0
3390 -3389 236 0
3390 3389 -236 0
-3391 3390 238 0
-3391 -3390 -238 0
3391 -3390 238 0
3391 3390 -238 0
-3392 3391 240 0
-3392 -3391 -240 0
3392 -3391 240 0
3392 3391 -240 0
-3393 3392 242 0
-3393 -3392 -242 0
3393 -3392 242 0
3393 3392 -242 0
-3394 3393 244 0
-3394 -3393 -244 0
3394 -3393 244 0
3394 3393 -244 0
-3395 3394 246 0
-3395 -3394 -246 0
3395 -3394 246 0
3395 3394 -246 0
-3396 3395 253 0
-3396 -3395 -253 0
3396 -3395 253 0
3396 3395 -253 0
-3397 3396 255 0
-3397 -3396 -255 0
3397 -3396 255 0
3397 3396 -255 0
-3398 3397 257 0
-3398 -3397 -257 0
3398 -3397 257 0
3398 3397 -257 0
-3399 3398 265 0
-3399 -3398 -265 0
3399 -3398 265 0
3399 3398 -265 0
-3400 3399 266 0
-3400 -3399 -266 0
3400 -3399 266 0
3400 3399 -266 0
-3401 3400 269 0
-3401 -3400 -269 0
3401 -3400 269 0
3401 3400 -269 0
-3402 3401 270 0
-3402 -3401 -270 0
3402 -3401 270 0
3402 3401 -270 0
-3403 3402 271 0
-3403 -3402 -271 0
3403 -3402 271 0
3403 3402 -271 0
-3404 3403 272 0
-3404 -3403 -272 0
3404 -3403 272 0
3404 3403 -272 0
-3405 3404 273 0
-3405 -3404 -273 0
3405 -3404 273 0
3405 3404 -273 0
-3406 3405 274 0
-3406 -3405 -274 0
3406 -3405 274 0
3406 3405 -274 0
-3407 3406 277 0
-3407 -3406 -277 0
3407 -3406 277 0
3407 3406 -277 0
-3408 3407 278 0
-3408 -3407 -278 0
3408 -3407 278 0
3408 3407 -278 0
-3409 3408 279 0
-3409 -3408 -279 0
3409 -3408 279 0
3409 3408 -279 0
-3410 3409 280 0
-3410 -3409 -280 0
3410 -3409 280 0
3410 3409 -280 0
-3411 3410 281 0
-3411 -3410 -281 0
3411 -3410 281 0
3411 3410 -281 0
-3412 3411 282 0
-3412 -3411 -282 0
3412 -3411 282 0
3412 3411 -282 0
-3413 3412 286 0
-3413 -3412 -286 0
3413 -3412 286 0
3413 3412 -286 0
-3414 3413 287 0
-3414 -3413 -287 0
3414 -3413 287 0
3414 3413 -287 0
-3414 0
-3415 74 78 0
-3415 -74 -78 0
3415 -74 78 0
3415 74 -78 0
-3416 3415 79 0
-3416 -3415 -79 0
3416 -3415 79 0
3416 3415 -79 0
-3417 3416 80 0
-3417 -3416 -80 0
3417 -3416 80 0
3417 3416 -80 0
-3418 3417 81 0
-3418 -3417 -81 0
3418 -3417 81 0
3418 3417 -81 0
-3419 3418 82 0
-3419 -3418 -82 0
3419 -3418 82 0
3419 3418 -82 0
-3420 3419 87 0
-3420 -3419 -87 0
3420 -3419 87 0
3420 3419 -87 0
-3421 3420 88 0
-3421 -3420 -88 0
3421 -3420 88 0
3421 3420 -88 0
-3422 3421 90 0
-3422 -3421 -90 0
3422 -3421 90 0
3422 3421 -90 0
-3423 3422 92 0
-3423 -3422 -92 0
3423 -3422 92 0
3423 3422 -92 0
-3424 3423 96 0
-3424 -3423 -96 0
3424 -3423 96 0
3424 3423 -96 0
-3425 3424 98 0
-3425 -3424 -98 0
3425 -3424 98 0
3425 3424 -98 0
-3426 3425 100 0
-3426 -3425 -100 0
3426 -3425 100 0
3426 3425 -100 0
-3427 3426 103 0
-3427 -3426 -103 0
3427 -3426 103 0
3427 3426 -103 0
-3428 3427 106 0
-3428 -3427 -106 0
3428 -3427 106 0
3428 3427 -106 0
-3429 3428 107 0
-3429 -3428 -107 0
3429 -3428 107 0
3429 3428 -107 0
-3430 3429 108 0
-3430 -3429 -108 0
3430 -3429 108 0
3430 3429 -108 0
-3431 3430 110 0
-3431 -3430 -110 0
3431 -3430 110 0
3431 3430 -110 0
-3432 3431 111 0
-3432 -3431 -111 0
3432 -3431 111 0
3432 3431 -111 0
-3433 3432 113 0
-3433 -3432 -113 0
3433 -3432 113 0
3433 3432 -113 0
-3434 3433 114 0
-3434 -3433 -114 0
3434 -3433 114 0
3434 3433 -114 0
-3435 3434 115 0
-3435 -3434 -115 0
3435 -3434 115 0
3435 3434 -115 0
-3436 3435 116 0
-3436 -3435 -116 0
3436 -3435 116 0
3436 3435 -116 0
-3437 3436 117 0
-3437 -3436 -117 0
3437 -3436 117 0
3437 3436 -117 0
-3438 3437 118 0
-3438 -3437 -118 0
3438 -3437 118 0
3438 3437 -118 0
-3439 3438 124 0
-3439 -3438 -124 0
3439 -3438 124 0
3439 3438 -124 0
-3440 3439 126 0
-3440 -3439 -126 0
3440 -3439 126 0
3440 3439 -126 0
-3441 3440 127 0
-3441 -3440 -127 0
3441 -3440 127 0
3441 3440 -127 0
-3442 3441 128 0
-3442 -3441 -128 0
3442 -3441 128 0
3442 3441 -128 0
-3443 3442 132 0
-3443 -3442 -132 0
3443 -3442 132 0
3443 3442 -132 0
-3444 3443 134 0
-3444 -3443 -134 0
3444 -3443 134 0
3444 3443 -134 0
-3445 3444 136 0
-3445 -3444 -136 0
3445 -3444 136 0
3445 3444 -136 0
-3446 3445 137 0
-3446 -3445 -137 0
3446 -3445 137 0
3446 3445 -137 0
-3447 3446 142 0
-3447 -3446 -142 0
3447 -3446 142 0
3447 3446 -142 0
-3448 3447 143 0
-3448 -3447 -143 0
3448 -3447 143 0
3448 3447 -143 0
-3449 3448 144 0
-3449 -3448 -144 0
3449 -3448 144 0
3449 3448 -144 0
-3450 3449 187 0
-3450 -3449 -187 0
3450 -3449 187 0
3450 3449 -187 0
-3451 3450 213 0
-3451 -3450 -213 0
3451 -3450 213 0
3451 3450 -213 0
-3452 3451 215 0
-3452 -3451 -215 0
3452 -3451 215 0
3452 3451 -215 0
-3453 3452 217 0
-3453 -3452 -217 0
3453 -3452 217 0
3453 3452 -217 0
-3454 3453 222 0
-3454 -3453 -222 0
3454 -3453 222 0
3454 3453 -222 0
-3455 3454 223 0
-3455 -3454 -223 0
3455 -3454 223 0
3455 3454 -223 0
-3456 3455 224 0
-3456 -3455 -224 0
3456 -3455 224 0
3456 3455 -224 0
-3457 3456 225 0
-3457 -3456 -225 0
3457 -3456 225 0
3457 3456 -225 0
-3458 3457 228 0
-3458 -3457 -228 0
3458 -3457 228 0
3458 3457 -228 0
-3459 3458 230 0
-3459 -3458 -230 0
3459 -3458 230 0
3459 3458 -230 0
-3460 3459 231 0
-3460 -3459 -231 0
3460 -3459 231 0
3460 3459 -231 0
-3461 3460 232 0
-3461 -3460 -232 0
3461 -3460 232 0
3461 3460 -232 0
-3462 3461 234 0
-3462 -3461 -234 0
3462 -3461 234 0
3462 3461 -234 0
-3463 3462 241 0
-3463 -3462 -241 0
3463 -3462 241 0
3463 3462 -241 0
-3464 3463 242 0
-3464 -3463 -242 0
3464 -3463 242 0
3464 3463 -242 0
-3465 3464 244 0
-3465 -3464 -244 0
3465 -3464 244 0
3465 3464 -244 0
-3466 3465 251 0
-3466 -3465 -251 0
3466 -3465 251 0
3466 3465 -251 0
-3467 3466 253 0
-3467 -3466 -253 0
3467 -3466 253 0
3467 3466 -253 0
-3468 3467 257 0
-3468 -3467 -257 0
3468 -3467 257 0
3468 3467 -257 0
-3469 3468 259 0
-3469 -3468 -259 0
3469 -3468 259 0
3469 3468 -259 0
-3470 3469 261 0
-3470 -3469 -261 0
3470 -3469 261 0
3470 3469 -261 0
-3471 3470 262 0
-3471 -3470 -262 0
3471 -3470 262 0
3471 3470 -262 0
-3472 3471 272 0
-3472 -3471 -272 0
3472 -3471 272 0
3472 3471 -272 0
-3473 3472 276 0
-3473 -3472 -276 0
3473 -3472 276 0
3473 3472 -276 0
-3474 3473 286 0
-3474 -3473 -286 0
3474 -3473 286 0
3474 3473 -286 0
-3475 3474 287 0
-3475 -3474 -287 0
3475 -3474 287 0
3475 3474 -287 0
-3475 0
-3476 73 75 0
-3476 -73 -75 0
3476 -73 75 0
3476 73 -75 0
-3477 3476 80 0
-3477 -3476 -80 0
3477 -3476 80 0
3477 3476 -80 0
-3478 3477 81 0
-3478 -3477 -81 0
3478 -3477 81 0
3478 3477 -81 0
-3479 3478 82 0
-3479 -3478 -82 0
3479 -3478 82 0
3479 3478 -82 0
-3480 3479 83 0
-3480 -3479 -83 0
3480 -3479 83 0
3480 3479 -83 0
-3481 3480 85 0
-3481 -3480 -85 0
3481 -3480 85 0
3481 3480 -85 0
-3482 3481 88 0
-3482 -3481 -88 0
3482 -3481 88 0
3482 3481 -88 0
-3483 3482 89 0
-3483 -3482 -89 0
3483 -3482 89 0
3483 3482 -89 0
-3484 3483 91 0
-3484 -3483 -91 0
3484 -3483 91 0
3484 3483 -91 0
-3485 3484 93 0
-3485 -3484 -93 0
3485 -3484 93 0
3485 3484 -93 0
-3486 3485 99 0
-3486 -3485 -99 0
3486 -3485 99 0
3486 3485 -99 0
-3487 3486 101 0
-3487 -3486 -101 0
3487 -3486 101 0
3487 3486 -101 0
-3488 3487 103 0
-3488 -3487 -103 0
3488 -3487 103 0
3488 3487 -103 0
-3489 3488 104 0
-3489 -3488 -104 0
3489 -3488 104 0
3489 3488 -104 0
-3490 3489 107 0
-3490 -3489 -107 0
3490 -3489 107 0
3490 3489 -107 0
-3491 3490 108 0
-3491 -3490 -108 0
3491 -3490 108 0
3491 3490 -108 0
-3492 3491 109 0
-3492 -3491 -109 0
3492 -3491 109 0
3492 3491 -109 0
-3493 3492 111 0
-3493 -3492 -111 0
3493 -3492 111 0
3493 3492 -111 0
-3494 3493 112 0
-3494 -3493 -112 0
3494 -3493 112 0
3494 3493 -112 0
-3495 3494 114 0
-3495 -3494 -114 0
3495 -3494 114 0
3495 3494 -114 0
-3496 3495 116 0
-3496 -3495 -116 0
3496 -3495 116 0
3496 3495 -116 0
-3497 3496 117 0
-3497 -3496 -117 0
3497 -3496 117 0
3497 3496 -117 0
-3498 3497 118 0
-3498 -3497 -118 0
3498 -3497 118 0
3498 3497 -118 0
-3499 3498 119 0
-3499 -3498 -119 0
3499 -3498 119 0
3499 3498 -119 0
-3500 3499 121 0
-3500 -3499 -121 0
3500 -3499 121 0
3500 3499 -121 0
-3501 3500 125 0
-3501 -3500 -125 0
3501 -3500 125 0
3501 3500 -125 0
-3502 3501 127 0
-3502 -3501 -127 0
3502 -3501 127 0
3502 3501 -127 0
-3503 3502 128 0
-3503 -3502 -128 0
3503 -3502 128 0
3503 3502 -128 0
-3504 3503 129 0
-3504 -3503 -129 0
3504 -3503 129 0
3504 3503 -129 0
-3505 3504 135 0
-3505 -3504 -135 0
3505 -3504 135 0
3505 3504 -135 0
-3506 3505 137 0
-3506 -3505 -137 0
3506 -3505 137 0
3506 3505 -137 0
-3507 3506 138 0
-3507 -3506 -138 0
3507 -3506 138 0
3507 3506 -138 0
-3508 3507 139 0
-3508 -3507 -139 0
3508 -3507 139 0
3508 3507 -139 0
-3509 3508 143 0
-3509 -3508 -143 0
3509 -3508 143 0
3509 3508 -143 0
-3510 3509 144 0
-3510 -3509 -144 0
3510 -3509 144 0
3510 3509 -144 0
-3511 3510 188 0
-3511 -3510 -188 0
3511 -3510 188 0
3511 3510 -188 0
-3512 3511 214 0
-3512 -3511 -214 0
3512 -3511 214 0
3512 3511 -214 0
-3513 3512 216 0
-3513 -3512 -216 0
3513 -3512 216 0
3513 3512 -216 0
-3514 3513 217 0
-3514 -3513 -217 0
3514 -3513 217 0
3514 3513 -217 0
-3515 3514 218 0
-3515 -3514 -218 0
3515 -3514 218 0
3515 3514 -218 0
-3516 3515 223 0
-3516 -3515 -223 0
3516 -3515 223 0
3516 3515 -223 0
-3517 3516 224 0
-3517 -3516 -224 0
3517 -3516 224 0
3517 3516 -224 0
-3518 3517 225 0
-3518 -3517 -225 0
3518 -3517 225 0
3518 3517 -225 0
-3519 3518 226 0
-3519 -3518 -226 0
3519 -3518 226 0
3519 3518 -226 0
-3520 3519 229 0
-3520 -3519 -229 0
3520 -3519 229 0
3520 3519 -229 0
-3521 3520 231 0
-3521 -3520 -231 0
3521 -3520 231 0
3521 3520 -231 0
-3522 3521 232 0
-3522 -3521 -232 0
3522 -3521 232 0
3522 3521 -232 0
-3523 3522 233 0
-3523 -3522 -233 0
3523 -3522 233 0
3523 3522 -233 0
-3524 3523 242 0
-3524 -3523 -242 0
3524 -3523 242 0
3524 3523 -242 0
-3525 3524 243 0
-3525 -3524 -243 0
3525 -3524 243 0
3525 3524 -243 0
-3526 3525 245 0
-3526 -3525 -245 0
3526 -3525 245 0
3526 3525 -245 0
-3527 3526 252 0
-3527 -3526 -252 0
3527 -3526 252 0
3527 3526 -252 0
-3528 3527 254 0
-3528 -3527 -254 0
3528 -3527 254 0
3528 3527 -254 0
-3529 3528 258 0
-3529 -3528 -258 0
3529 -3528 258 0
3529 3528 -258 0
-3530 3529 260 0
-3530 -3529 -260 0
3530 -3529 260 0
3530 3529 -260 0
-3531 3530 262 0
-3531 -3530 -262 0
3531 -3530 262 0
3531 3530 -262 0
-3532 3531 263 0
-3532 -3531 -263 0
3532 -3531 263 0
3532 3531 -263 0
-3533 3532 271 0
-3533 -3532 -271 0
3533 -3532 271 0
3533 3532 -271 0
-3534 3533 273 0
-3534 -3533 -273 0
3534 -3533 273 0
3534 3533 -273 0
-3535 3534 287 0
-3535 -3534 -287 0
3535 -3534 287 0
3535 3534 -287 0
-3536 3535 288 0
-3536 -3535 -288 0
3536 -3535 288 0
3536 3535 -288 0
-3536 0
-3537 74 76 0
-3537 -74 -76 0
3537 -74 76 0
3537 74 -76 0
-3538 3537 79 0
-3538 -3537 -79 0
3538 -3537 79 0
3538 3537 -79 0
-3539 3538 82 0
-3539 -3538 -82 0
3539 -3538 82 0
3539 3538 -82 0
-3540 3539 84 0
-3540 -3539 -84 0
3540 -3539 84 0
3540 3539 -84 0
-3541 3540 85 0
-3541 -3540 -85 0
3541 -3540 85 0
3541 3540 -85 0
-3542 3541 86 0
-3542 -3541 -86 0
3542 -3541 86 0
3542 3541 -86 0
-3543 3542 87 0
-3543 -3542 -87 0
3543 -3542 87 0
3543 3542 -87 0
-3544 3543 90 0
-3544 -3543 -90 0
3544 -3543 90 0
3544 3543 -90 0
-3545 3544 91 0
-3545 -3544 -91 0
3545 -3544 91 0
3545 3544 -91 0
-3546 3545 92 0
-3546 -3545 -92 0
3546 -3545 92 0
3546 3545 -92 0
-3547 3546 93 0
-3547 -3546 -93 0
3547 -3546 93 0
3547 3546 -93 0
-3548 3547 94 0
-3548 -3547 -94 0
3548 -3547 94 0
3548 3547 -94 0
-3549 3548 95 0
-3549 -3548 -95 0
3549 -3548 95 0
3549 3548 -95 0
-3550 3549 100 0
-3550 -3549 -100 0
3550 -3549 100 0
3550 3549 -100 0
-3551 3550 102 0
-3551 -3550 -102 0
3551 -3550 102 0
3551 3550 -102 0
-3552 3551 103 0
-3552 -3551 -103 0
3552 -3551 103 0
3552 3551 -103 0
-3553 3552 104 0
-3553 -3552 -104 0
3553 -3552 104 0
3553 3552 -104 0
-3554 3553 105 0
-3554 -3553 -105 0
3554 -3553 105 0
3554 3553 -105 0
-3555 3554 108 0
-3555 -3554 -108 0
3555 -3554 108 0
3555 3554 -108 0
-3556 3555 110 0
-3556 -3555 -110 0
3556 -3555 110 0
3556 3555 -110 0
-3557 3556 111 0
-3557 -3556 -111 0
3557 -3556 111 0
3557 3556 -111 0
-3558 3557 112 0
-3558 -3557 -112 0
3558 -3557 112 0
3558 3557 -112 0
-3559 3558 117 0
-3559 -3558 -117 0
3559 -3558 117 0
3559 3558 -117 0
-3560 3559 118 0
-3560 -3559 -118 0
3560 -3559 118 0
3560 3559 -118 0
-3561 3560 119 0
-3561 -3560 -119 0
3561 -3560 119 0
3561 3560 -119 0
-3562 3561 120 0
-3562 -3561 -120 0
3562 -3561 120 0
3562 3561 -120 0
-3563 3562 122 0
-3563 -3562 -122 0
3563 -3562 122 0
3563 3562 -122 0
-3564 3563 126 0
-3564 -3563 -126 0
3564 -3563 126 0
3564 3563 -126 0
-3565 3564 128 0
-3565 -3564 -128 0
3565 -3564 128 0
3565 3564 -128 0
-3566 3565 129 0
-3566 -3565 -129 0
3566 -3565 129 0
3566 3565 -129 0
-3567 3566 130 0
-3567 -3566 -130 0
3567 -3566 130 0
3567 3566 -130 0
-3568 3567 133 0
-3568 -3567 -133 0
3568 -3567 133 0
3568 3567 -133 0
-3569 3568 136 0
-3569 -3568 -136 0
3569 -3568 136 0
3569 3568 -136 0
-3570 3569 138 0
-3570 -3569 -138 0
3570 -3569 138 0
3570 3569 -138 0
-3571 3570 139 0
-3571 -3570 -139 0
3571 -3570 139 0
3571 3570 -139 0
-3572 3571 140 0
-3572 -3571 -140 0
3572 -3571 140 0
3572 3571 -140 0
-3573 3572 144 0
-3573 -3572 -144 0
3573 -3572 144 0
3573 3572 -144 0
-3574 3573 189 0
-3574 -3573 -189 0
3574 -3573 189 0
3574 3573 -189 0
-3575 3574 213 0
-3575 -3574 -213 0
3575 -3574 213 0
3575 3574 -213 0
-3576 3575 218 0
-3576 -3575 -218 0
3576 -3575 218 0
3576 3575 -218 0
-3577 3576 219 0
-3577 -3576 -219 0
3577 -3576 219 0
3577 3576 -219 0
-3578 3577 224 0
-3578 -3577 -224 0
3578 -3577 224 0
3578 3577 -224 0
-3579 3578 225 0
-3579 -3578 -225 0
3579 -3578 225 0
3579 3578 -225 0
-3580 3579 226 0
-3580 -3579 -226 0
3580 -3579 226 0
3580 3579 -226 0
-3581 3580 227 0
-3581 -3580 -227 0
3581 -3580 227 0
3581 3580 -227 0
-3582 3581 230 0
-3582 -3581 -230 0
3582 -3581 230 0
3582 3581 -230 0
-3583 3582 232 0
-3583 -3582 -232 0
3583 -3582 232 0
3583 3582 -232 0
-3584 3583 233 0
-3584 -3583 -233 0
3584 -3583 233 0
3584 3583 -233 0
-3585 3584 234 0
-3585 -3584 -234 0
3585 -3584 234 0
3585 3584 -234 0
-3586 3585 235 0
-3586 -3585 -235 0
3586 -3585 235 0
3586 3585 -235 0
-3587 3586 236 0
-3587 -3586 -236 0
3587 -3586 236 0
3587 3586 -236 0
-3588 3587 237 0
-3588 -3587 -237 0
3588 -3587 237 0
3588 3587 -237 0
-3589 3588 238 0
-3589 -3588 -238 0
3589 -3588 238 0
3589 3588 -238 0
-3590 3589 239 0
-3590 -3589 -239 0
3590 -3589 239 0
3590 3589 -239 0
-3591 3590 240 0
-3591 -3590 -240 0
3591 -3590 240 0
3591 3590 -240 0
-3592 3591 241 0
-3592 -3591 -241 0
3592 -3591 241 0
3592 3591 -241 0
-3593 3592 242 0
-3593 -3592 -242 0
3593 -3592 242 0
3593 3592 -242 0
-3594 3593 245 0
-3594 -3593 -245 0
3594 -3593 245 0
3594 3593 -245 0
-3595 3594 247 0
-3595 -3594 -247 0
3595 -3594 247 0
3595 3594 -247 0
-3596 3595 254 0
-3596 -3595 -254 0
3596 -3595 254 0
3596 3595 -254 0
-3597 3596 256 0
-3597 -3596 -256 0
3597 -3596 256 0
3597 3596 -256 0
-3598 3597 257 0
-3598 -3597 -257 0
3598 -3597 257 0
3598 3597 -257 0
-3599 3598 258 0
-3599 -3598 -258 0
3599 -3598 258 0
3599 3598 -258 0
-3600 3599 261 0
-3600 -3599 -261 0
3600 -3599 261 0
3600 3599 -261 0
-3601 3600 263 0
-3601 -3600 -263 0
3601 -3600 263 0
3601 3600 -263 0
-3602 3601 264 0
-3602 -3601 -264 0
3602 -3601 264 0
3602 3601 -264 0
-3603 3602 265 0
-3603 -3602 -265 0
3603 -3602 265 0
3603 3602 -265 0
-3604 3603 267 0
-3604 -3603 -267 0
3604 -3603 267 0
3604 3603 -267 0
-3605 3604 269 0
-3605 -3604 -269 0
3605 -3604 269 0
3605 3604 -269 0
-3606 3605 271 0
-3606 -3605 -271 0
3606 -3605 271 0
3606 3605 -271 0
-3607 3606 272 0
-3607 -3606 -272 0
3607 -3606 272 0
3607 3606 -272 0
-3608 3607 273 0
-3608 -3607 -273 0
3608 -3607 273 0
3608 3607 -273 0
-3609 3608 274 0
-3609 -3608 -274 0
3609 -3608 274 0
3609 3608 -274 0
-3610 3609 275 0
-3610 -3609 -275 0
3610 -3609 275 0
3610 3609 -275 0
-3611 3610 283 0
-3611 -3610 -283 0
3611 -3610 283 0
3611 3610 -283 0
-3612 3611 284 0
-3612 -3611 -284 0
3612 -3611 284 0
3612 3611 -284 0
-3613 3612 286 0
-3613 -3612 -286 0
3613 -3612 286 0
3613 3612 -286 0
-3613 0
-3614 75 77 0
-3614 -75 -77 0
3614 -75 77 0
3614 75 -77 0
-3615 3614 79 0
-3615 -3614 -79 0
3615 -3614 79 0
3615 3614 -79 0
-3616 3615 80 0
-3616 -3615 -80 0
3616 -3615 80 0
3616 3615 -80 0
-3617 3616 83 0
-3617 -3616 -83 0
3617 -3616 83 0
3617 3616 -83 0
-3618 3617 85 0
-3618 -3617 -85 0
3618 -3617 85 0
3618 3617 -85 0
-3619 3618 86 0
-3619 -3618 -86 0
3619 -3618 86 0
3619 3618 -86 0
-3620 3619 87 0
-3620 -3619 -87 0
3620 -3619 87 0
3620 3619 -87 0
-3621 3620 88 0
-3621 -3620 -88 0
3621 -3620 88 0
3621 3620 -88 0
-3622 3621 92 0
-3622 -3621 -92 0
3622 -3621 92 0
3622 3621 -92 0
-3623 3622 93 0
-3623 -3622 -93 0
3623 -3622 93 0
3623 3622 -93 0
-3624 3623 94 0
-3624 -3623 -94 0
3624 -3623 94 0
3624 3623 -94 0
-3625 3624 95 0
-3625 -3624 -95 0
3625 -3624 95 0
3625 3624 -95 0
-3626 3625 96 0
-3626 -3625 -96 0
3626 -3625 96 0
3626 3625 -96 0
-3627 3626 97 0
-3627 -3626 -97 0
3627 -3626 97 0
3627 3626 -97 0
-3628 3627 101 0
-3628 -3627 -101 0
3628 -3627 101 0
3628 3627 -101 0
-3629 3628 103 0
-3629 -3628 -103 0
3629 -3628 103 0
3629 3628 -103 0
-3630 3629 104 0
-3630 -3629 -104 0
3630 -3629 104 0
3630 3629 -104 0
-3631 3630 105 0
-3631 -3630 -105 0
3631 -3630 105 0
3631 3630 -105 0
-3632 3631 106 0
-3632 -3631 -106 0
3632 -3631 106 0
3632 3631 -106 0
-3633 3632 111 0
-3633 -3632 -111 0
3633 -3632 111 0
3633 3632 -111 0
-3634 3633 112 0
-3634 -3633 -112 0
3634 -3633 112 0
3634 3633 -112 0
-3635 3634 113 0
-3635 -3634 -113 0
3635 -3634 113 0
3635 3634 -113 0
-3636 3635 115 0
-3636 -3635 -115 0
3636 -3635 115 0
3636 3635 -115 0
-3637 3636 118 0
-3637 -3636 -118 0
3637 -3636 118 0
3637 3636 -118 0
-3638 3637 119 0
-3638 -3637 -119 0
3638 -3637 119 0
3638 3637 -119 0
-3639 3638 120 0
-3639 -3638 -120 0
3639 -3638 120 0
3639 3638 -120 0
-3640 3639 121 0
-3640 -3639 -121 0
3640 -3639 121 0
3640 3639 -121 0
-3641 3640 123 0
-3641 -3640 -123 0
3641 -3640 123 0
3641 3640 -123 0
-3642 3641 129 0
-3642 -3641 -129 0
3642 -3641 129 0
3642 3641 -129 0
-3643 3642 130 0
-3643 -3642 -130 0
3643 -3642 130 0
3643 3642 -130 0
-3644 3643 131 0
-3644 -3643 -131 0
3644 -3643 131 0
3644 3643 -131 0
-3645 3644 133 0
-3645 -3644 -133 0
3645 -3644 133 0
3645 3644 -133 0
-3646 3645 134 0
-3646 -3645 -134 0
3646 -3645 134 0
3646 3645 -134 0
-3647 3646 137 0
-3647 -3646 -137 0
3647 -3646 137 0
3647 3646 -137 0
-3648 3647 139 0
-3648 -3647 -139 0
3648 -3647 139 0
3648 3647 -139 0
-3649 3648 140 0
-3649 -3648 -140 0
3649 -3648 140 0
3649 3648 -140 0
-3650 3649 141 0
-3650 -3649 -141 0
3650 -3649 141 0
3650 3649 -141 0
-3651 3650 190 0
-3651 -3650 -190 0
3651 -3650 190 0
3651 3650 -190 0
-3652 3651 214 0
-3652 -3651 -214 0
3652 -3651 214 0
3652 3651 -214 0
-3653 3652 219 0
-3653 -3652 -219 0
3653 -3652 219 0
3653 3652 -219 0
-3654 3653 220 0
-3654 -3653 -220 0
3654 -3653 220 0
3654 3653 -220 0
-3655 3654 225 0
-3655 -3654 -225 0
3655 -3654 225 0
3655 3654 -225 0
-3656 3655 226 0
-3656 -3655 -226 0
3656 -3655 226 0
3656 3655 -226 0
-3657 3656 227 0
-3657 -3656 -227 0
3657 -3656 227 0
3657 3656 -227 0
-3658 3657 228 0
-3658 -3657 -228 0
3658 -3657 228 0
3658 3657 -228 0
-3659 3658 229 0
-3659 -3658 -229 0
3659 -3658 229 0
3659 3658 -229 0
-3660 3659 231 0
-3660 -3659 -231 0
3660 -3659 231 0
3660 3659 -231 0
-3661 3660 233 0
-3661 -3660 -233 0
3661 -3660 233 0
3661 3660 -233 0
-3662 3661 234 0
-3662 -3661 -234 0
3662 -3661 234 0
3662 3661 -234 0
-3663 3662 235 0
-3663 -3662 -235 0
3663 -3662 235 0
3663 3662 -235 0
-3664 3663 236 0
-3664 -3663 -236 0
3664 -3663 236 0
3664 3663 -236 0
-3665 3664 237 0
-3665 -3664 -237 0
3665 -3664 237 0
3665 3664 -237 0
-3666 3665 238 0
-3666 -3665 -238 0
3666 -3665 238 0
3666 3665 -238 0
-3667 3666 239 0
-3667 -3666 -239 0
3667 -3666 239 0
3667 3666 -239 0
-3668 3667 240 0
-3668 -3667 -240 0
3668 -3667 240 0
3668 3667 -240 0
-3669 3668 242 0
-3669 -3668 -242 0
3669 -3668 242 0
3669 3668 -242 0
-3670 3669 243 0
-3670 -3669 -243 0
3670 -3669 243 0
3670 3669 -243 0
-3671 3670 246 0
-3671 -3670 -246 0
3671 -3670 246 0
3671 3670 -246 0
-3672 3671 248 0
-3672 -3671 -248 0
3672 -3671 248 0
3672 3671 -248 0
-3673 3672 253 0
-3673 -3672 -253 0
3673 -3672 253 0
3673 3672 -253 0
-3674 3673 255 0
-3674 -3673 -255 0
3674 -3673 255 0
3674 3673 -255 0
-3675 3674 257 0
-3675 -3674 -257 0
3675 -3674 257 0
3675 3674 -257 0
-3676 3675 258 0
-3676 -3675 -258 0
3676 -3675 258 0
3676 3675 -258 0
-3677 3676 259 0
-3677 -3676 -259 0
3677 -3676 259 0
3677 3676 -259 0
-3678 3677 262 0
-3678 -3677 -262 0
3678 -3677 262 0
3678 3677 -262 0
-3679 3678 264 0
-3679 -3678 -264 0
3679 -3678 264 0
3679 3678 -264 0
-3680 3679 266 0
-3680 -3679 -266 0
3680 -3679 266 0
3680 3679 -266 0
-3681 3680 268 0
-3681 -3680 -268 0
3681 -3680 268 0
3681 3680 -268 0
-3682 3681 270 0
-3682 -3681 -270 0
3682 -3681 270 0
3682 3681 -270 0
-3683 3682 272 0
-3683 -3682 -272 0
3683 -3682 272 0
3683 3682 -272 0
-3684 3683 273 0
-3684 -3683 -273 0
3684 -3683 273 0
3684 3683 -273 0
-3685 3684 274 0
-3685 -3684 -274 0
3685 -3684 274 0
3685 3684 -274 0
-3686 3685 275 0
-3686 -3685 -275 0
3686 -3685 275 0
3686 3685 -275 0
-3687 3686 276 0
-3687 -3686 -276 0
3687 -3686 276 0
3687 3686 -276 0
-3688 3687 284 0
-3688 -3687 -284 0
3688 -3687 284 0
3688 3687 -284 0
-3689 3688 285 0
-3689 -3688 -285 0
3689 -3688 285 0
3689 3688 -285 0
-3690 3689 287 0
-3690 -3689 -287 0
3690 -3689 287 0
3690 3689 -287 0
-3690 0
-3691 76 78 0
-3691 -76 -78 0
3691 -76 78 0
3691 76 -78 0
-3692 3691 80 0
-3692 -3691 -80 0
3692 -3691 80 0
3692 3691 -80 0
-3693 3692 81 0
-3693 -3692 -81 0
3693 -3692 81 0
3693 3692 -81 0
-3694 3693 84 0
-3694 -3693 -84 0
3694 -3693 84 0
3694 3693 -84 0
-3695 3694 86 0
-3695 -3694 -86 0
3695 -3694 86 0
3695 3694 -86 0
-3696 3695 87 0
-3696 -3695 -87 0
3696 -3695 87 0
3696 3695 -87 0
-3697 3696 88 0
-3697 -3696 -88 0
3697 -3696 88 0
3697 3696 -88 0
-3698 3697 89 0
-3698 -3697 -89 0
3698 -3697 89 0
3698 3697 -89 0
-3699 3698 91 0
-3699 -3698 -91 0
3699 -3698 91 0
3699 3698 -91 0
-3700 3699 93 0
-3700 -3699 -93 0
3700 -3699 93 0
3700 3699 -93 0
-3701 3700 94 0
-3701 -3700 -94 0
3701 -3700 94 0
3701 3700 -94 0
-3702 3701 95 0
-3702 -3701 -95 0
3702 -3701 95 0
3702 3701 -95 0
-3703 3702 96 0
-3703 -3702 -96 0
3703 -3702 96 0
3703 3702 -96 0
-3704 3703 98 0
-3704 -3703 -98 0
3704 -3703 98 0
3704 3703 -98 0
-3705 3704 102 0
-3705 -3704 -102 0
3705 -3704 102 0
3705 3704 -102 0
-3706 3705 104 0
-3706 -3705 -104 0
3706 -3705 104 0
3706 3705 -104 0
-3707 3706 105 0
-3707 -3706 -105 0
3707 -3706 105 0
3707 3706 -105 0
-3708 3707 106 0
-3708 -3707 -106 0
3708 -3707 106 0
3708 3707 -106 0
-3709 3708 107 0
-3709 -3708 -107 0
3709 -3708 107 0
3709 3708 -107 0
-3710 3709 112 0
-3710 -3709 -112 0
3710 -3709 112 0
3710 3709 -112 0
-3711 3710 113 0
-3711 -3710 -113 0
3711 -3710 113 0
3711 3710 -113 0
-3712 3711 114 0
-3712 -3711 -114 0
3712 -3711 114 0
3712 3711 -114 0
-3713 3712 115 0
-3713 -3712 -115 0
3713 -3712 115 0
3713 3712 -115 0
-3714 3713 116 0
-3714 -3713 -116 0
3714 -3713 116 0
3714 3713 -116 0
-3715 3714 119 0
-3715 -3714 -119 0
3715 -3714 119 0
3715 3714 -119 0
-3716 3715 120 0
-3716 -3715 -120 0
3716 -3715 120 0
3716 3715 -120 0
-3717 3716 122 0
-3717 -3716 -122 0
3717 -3716 122 0
3717 3716 -122 0
-3718 3717 124 0
-3718 -3717 -124 0
3718 -3717 124 0
3718 3717 -124 0
-3719 3718 130 0
-3719 -3718 -130 0
3719 -3718 130 0
3719 3718 -130 0
-3720 3719 131 0
-3720 -3719 -131 0
3720 -3719 131 0
3720 3719 -131 0
-3721 3720 132 0
-3721 -3720 -132 0
3721 -3720 132 0
3721 3720 -132 0
-3722 3721 134 0
-3722 -3721 -134 0
3722 -3721 134 0
3722 3721 -134 0
-3723 3722 135 0
-3723 -3722 -135 0
3723 -3722 135 0
3723 3722 -135 0
-3724 3723 138 0
-3724 -3723 -138 0
3724 -3723 138 0
3724 3723 -138 0
-3725 3724 140 0
-3725 -3724 -140 0
3725 -3724 140 0
3725 3724 -140 0
-3726 3725 141 0
-3726 -3725 -141 0
3726 -3725 141 0
3726 3725 -141 0
-3727 3726 142 0
-3727 -3726 -142 0
3727 -3726 142 0
3727 3726 -142 0
-3728 3727 191 0
-3728 -3727 -191 0
3728 -3727 191 0
3728 3727 -191 0
-3729 3728 215 0
-3729 -3728 -215 0
3729 -3728 215 0
3729 3728 -215 0
-3730 3729 220 0
-3730 -3729 -220 0
3730 -3729 220 0
3730 3729 -220 0
-3731 3730 221 0
-3731 -3730 -221 0
3731 -3730 221 0
3731 3730 -221 0
-3732 3731 223 0
-3732 -3731 -223 0
3732 -3731 223 0
3732 3731 -223 0
-3733 3732 226 0
-3733 -3732 -226 0
3733 -3732 226 0
3733 3732 -226 0
-3734 3733 227 0
-3734 -3733 -227 0
3734 -3733 227 0
3734 3733 -227 0
-3735 3734 228 0
-3735 -3734 -228 0
3735 -3734 228 0
3735 3734 -228 0
-3736 3735 229 0
-3736 -3735 -229 0
3736 -3735 229 0
3736 3735 -229 0
-3737 3736 230 0
-3737 -3736 -230 0
3737 -3736 230 0
3737 3736 -230 0
-3738 3737 232 0
-3738 -3737 -232 0
3738 -3737 232 0
3738 3737 -232 0
-3739 3738 234 0
-3739 -3738 -234 0
3739 -3738 234 0
3739 3738 -234 0
-3740 3739 235 0
-3740 -3739 -235 0
3740 -3739 235 0
3740 3739 -235 0
-3741 3740 236 0
-3741 -3740 -236 0
3741 -3740 236 0
3741 3740 -236 0
-3742 3741 237 0
-3742 -3741 -237 0
3742 -3741 237 0
3742 3741 -237 0
-3743 3742 238 0
-3743 -3742 -238 0
3743 -3742 238 0
3743 3742 -238 0
-3744 3743 239 0
-3744 -3743 -239 0
3744 -3743 239 0
3744 3743 -239 0
-3745 3744 240 0
-3745 -3744 -240 0
3745 -3744 240 0
3745 3744 -240 0
-3746 3745 241 0
-3746 -3745 -241 0
3746 -3745 241 0
3746 3745 -241 0
-3747 3746 243 0
-3747 -3746 -243 0
3747 -3746 243 0
3747 3746 -243 0
-3748 3747 244 0
-3748 -3747 -244 0
3748 -3747 244 0
3748 3747 -244 0
-3749 3748 249 0
-3749 -3748 -249 0
3749 -3748 249 0
3749 3748 -249 0
-3750 3749 253 0
-3750 -3749 -253 0
3750 -3749 253 0
3750 3749 -253 0
-3751 3750 254 0
-3751 -3750 -254 0
3751 -3750 254 0
3751 3750 -254 0
-3752 3751 256 0
-3752 -3751 -256 0
3752 -3751 256 0
3752 3751 -256 0
-3753 3752 258 0
-3753 -3752 -258 0
3753 -3752 258 0
3753 3752 -258 0
-3754 3753 259 0
-3754 -3753 -259 0
3754 -3753 259 0
3754 3753 -259 0
-3755 3754 260 0
-3755 -3754 -260 0
3755 -3754 260 0
3755 3754 -260 0
-3756 3755 263 0
-3756 -3755 -263 0
3756 -3755 263 0
3756 3755 -263 0
-3757 3756 265 0
-3757 -3756 -265 0
3757 -3756 265 0
3757 3756 -265 0
-3758 3757 267 0
-3758 -3757 -267 0
3758 -3757 267 0
3758 3757 -267 0
-3759 3758 269 0
-3759 -3758 -269 0
3759 -3758 269 0
3759 3758 -269 0
-3760 3759 271 0
-3760 -3759 -271 0
3760 -3759 271 0
3760 3759 -271 0
-3761 3760 273 0
-3761 -3760 -273 0
3761 -3760 273 0
3761 3760 -273 0
-3762 3761 274 0
-3762 -3761 -274 0
3762 -3761 274 0
3762 3761 -274 0
-3763 3762 275 0
-3763 -3762 -275 0
3763 -3762 275 0
3763 3762 -275 0
-3764 3763 276 0
-3764 -3763 -276 0
3764 -3763 276 0
3764 3763 -276 0
-3765 3764 285 0
-3765 -3764 -285 0
3765 -3764 285 0
3765 3764 -285 0
-3766 3765 286 0
-3766 -3765 -286 0
3766 -3765 286 0
3766 3765 -286 0
-3767 3766 288 0
-3767 -3766 -288 0
3767 -3766 288 0
3767 3766 -288 0
-3767 0
-3768 73 77 0
-3768 -73 -77 0
3768 -73 77 0
3768 73 -77 0
-3769 3768 79 0
-3769 -3768 -79 0
3769 -3768 79 0
3769 3768 -79 0
-3770 3769 81 0
-3770 -3769 -81 0
3770 -3769 81 0
3770 3769 -81 0
-3771 3770 82 0
-3771 -3770 -82 0
3771 -3770 82 0
3771 3770 -82 0
-3772 3771 87 0
-3772 -3771 -87 0
3772 -3771 87 0
3772 3771 -87 0
-3773 3772 88 0
-3773 -3772 -88 0
3773 -3772 88 0
3773 3772 -88 0
-3774 3773 89 0
-3774 -3773 -89 0
3774 -3773 89 0
3774 3773 -89 0
-3775 3774 90 0
-3775 -3774 -90 0
3775 -3774 90 0
3775 3774 -90 0
-3776 3775 91 0
-3776 -3775 -91 0
3776 -3775 91 0
3776 3775 -91 0
-3777 3776 92 0
-3777 -3776 -92 0
3777 -3776 92 0
3777 3776 -92 0
-3778 3777 94 0
-3778 -3777 -94 0
3778 -3777 94 0
3778 3777 -94 0
-3779 3778 95 0
-3779 -3778 -95 0
3779 -3778 95 0
3779 3778 -95 0
-3780 3779 96 0
-3780 -3779 -96 0
3780 -3779 96 0
3780 3779 -96 0
-3781 3780 97 0
-3781 -3780 -97 0
3781 -3780 97 0
3781 3780 -97 0
-3782 3781 99 0
-3782 -3781 -99 0
3782 -3781 99 0
3782 3781 -99 0
-3783 3782 105 0
-3783 -3782 -105 0
3783 -3782 105 0
3783 3782 -105 0
-3784 3783 106 0
-3784 -3783 -106 0
3784 -3783 106 0
3784 3783 -106 0
-3785 3784 107 0
-3785 -3784 -107 0
3785 -3784 107 0
3785 3784 -107 0
-3786 3785 108 0
-3786 -3785 -108 0
3786 -3785 108 0
3786 3785 -108 0
-3787 3786 109 0
-3787 -3786 -109 0
3787 -3786 109 0
3787 3786 -109 0
-3788 3787 113 0
-3788 -3787 -113 0
3788 -3787 113 0
3788 3787 -113 0
-3789 3788 114 0
-3789 -3788 -114 0
3789 -3788 114 0
3789 3788 -114 0
-3790 3789 115 0
-3790 -3789 -115 0
3790 -3789 115 0
3790 3789 -115 0
-3791 3790 116 0
-3791 -3790 -116 0
3791 -3790 116 0
3791 3790 -116 0
-3792 3791 117 0
-3792 -3791 -117 0
3792 -3791 117 0
3792 3791 -117 0
-3793 3792 120 0
-3793 -3792 -120 0
3793 -3792 120 0
3793 3792 -120 0
-3794 3793 123 0
-3794 -3793 -123 0
3794 -3793 123 0
3794 3793 -123 0
-3795 3794 125 0
-3795 -3794 -125 0
3795 -3794 125 0
3795 3794 -125 0
-3796 3795 127 0
-3796 -3795 -127 0
3796 -3795 127 0
3796 3795 -127 0
-3797 3796 131 0
-3797 -3796 -131 0
3797 -3796 131 0
3797 3796 -131 0
-3798 3797 132 0
-3798 -3797 -132 0
3798 -3797 132 0
3798 3797 -132 0
-3799 3798 133 0
-3799 -3798 -133 0
3799 -3798 133 0
3799 3798 -133 0
-3800 3799 135 0
-3800 -3799 -135 0
3800 -3799 135 0
3800 3799 -135 0
-3801 3800 136 0
-3801 -3800 -136 0
3801 -3800 136 0
3801 3800 -136 0
-3802 3801 141 0
-3802 -3801 -141 0
3802 -3801 141 0
3802 3801 -141 0
-3803 3802 142 0
-3803 -3802 -142 0
3803 -3802 142 0
3803 3802 -142 0
-3804 3803 143 0
-3804 -3803 -143 0
3804 -3803 143 0
3804 3803 -143 0
-3805 3804 192 0
-3805 -3804 -192 0
3805 -3804 192 0
3805 3804 -192 0
-3806 3805 216 0
-3806 -3805 -216 0
3806 -3805 216 0
3806 3805 -216 0
-3807 3806 221 0
-3807 -3806 -221 0
3807 -3806 221 0
3807 3806 -221 0
-3808 3807 222 0
-3808 -3807 -222 0
3808 -3807 222 0
3808 3807 -222 0
-3809 3808 223 0
-3809 -3808 -223 0
3809 -3808 223 0
3809 3808 -223 0
-3810 3809 224 0
-3810 -3809 -224 0
3810 -3809 224 0
3810 3809 -224 0
-3811 3810 227 0
-3811 -3810 -227 0
3811 -3810 227 0
3811 3810 -227 0
-3812 3811 228 0
-3812 -3811 -228 0
3812 -3811 228 0
3812 3811 -228 0
-3813 3812 229 0
-3813 -3812 -229 0
3813 -3812 229 0
3813 3812 -229 0
-3814 3813 230 0
-3814 -3813 -230 0
3814 -3813 230 0
3814 3813 -230 0
-3815 3814 231 0
-3815 -3814 -231 0
3815 -3814 231 0
3815 3814 -231 0
-3816 3815 233 0
-3816 -3815 -233 0
3816 -3815 233 0
3816 3815 -233 0
-3817 3816 235 0
-3817 -3816 -235 0
3817 -3816 235 0
3817 3816 -235 0
-3818 3817 236 0
-3818 -3817 -236 0
3818 -3817 236 0
3818 3817 -236 0
-3819 3818 237 0
-3819 -3818 -237 0
3819 -3818 237 0
3819 3818 -237 0
-3820 3819 238 0
-3820 -3819 -238 0
3820 -3819 238 0
3820 3819 -238 0
-3821 3820 239 0
-3821 -3820 -239 0
3821 -3820 239 0
3821 3820 -239 0
-3822 3821 240 0
-3822 -3821 -240 0
3822 -3821 240 0
3822 3821 -240 0
-3823 3822 242 0
-3823 -3822 -242 0
3823 -3822 242 0
3823 3822 -242 0
-3824 3823 244 0
-3824 -3823 -244 0
3824 -3823 244 0
3824 3823 -244 0
-3825 3824 245 0
-3825 -3824 -245 0
3825 -3824 245 0
3825 3824 -245 0
-3826 3825 250 0
-3826 -3825 -250 0
3826 -3825 250 0
3826 3825 -250 0
-3827 3826 253 0
-3827 -3826 -253 0
3827 -3826 253 0
3827 3826 -253 0
-3828 3827 254 0
-3828 -3827 -254 0
3828 -3827 254 0
3828 3827 -254 0
-3829 3828 255 0
-3829 -3828 -255 0
3829 -3828 255 0
3829 3828 -255 0
-3830 3829 257 0
-3830 -3829 -257 0
3830 -3829 257 0
3830 3829 -257 0
-3831 3830 260 0
-3831 -3830 -260 0
3831 -3830 260 0
3831 3830 -260 0
-3832 3831 261 0
-3832 -3831 -261 0
3832 -3831 261 0
3832 3831 -261 0
-3833 3832 264 0
-3833 -3832 -264 0
3833 -3832 264 0
3833 3832 -264 0
-3834 3833 266 0
-3834 -3833 -266 0
3834 -3833 266 0
3834 3833 -266 0
-3835 3834 268 0
-3835 -3834 -268 0
3835 -3834 268 0
3835 3834 -268 0
-3836 3835 270 0
-3836 -3835 -270 0
3836 -3835 270 0
3836 3835 -270 0
-3837 3836 271 0
-3837 -3836 -271 0
3837 -3836 271 0
3837 3836 -271 0
-3838 3837 272 0
-3838 -3837 -272 0
3838 -3837 272 0
3838 3837 -272 0
-3839 3838 274 0
-3839 -3838 -274 0
3839 -3838 274 0
3839 3838 -274 0
-3840 3839 275 0
-3840 -3839 -275 0
3840 -3839 275 0
3840 3839 -275 0
-3841 3840 276 0
-3841 -3840 -276 0
3841 -3840 276 0
3841 3840 -276 0
-3842 3841 283 0
-3842 -3841 -283 0
3842 -3841 283 0
3842 3841 -283 0
-3843 3842 286 0
-3843 -3842 -286 0
3843 -3842 286 0
3843 3842 -286 0
-3844 3843 287 0
-3844 -3843 -287 0
3844 -3843 287 0
3844 3843 -287 0
-3844 0
-3845 69 70 0
-3845 -69 -70 0
3845 -69 70 0
3845 69 -70 0
-3846 3845 71 0
-3846 -3845 -71 0
3846 -3845 71 0
3846 3845 -71 0
-3847 3846 74 0
-3847 -3846 -74 0
3847 -3846 74 0
3847 3846 -74 0
-3848 3847 78 0
-3848 -3847 -78 0
3848 -3847 78 0
3848 3847 -78 0
-3849 3848 81 0
-3849 -3848 -81 0
3849 -3848 81 0
3849 3848 -81 0
-3850 3849 86 0
-3850 -3849 -86 0
3850 -3849 86 0
3850 3849 -86 0
-3851 3850 89 0
-3851 -3850 -89 0
3851 -3850 89 0
3851 3850 -89 0
-3852 3851 90 0
-3852 -3851 -90 0
3852 -3851 90 0
3852 3851 -90 0
-3853 3852 91 0
-3853 -3852 -91 0
3853 -3852 91 0
3853 3852 -91 0
-3854 3853 95 0
-3854 -3853 -95 0
3854 -3853 95 0
3854 3853 -95 0
-3855 3854 96 0
-3855 -3854 -96 0
3855 -3854 96 0
3855 3854 -96 0
-3856 3855 97 0
-3856 -3855 -97 0
3856 -3855 97 0
3856 3855 -97 0
-3857 3856 98 0
-3857 -3856 -98 0
3857 -3856 98 0
3857 3856 -98 0
-3858 3857 100 0
-3858 -3857 -100 0
3858 -3857 100 0
3858 3857 -100 0
-3859 3858 102 0
-3859 -3858 -102 0
3859 -3858 102 0
3859 3858 -102 0
-3860 3859 103 0
-3860 -3859 -103 0
3860 -3859 103 0
3860 3859 -103 0
-3861 3860 104 0
-3861 -3860 -104 0
3861 -3860 104 0
3861 3860 -104 0
-3862 3861 105 0
-3862 -3861 -105 0
3862 -3861 105 0
3862 3861 -105 0
-3863 3862 107 0
-3863 -3862 -107 0
3863 -3862 107 0
3863 3862 -107 0
-3864 3863 108 0
-3864 -3863 -108 0
3864 -3863 108 0
3864 3863 -108 0
-3865 3864 110 0
-3865 -3864 -110 0
3865 -3864 110 0
3865 3864 -110 0
-3866 3865 111 0
-3866 -3865 -111 0
3866 -3865 111 0
3866 3865 -111 0
-3867 3866 112 0
-3867 -3866 -112 0
3867 -3866 112 0
3867 3866 -112 0
-3868 3867 114 0
-3868 -3867 -114 0
3868 -3867 114 0
3868 3867 -114 0
-3869 3868 117 0
-3869 -3868 -117 0
3869 -3868 117 0
3869 3868 -117 0
-3870 3869 118 0
-3870 -3869 -118 0
3870 -3869 118 0
3870 3869 -118 0
-3871 3870 120 0
-3871 -3870 -120 0
3871 -3870 120 0
3871 3870 -120 0
-3872 3871 121 0
-3872 -3871 -121 0
3872 -3871 121 0
3872 3871 -121 0
-3873 3872 123 0
-3873 -3872 -123 0
3873 -3872 123 0
3873 3872 -123 0
-3874 3873 125 0
-3874 -3873 -125 0
3874 -3873 125 0
3874 3873 -125 0
-3875 3874 126 0
-3875 -3874 -126 0
3875 -3874 126 0
3875 3874 -126 0
-3876 3875 128 0
-3876 -3875 -128 0
3876 -3875 128 0
3876 3875 -128 0
-3877 3876 130 0
-3877 -3876 -130 0
3877 -3876 130 0
3877 3876 -130 0
-3878 3877 131 0
-3878 -3877 -131 0
3878 -3877 131 0
3878 3877 -131 0
-3879 3878 132 0
-3879 -3878 -132 0
3879 -3878 132 0
3879 3878 -132 0
-3880 3879 133 0
-3880 -3879 -133 0
3880 -3879 133 0
3880 3879 -133 0
-3881 3880 137 0
-3881 -3880 -137 0
3881 -3880 137 0
3881 3880 -137 0
-3882 3881 141 0
-3882 -3881 -141 0
3882 -3881 141 0
3882 3881 -141 0
-3883 3882 143 0
-3883 -3882 -143 0
3883 -3882 143 0
3883 3882 -143 0
-3884 3883 193 0
-3884 -3883 -193 0
3884 -3883 193 0
3884 3883 -193 0
-3885 3884 213 0
-3885 -3884 -213 0
3885 -3884 213 0
3885 3884 -213 0
-3886 3885 214 0
-3886 -3885 -214 0
3886 -3885 214 0
3886 3885 -214 0
-3887 3886 216 0
-3887 -3886 -216 0
3887 -3886 216 0
3887 3886 -216 0
-3888 3887 217 0
-3888 -3887 -217 0
3888 -3887 217 0
3888 3887 -217 0
-3889 3888 218 0
-3889 -3888 -218 0
3889 -3888 218 0
3889 3888 -218 0
-3890 3889 219 0
-3890 -3889 -219 0
3890 -3889 219 0
3890 3889 -219 0
-3891 3890 220 0
-3891 -3890 -220 0
3891 -3890 220 0
3891 3890 -220 0
-3892 3891 221 0
-3892 -3891 -221 0
3892 -3891 221 0
3892 3891 -221 0
-3893 3892 222 0
-3893 -3892 -222 0
3893 -3892 222 0
3893 3892 -222 0
-3894 3893 227 0
-3894 -3893 -227 0
3894 -3893 227 0
3894 3893 -227 0
-3895 3894 228 0
-3895 -3894 -228 0
3895 -3894 228 0
3895 3894 -228 0
-3896 3895 235 0
-3896 -3895 -235 0
3896 -3895 235 0
3896 3895 -235 0
-3897 3896 239 0
-3897 -3896 -239 0
3897 -3896 239 0
3897 3896 -239 0
-3898 3897 242 0
-3898 -3897 -242 0
3898 -3897 242 0
3898 3897 -242 0
-3899 3898 244 0
-3899 -3898 -244 0
3899 -3898 244 0
3899 3898 -244 0
-3900 3899 245 0
-3900 -3899 -245 0
3900 -3899 245 0
3900 3899 -245 0
-3901 3900 246 0
-3901 -3900 -246 0
3901 -3900 246 0
3901 3900 -246 0
-3902 3901 247 0
-3902 -3901 -247 0
3902 -3901 247 0
3902 3901 -247 0
-3903 3902 249 0
-3903 -3902 -249 0
3903 -3902 249 0
3903 3902 -249 0
-3904 3903 251 0
-3904 -3903 -251 0
3904 -3903 251 0
3904 3903 -251 0
-3905 3904 256 0
-3905 -3904 -256 0
3905 -3904 256 0
3905 3904 -256 0
-3906 3905 268 0
-3906 -3905 -268 0
3906 -3905 268 0
3906 3905 -268 0
-3907 3906 269 0
-3907 -3906 -269 0
3907 -3906 269 0
3907 3906 -269 0
-3908 3907 271 0
-3908 -3907 -271 0
3908 -3907 271 0
3908 3907 -271 0
-3909 3908 272 0
-3909 -3908 -272 0
3909 -3908 272 0
3909 3908 -272 0
-3910 3909 274 0
-3910 -3909 -274 0
3910 -3909 274 0
3910 3909 -274 0
-3911 3910 277 0
-3911 -3910 -277 0
3911 -3910 277 0
3911 3910 -277 0
-3912 3911 278 0
-3912 -3911 -278 0
3912 -3911 278 0
3912 3911 -278 0
-3913 3912 279 0
-3913 -3912 -279 0
3913 -3912 279 0
3913 3912 -279 0
-3914 3913 282 0
-3914 -3913 -282 0
3914 -3913 282 0
3914 3913 -282 0
-3915 3914 283 0
-3915 -3914 -283 0
3915 -3914 283 0
3915 3914 -283 0
-3916 3915 284 0
-3916 -3915 -284 0
3916 -3915 284 0
3916 3915 -284 0
-3917 3916 286 0
-3917 -3916 -286 0
3917 -3916 286 0
3917 3916 -286 0
-3918 3917 287 0
-3918 -3917 -287 0
3918 -3917 287 0
3918 3917 -287 0
-3919 3918 288 0
-3919 -3918 -288 0
3919 -3918 288 0
3919 3918 -288 0
-3919 0
-3920 70 71 0
-3920 -70 -71 0
3920 -70 71 0
3920 70 -71 0
-3921 3920 72 0
-3921 -3920 -72 0
3921 -3920 72 0
3921 3920 -72 0
-3922 3921 73 0
-3922 -3921 -73 0
3922 -3921 73 0
3922 3921 -73 0
-3923 3922 75 0
-3923 -3922 -75 0
3923 -3922 75 0
3923 3922 -75 0
-3924 3923 79 0
-3924 -3923 -79 0
3924 -3923 79 0
3924 3923 -79 0
-3925 3924 81 0
-3925 -3924 -81 0
3925 -3924 81 0
3925 3924 -81 0
-3926 3925 82 0
-3926 -3925 -82 0
3926 -3925 82 0
3926 3925 -82 0
-3927 3926 83 0
-3927 -3926 -83 0
3927 -3926 83 0
3927 3926 -83 0
-3928 3927 89 0
-3928 -3927 -89 0
3928 -3927 89 0
3928 3927 -89 0
-3929 3928 90 0
-3929 -3928 -90 0
3929 -3928 90 0
3929 3928 -90 0
-3930 3929 92 0
-3930 -3929 -92 0
3930 -3929 92 0
3930 3929 -92 0
-3931 3930 93 0
-3931 -3930 -93 0
3931 -3930 93 0
3931 3930 -93 0
-3932 3931 95 0
-3932 -3931 -95 0
3932 -3931 95 0
3932 3931 -95 0
-3933 3932 96 0
-3933 -3932 -96 0
3933 -3932 96 0
3933 3932 -96 0
-3934 3933 97 0
-3934 -3933 -97 0
3934 -3933 97 0
3934 3933 -97 0
-3935 3934 98 0
-3935 -3934 -98 0
3935 -3934 98 0
3935 3934 -98 0
-3936 3935 99 0
-3936 -3935 -99 0
3936 -3935 99 0
3936 3935 -99 0
-3937 3936 101 0
-3937 -3936 -101 0
3937 -3936 101 0
3937 3936 -101 0
-3938 3937 103 0
-3938 -3937 -103 0
3938 -3937 103 0
3938 3937 -103 0
-3939 3938 104 0
-3939 -3938 -104 0
3939 -3938 104 0
3939 3938 -104 0
-3940 3939 105 0
-3940 -3939 -105 0
3940 -3939 105 0
3940 3939 -105 0
-3941 3940 106 0
-3941 -3940 -106 0
3941 -3940 106 0
3941 3940 -106 0
-3942 3941 108 0
-3942 -3941 -108 0
3942 -3941 108 0
3942 3941 -108 0
-3943 3942 112 0
-3943 -3942 -112 0
3943 -3942 112 0
3943 3942 -112 0
-3944 3943 115 0
-3944 -3943 -115 0
3944 -3943 115 0
3944 3943 -115 0
-3945 3944 118 0
-3945 -3944 -118 0
3945 -3944 118 0
3945 3944 -118 0
-3946 3945 119 0
-3946 -3945 -119 0
3946 -3945 119 0
3946 3945 -119 0
-3947 3946 121 0
-3947 -3946 -121 0
3947 -3946 121 0
3947 3946 -121 0
-3948 3947 122 0
-3948 -3947 -122 0
3948 -3947 122 0
3948 3947 -122 0
-3949 3948 124 0
-3949 -3948 -124 0
3949 -3948 124 0
3949 3948 -124 0
-3950 3949 126 0
-3950 -3949 -126 0
3950 -3949 126 0
3950 3949 -126 0
-3951 3950 127 0
-3951 -3950 -127 0
3951 -3950 127 0
3951 3950 -127 0
-3952 3951 129 0
-3952 -3951 -129 0
3952 -3951 129 0
3952 3951 -129 0
-3953 3952 131 0
-3953 -3952 -131 0
3953 -3952 131 0
3953 3952 -131 0
-3954 3953 132 0
-3954 -3953 -132 0
3954 -3953 132 0
3954 3953 -132 0
-3955 3954 134 0
-3955 -3954 -134 0
3955 -3954 134 0
3955 3954 -134 0
-3956 3955 138 0
-3956 -3955 -138 0
3956 -3955 138 0
3956 3955 -138 0
-3957 3956 142 0
-3957 -3956 -142 0
3957 -3956 142 0
3957 3956 -142 0
-3958 3957 144 0
-3958 -3957 -144 0
3958 -3957 144 0
3958 3957 -144 0
-3959 3958 194 0
-3959 -3958 -194 0
3959 -3958 194 0
3959 3958 -194 0
-3960 3959 213 0
-3960 -3959 -213 0
3960 -3959 213 0
3960 3959 -213 0
-3961 3960 214 0
-3961 -3960 -214 0
3961 -3960 214 0
3961 3960 -214 0
-3962 3961 217 0
-3962 -3961 -217 0
3962 -3961 217 0
3962 3961 -217 0
-3963 3962 218 0
-3963 -3962 -218 0
3963 -3962 218 0
3963 3962 -218 0
-3964 3963 219 0
-3964 -3963 -219 0
3964 -3963 219 0
3964 3963 -219 0
-3965 3964 220 0
-3965 -3964 -220 0
3965 -3964 220 0
3965 3964 -220 0
-3966 3965 221 0
-3966 -3965 -221 0
3966 -3965 221 0
3966 3965 -221 0
-3967 3966 222 0
-3967 -3966 -222 0
3967 -3966 222 0
3967 3966 -222 0
-3968 3967 223 0
-3968 -3967 -223 0
3968 -3967 223 0
3968 3967 -223 0
-3969 3968 228 0
-3969 -3968 -228 0
3969 -3968 228 0
3969 3968 -228 0
-3970 3969 235 0
-3970 -3969 -235 0
3970 -3969 235 0
3970 3969 -235 0
-3971 3970 237 0
-3971 -3970 -237 0
3971 -3970 237 0
3971 3970 -237 0
-3972 3971 238 0
-3972 -3971 -238 0
3972 -3971 238 0
3972 3971 -238 0
-3973 3972 239 0
-3973 -3972 -239 0
3973 -3972 239 0
3973 3972 -239 0
-3974 3973 242 0
-3974 -3973 -242 0
3974 -3973 242 0
3974 3973 -242 0
-3975 3974 244 0
-3975 -3974 -244 0
3975 -3974 244 0
3975 3974 -244 0
-3976 3975 248 0
-3976 -3975 -248 0
3976 -3975 248 0
3976 3975 -248 0
-3977 3976 250 0
-3977 -3976 -250 0
3977 -3976 250 0
3977 3976 -250 0
-3978 3977 252 0
-3978 -3977 -252 0
3978 -3977 252 0
3978 3977 -252 0
-3979 3978 253 0
-3979 -3978 -253 0
3979 -3978 253 0
3979 3978 -253 0
-3980 3979 254 0
-3980 -3979 -254 0
3980 -3979 254 0
3980 3979 -254 0
-3981 3980 255 0
-3981 -3980 -255 0
3981 -3980 255 0
3981 3980 -255 0
-3982 3981 256 0
-3982 -3981 -256 0
3982 -3981 256 0
3982 3981 -256 0
-3983 3982 258 0
-3983 -3982 -258 0
3983 -3982 258 0
3983 3982 -258 0
-3984 3983 265 0
-3984 -3983 -265 0
3984 -3983 265 0
3984 3983 -265 0
-3985 3984 267 0
-3985 -3984 -267 0
3985 -3984 267 0
3985 3984 -267 0
-3986 3985 270 0
-3986 -3985 -270 0
3986 -3985 270 0
3986 3985 -270 0
-3987 3986 271 0
-3987 -3986 -271 0
3987 -3986 271 0
3987 3986 -271 0
-3988 3987 272 0
-3988 -3987 -272 0
3988 -3987 272 0
3988 3987 -272 0
-3989 3988 277 0
-3989 -3988 -277 0
3989 -3988 277 0
3989 3988 -277 0
-3990 3989 278 0
-3990 -3989 -278 0
3990 -3989 278 0
3990 3989 -278 0
-3991 3990 279 0
-3991 -3990 -279 0
3991 -3990 279 0
3991 3990 -279 0
-3992 3991 280 0
-3992 -3991 -280 0
3992 -3991 280 0
3992 3991 -280 0
-3993 3992 283 0
-3993 -3992 -283 0
3993 -3992 283 0
3993 3992 -283 0
-3994 3993 285 0
-3994 -3993 -285 0
3994 -3993 285 0
3994 3993 -285 0
-3995 3994 286 0
-3995 -3994 -286 0
3995 -3994 286 0
3995 3994 -286 0
-3996 3995 287 0
-3996 -3995 -287 0
3996 -3995 287 0
3996 3995 -287 0
-3996 0
-3997 69 72 0
-3997 -69 -72 0
3997 -69 72 0
3997 69 -72 0
-3998 3997 78 0
-3998 -3997 -78 0
3998 -3997 78 0
3998 3997 -78 0
-3999 3998 80 0
-3999 -3998 -80 0
3999 -3998 80 0
3999 3998 -80 0
-4000 3999 82 0
-4000 -3999 -82 0
4000 -3999 82 0
4000 3999 -82 0
-4001 4000 83 0
-4001 -4000 -83 0
4001 -4000 83 0
4001 4000 -83 0
-4002 4001 84 0
-4002 -4001 -84 0
4002 -4001 84 0
4002 4001 -84 0
-4003 4002 85 0
-4003 -4002 -85 0
4003 -4002 85 0
4003 4002 -85 0
-4004 4003 90 0
-4004 -4003 -90 0
4004 -4003 90 0
4004 4003 -90 0
-4005 4004 94 0
-4005 -4004 -94 0
4005 -4004 94 0
4005 4004 -94 0
-4006 4005 95 0
-4006 -4005 -95 0
4006 -4005 95 0
4006 4005 -95 0
-4007 4006 96 0
-4007 -4006 -96 0
4007 -4006 96 0
4007 4006 -96 0
-4008 4007 97 0
-4008 -4007 -97 0
4008 -4007 97 0
4008 4007 -97 0
-4009 4008 101 0
-4009 -4008 -101 0
4009 -4008 101 0
4009 4008 -101 0
-4010 4009 103 0
-4010 -4009 -103 0
4010 -4009 103 0
4010 4009 -103 0
-4011 4010 105 0
-4011 -4010 -105 0
4011 -4010 105 0
4011 4010 -105 0
-4012 4011 107 0
-4012 -4011 -107 0
4012 -4011 107 0
4012 4011 -107 0
-4013 4012 108 0
-4013 -4012 -108 0
4013 -4012 108 0
4013 4012 -108 0
-4014 4013 109 0
-4014 -4013 -109 0
4014 -4013 109 0
4014 4013 -109 0
-4015 4014 111 0
-4015 -4014 -111 0
4015 -4014 111 0
4015 4014 -111 0
-4016 4015 118 0
-4016 -4015 -118 0
4016 -4015 118 0
4016 4015 -118 0
-4017 4016 119 0
-4017 -4016 -119 0
4017 -4016 119 0
4017 4016 -119 0
-4018 4017 124 0
-4018 -4017 -124 0
4018 -4017 124 0
4018 4017 -124 0
-4019 4018 126 0
-4019 -4018 -126 0
4019 -4018 126 0
4019 4018 -126 0
-4020 4019 129 0
-4020 -4019 -129 0
4020 -4019 129 0
4020 4019 -129 0
-4021 4020 131 0
-4021 -4020 -131 0
4021 -4020 131 0
4021 4020 -131 0
-4022 4021 133 0
-4022 -4021 -133 0
4022 -4021 133 0
4022 4021 -133 0
-4023 4022 134 0
-4023 -4022 -134 0
4023 -4022 134 0
4023 4022 -134 0
-4024 4023 135 0
-4024 -4023 -135 0
4024 -4023 135 0
4024 4023 -135 0
-4025 4024 136 0
-4025 -4024 -136 0
4025 -4024 136 0
4025 4024 -136 0
-4026 4025 138 0
-4026 -4025 -138 0
4026 -4025 138 0
4026 4025 -138 0
-4027 4026 139 0
-4027 -4026 -139 0
4027 -4026 139 0
4027 4026 -139 0
-4028 4027 140 0
-4028 -4027 -140 0
4028 -4027 140 0
4028 4027 -140 0
-4029 4028 142 0
-4029 -4028 -142 0
4029 -4028 142 0
4029 4028 -142 0
-4030 4029 143 0
-4030 -4029 -143 0
4030 -4029 143 0
4030 4029 -143 0
-4031 4030 144 0
-4031 -4030 -144 0
4031 -4030 144 0
4031 4030 -144 0
-4032 4031 195 0
-4032 -4031 -195 0
4032 -4031 195 0
4032 4031 -195 0
-4033 4032 214 0
-4033 -4032 -214 0
4033 -4032 214 0
4033 4032 -214 0
-4034 4033 215 0
-4034 -4033 -215 0
4034 -4033 215 0
4034 4033 -215 0
-4035 4034 217 0
-4035 -4034 -217 0
4035 -4034 217 0
4035 4034 -217 0
-4036 4035 218 0
-4036 -4035 -218 0
4036 -4035 218 0
4036 4035 -218 0
-4037 4036 219 0
-4037 -4036 -219 0
4037 -4036 219 0
4037 4036 -219 0
-4038 4037 220 0
-4038 -4037 -220 0
4038 -4037 220 0
4038 4037 -220 0
-4039 4038 221 0
-4039 -4038 -221 0
4039 -4038 221 0
4039 4038 -221 0
-4040 4039 222 0
-4040 -4039 -222 0
4040 -4039 222 0
4040 4039 -222 0
-4041 4040 223 0
-4041 -4040 -223 0
4041 -4040 223 0
4041 4040 -223 0
-4042 4041 224 0
-4042 -4041 -224 0
4042 -4041 224 0
4042 4041 -224 0
-4043 4042 236 0
-4043 -4042 -236 0
4043 -4042 236 0
4043 4042 -236 0
-4044 4043 238 0
-4044 -4043 -238 0
4044 -4043 238 0
4044 4043 -238 0
-4045 4044 239 0
-4045 -4044 -239 0
4045 -4044 239 0
4045 4044 -239 0
-4046 4045 240 0
-4046 -4045 -240 0
4046 -4045 240 0
4046 4045 -240 0
-4047 4046 243 0
-4047 -4046 -243 0
4047 -4046 243 0
4047 4046 -243 0
-4048 4047 245 0
-4048 -4047 -245 0
4048 -4047 245 0
4048 4047 -245 0
-4049 4048 247 0
-4049 -4048 -247 0
4049 -4048 247 0
4049 4048 -247 0
-4050 4049 249 0
-4050 -4049 -249 0
4050 -4049 249 0
4050 4049 -249 0
-4051 4050 251 0
-4051 -4050 -251 0
4051 -4050 251 0
4051 4050 -251 0
-4052 4051 253 0
-4052 -4051 -253 0
4052 -4051 253 0
4052 4051 -253 0
-4053 4052 254 0
-4053 -4052 -254 0
4053 -4052 254 0
4053 4052 -254 0
-4054 4053 255 0
-4054 -4053 -255 0
4054 -4053 255 0
4054 4053 -255 0
-4055 4054 256 0
-4055 -4054 -256 0
4055 -4054 256 0
4055 4054 -256 0
-4056 4055 257 0
-4056 -4055 -257 0
4056 -4055 257 0
4056 4055 -257 0
-4057 4056 265 0
-4057 -4056 -265 0
4057 -4056 265 0
4057 4056 -265 0
-4058 4057 266 0
-4058 -4057 -266 0
4058 -4057 266 0
4058 4057 -266 0
-4059 4058 268 0
-4059 -4058 -268 0
4059 -4058 268 0
4059 4058 -268 0
-4060 4059 272 0
-4060 -4059 -272 0
4060 -4059 272 0
4060 4059 -272 0
-4061 4060 273 0
-4061 -4060 -273 0
4061 -4060 273 0
4061 4060 -273 0
-4062 4061 278 0
-4062 -4061 -278 0
4062 -4061 278 0
4062 4061 -278 0
-4063 4062 279 0
-4063 -4062 -279 0
4063 -4062 279 0
4063 4062 -279 0
-4064 4063 280 0
-4064 -4063 -280 0
4064 -4063 280 0
4064 4063 -280 0
-4065 4064 281 0
-4065 -4064 -281 0
4065 -4064 281 0
4065 4064 -281 0
-4066 4065 284 0
-4066 -4065 -284 0
4066 -4065 284 0
4066 4065 -284 0
-4067 4066 286 0
-4067 -4066 -286 0
4067 -4066 286 0
4067 4066 -286 0
-4068 4067 287 0
-4068 -4067 -287 0
4068 -4067 287 0
4068 4067 -287 0
-4069 4068 288 0
-4069 -4068 -288 0
4069 -4068 288 0
4069 4068 -288 0
-4069 0
-4070 69 70 0
-4070 -69 -70 0
4070 -69 70 0
4070 69 -70 0
-4071 4070 71 0
-4071 -4070 -71 0
4071 -4070 71 0
4071 4070 -71 0
-4072 4071 73 0
-4072 -4071 -73 0
4072 -4071 73 0
4072 4071 -73 0
-4073 4072 74 0
-4073 -4072 -74 0
4073 -4072 74 0
4073 4072 -74 0
-4074 4073 76 0
-4074 -4073 -76 0
4074 -4073 76 0
4074 4073 -76 0
-4075 4074 78 0
-4075 -4074 -78 0
4075 -4074 78 0
4075 4074 -78 0
-4076 4075 79 0
-4076 -4075 -79 0
4076 -4075 79 0
4076 4075 -79 0
-4077 4076 81 0
-4077 -4076 -81 0
4077 -4076 81 0
4077 4076 -81 0
-4078 4077 83 0
-4078 -4077 -83 0
4078 -4077 83 0
4078 4077 -83 0
-4079 4078 84 0
-4079 -4078 -84 0
4079 -4078 84 0
4079 4078 -84 0
-4080 4079 85 0
-4080 -4079 -85 0
4080 -4079 85 0
4080 4079 -85 0
-4081 4080 86 0
-4081 -4080 -86 0
4081 -4080 86 0
4081 4080 -86 0
-4082 4081 93 0
-4082 -4081 -93 0
4082 -4081 93 0
4082 4081 -93 0
-4083 4082 96 0
-4083 -4082 -96 0
4083 -4082 96 0
4083 4082 -96 0
-4084 4083 97 0
-4084 -4083 -97 0
4084 -4083 97 0
4084 4083 -97 0
-4085 4084 99 0
-4085 -4084 -99 0
4085 -4084 99 0
4085 4084 -99 0
-4086 4085 100 0
-4086 -4085 -100 0
4086 -4085 100 0
4086 4085 -100 0
-4087 4086 101 0
-4087 -4086 -101 0
4087 -4086 101 0
4087 4086 -101 0
-4088 4087 103 0
-4088 -4087 -103 0
4088 -4087 103 0
4088 4087 -103 0
-4089 4088 109 0
-4089 -4088 -109 0
4089 -4088 109 0
4089 4088 -109 0
-4090 4089 110 0
-4090 -4089 -110 0
4090 -4089 110 0
4090 4089 -110 0
-4091 4090 111 0
-4091 -4090 -111 0
4091 -4090 111 0
4091 4090 -111 0
-4092 4091 112 0
-4092 -4091 -112 0
4092 -4091 112 0
4092 4091 -112 0
-4093 4092 113 0
-4093 -4092 -113 0
4093 -4092 113 0
4093 4092 -113 0
-4094 4093 116 0
-4094 -4093 -116 0
4094 -4093 116 0
4094 4093 -116 0
-4095 4094 118 0
-4095 -4094 -118 0
4095 -4094 118 0
4095 4094 -118 0
-4096 4095 119 0
-4096 -4095 -119 0
4096 -4095 119 0
4096 4095 -119 0
-4097 4096 122 0
-4097 -4096 -122 0
4097 -4096 122 0
4097 4096 -122 0
-4098 4097 123 0
-4098 -4097 -123 0
4098 -4097 123 0
4098 4097 -123 0
-4099 4098 124 0
-4099 -4098 -124 0
4099 -4098 124 0
4099 4098 -124 0
-4100 4099 126 0
-4100 -4099 -126 0
4100 -4099 126 0
4100 4099 -126 0
-4101 4100 127 0
-4101 -4100 -127 0
4101 -4100 127 0
4101 4100 -127 0
-4102 4101 128 0
-4102 -4101 -128 0
4102 -4101 128 0
4102 4101 -128 0
-4103 4102 129 0
-4103 -4102 -129 0
4103 -4102 129 0
4103 4102 -129 0
-4104 4103 131 0
-4104 -4103 -131 0
4104 -4103 131 0
4104 4103 -131 0
-4105 4104 133 0
-4105 -4104 -133 0
4105 -4104 133 0
4105 4104 -133 0
-4106 4105 135 0
-4106 -4105 -135 0
4106 -4105 135 0
4106 4105 -135 0
-4107 4106 137 0
-4107 -4106 -137 0
4107 -4106 137 0
4107 4106 -137 0
-4108 4107 138 0
-4108 -4107 -138 0
4108 -4107 138 0
4108 4107 -138 0
-4109 4108 139 0
-4109 -4108 -139 0
4109 -4108 139 0
4109 4108 -139 0
-4110 4109 141 0
-4110 -4109 -141 0
4110 -4109 141 0
4110 4109 -141 0
-4111 4110 142 0
-4111 -4110 -142 0
4111 -4110 142 0
4111 4110 -142 0
-4112 4111 143 0
-4112 -4111 -143 0
4112 -4111 143 0
4112 4111 -143 0
-4113 4112 196 0
-4113 -4112 -196 0
4113 -4112 196 0
4113 4112 -196 0
-4114 4113 215 0
-4114 -4113 -215 0
4114 -4113 215 0
4114 4113 -215 0
-4115 4114 216 0
-4115 -4114 -216 0
4115 -4114 216 0
4115 4114 -216 0
-4116 4115 217 0
-4116 -4115 -217 0
4116 -4115 217 0
4116 4115 -217 0
-4117 4116 218 0
-4117 -4116 -218 0
4117 -4116 218 0
4117 4116 -218 0
-4118 4117 219 0
-4118 -4117 -219 0
4118 -4117 219 0
4118 4117 -219 0
-4119 4118 220 0
-4119 -4118 -220 0
4119 -4118 220 0
4119 4118 -220 0
-4120 4119 221 0
-4120 -4119 -221 0
4120 -4119 221 0
4120 4119 -221 0
-4121 4120 222 0
-4121 -4120 -222 0
4121 -4120 222 0
4121 4120 -222 0
-4122 4121 224 0
-4122 -4121 -224 0
4122 -4121 224 0
4122 4121 -224 0
-4123 4122 225 0
-4123 -4122 -225 0
4123 -4122 225 0
4123 4122 -225 0
-4124 4123 235 0
-4124 -4123 -235 0
4124 -4123 235 0
4124 4123 -235 0
-4125 4124 237 0
-4125 -4124 -237 0
4125 -4124 237 0
4125 4124 -237 0
-4126 4125 239 0
-4126 -4125 -239 0
4126 -4125 239 0
4126 4125 -239 0
-4127 4126 240 0
-4127 -4126 -240 0
4127 -4126 240 0
4127 4126 -240 0
-4128 4127 244 0
-4128 -4127 -244 0
4128 -4127 244 0
4128 4127 -244 0
-4129 4128 246 0
-4129 -4128 -246 0
4129 -4128 246 0
4129 4128 -246 0
-4130 4129 248 0
-4130 -4129 -248 0
4130 -4129 248 0
4130 4129 -248 0
-4131 4130 250 0
-4131 -4130 -250 0
4131 -4130 250 0
4131 4130 -250 0
-4132 4131 252 0
-4132 -4131 -252 0
4132 -4131 252 0
4132 4131 -252 0
-4133 4132 254 0
-4133 -4132 -254 0
4133 -4132 254 0
4133 4132 -254 0
-4134 4133 255 0
-4134 -4133 -255 0
4134 -4133 255 0
4134 4133 -255 0
-4135 4134 256 0
-4135 -4134 -256 0
4135 -4134 256 0
4135 4134 -256 0
-4136 4135 257 0
-4136 -4135 -257 0
4136 -4135 257 0
4136 4135 -257 0
-4137 4136 258 0
-4137 -4136 -258 0
4137 -4136 258 0
4137 4136 -258 0
-4138 4137 266 0
-4138 -4137 -266 0
4138 -4137 266 0
4138 4137 -266 0
-4139 4138 267 0
-4139 -4138 -267 0
4139 -4138 267 0
4139 4138 -267 0
-4140 4139 269 0
-4140 -4139 -269 0
4140 -4139 269 0
4140 4139 -269 0
-4141 4140 273 0
-4141 -4140 -273 0
4141 -4140 273 0
4141 4140 -273 0
-4142 4141 274 0
-4142 -4141 -274 0
4142 -4141 274 0
4142 4141 -274 0
-4143 4142 279 0
-4143 -4142 -279 0
4143 -4142 279 0
4143 4142 -279 0
-4144 4143 280 0
-4144 -4143 -280 0
4144 -4143 280 0
4144 4143 -280 0
-4145 4144 281 0
-4145 -4144 -281 0
4145 -4144 281 0
4145 4144 -281 0
-4146 4145 282 0
-4146 -4145 -282 0
4146 -4145 282 0
4146 4145 -282 0
-4147 4146 283 0
-4147 -4146 -283 0
4147 -4146 283 0
4147 4146 -283 0
-4148 4147 285 0
-4148 -4147 -285 0
4148 -4147 285 0
4148 4147 -285 0
-4149 4148 287 0
-4149 -4148 -287 0
4149 -4148 287 0
4149 4148 -287 0
-4150 4149 288 0
-4150 -4149 -288 0
4150 -4149 288 0
4150 4149 -288 0
-4150 0
-4151 70 71 0
-4151 -70 -71 0
4151 -70 71 0
4151 70 -71 0
-4152 4151 72 0
-4152 -4151 -72 0
4152 -4151 72 0
4152 4151 -72 0
-4153 4152 73 0
-4153 -4152 -73 0
4153 -4152 73 0
4153 4152 -73 0
-4154 4153 74 0
-4154 -4153 -74 0
4154 -4153 74 0
4154 4153 -74 0
-4155 4154 75 0
-4155 -4154 -75 0
4155 -4154 75 0
4155 4154 -75 0
-4156 4155 77 0
-4156 -4155 -77 0
4156 -4155 77 0
4156 4155 -77 0
-4157 4156 80 0
-4157 -4156 -80 0
4157 -4156 80 0
4157 4156 -80 0
-4158 4157 81 0
-4158 -4157 -81 0
4158 -4157 81 0
4158 4157 -81 0
-4159 4158 82 0
-4159 -4158 -82 0
4159 -4158 82 0
4159 4158 -82 0
-4160 4159 83 0
-4160 -4159 -83 0
4160 -4159 83 0
4160 4159 -83 0
-4161 4160 84 0
-4161 -4160 -84 0
4161 -4160 84 0
4161 4160 -84 0
-4162 4161 85 0
-4162 -4161 -85 0
4162 -4161 85 0
4162 4161 -85 0
-4163 4162 86 0
-4163 -4162 -86 0
4163 -4162 86 0
4163 4162 -86 0
-4164 4163 89 0
-4164 -4163 -89 0
4164 -4163 89 0
4164 4163 -89 0
-4165 4164 93 0
-4165 -4164 -93 0
4165 -4164 93 0
4165 4164 -93 0
-4166 4165 94 0
-4166 -4165 -94 0
4166 -4165 94 0
4166 4165 -94 0
-4167 4166 95 0
-4167 -4166 -95 0
4167 -4166 95 0
4167 4166 -95 0
-4168 4167 98 0
-4168 -4167 -98 0
4168 -4167 98 0
4168 4167 -98 0
-4169 4168 100 0
-4169 -4168 -100 0
4169 -4168 100 0
4169 4168 -100 0
-4170 4169 101 0
-4170 -4169 -101 0
4170 -4169 101 0
4170 4169 -101 0
-4171 4170 102 0
-4171 -4170 -102 0
4171 -4170 102 0
4171 4170 -102 0
-4172 4171 104 0
-4172 -4171 -104 0
4172 -4171 104 0
4172 4171 -104 0
-4173 4172 109 0
-4173 -4172 -109 0
4173 -4172 109 0
4173 4172 -109 0
-4174 4173 110 0
-4174 -4173 -110 0
4174 -4173 110 0
4174 4173 -110 0
-4175 4174 112 0
-4175 -4174 -112 0
4175 -4174 112 0
4175 4174 -112 0
-4176 4175 114 0
-4176 -4175 -114 0
4176 -4175 114 0
4176 4175 -114 0
-4177 4176 117 0
-4177 -4176 -117 0
4177 -4176 117 0
4177 4176 -117 0
-4178 4177 119 0
-4178 -4177 -119 0
4178 -4177 119 0
4178 4177 -119 0
-4179 4178 120 0
-4179 -4178 -120 0
4179 -4178 120 0
4179 4178 -120 0
-4180 4179 121 0
-4180 -4179 -121 0
4180 -4179 121 0
4180 4179 -121 0
-4181 4180 123 0
-4181 -4180 -123 0
4181 -4180 123 0
4181 4180 -123 0
-4182 4181 124 0
-4182 -4181 -124 0
4182 -4181 124 0
4182 4181 -124 0
-4183 4182 125 0
-4183 -4182 -125 0
4183 -4182 125 0
4183 4182 -125 0
-4184 4183 128 0
-4184 -4183 -128 0
4184 -4183 128 0
4184 4183 -128 0
-4185 4184 129 0
-4185 -4184 -129 0
4185 -4184 129 0
4185 4184 -129 0
-4186 4185 130 0
-4186 -4185 -130 0
4186 -4185 130 0
4186 4185 -130 0
-4187 4186 132 0
-4187 -4186 -132 0
4187 -4186 132 0
4187 4186 -132 0
-4188 4187 133 0
-4188 -4187 -133 0
4188 -4187 133 0
4188 4187 -133 0
-4189 4188 134 0
-4189 -4188 -134 0
4189 -4188 134 0
4189 4188 -134 0
-4190 4189 136 0
-4190 -4189 -136 0
4190 -4189 136 0
4190 4189 -136 0
-4191 4190 138 0
-4191 -4190 -138 0
4191 -4190 138 0
4191 4190 -138 0
-4192 4191 140 0
-4192 -4191 -140 0
4192 -4191 140 0
4192 4191 -140 0
-4193 4192 142 0
-4193 -4192 -142 0
4193 -4192 142 0
4193 4192 -142 0
-4194 4193 143 0
-4194 -4193 -143 0
4194 -4193 143 0
4194 4193 -143 0
-4195 4194 144 0
-4195 -4194 -144 0
4195 -4194 144 0
4195 4194 -144 0
-4196 4195 197 0
-4196 -4195 -197 0
4196 -4195 197 0
4196 4195 -197 0
-4197 4196 213 0
-4197 -4196 -213 0
4197 -4196 213 0
4197 4196 -213 0
-4198 4197 215 0
-4198 -4197 -215 0
4198 -4197 215 0
4198 4197 -215 0
-4199 4198 216 0
-4199 -4198 -216 0
4199 -4198 216 0
4199 4198 -216 0
-4200 4199 217 0
-4200 -4199 -217 0
4200 -4199 217 0
4200 4199 -217 0
-4201 4200 218 0
-4201 -4200 -218 0
4201 -4200 218 0
4201 4200 -218 0
-4202 4201 219 0
-4202 -4201 -219 0
4202 -4201 219 0
4202 4201 -219 0
-4203 4202 220 0
-4203 -4202 -220 0
4203 -4202 220 0
4203 4202 -220 0
-4204 4203 221 0
-4204 -4203 -221 0
4204 -4203 221 0
4204 4203 -221 0
-4205 4204 222 0
-4205 -4204 -222 0
4205 -4204 222 0
4205 4204 -222 0
-4206 4205 225 0
-4206 -4205 -225 0
4206 -4205 225 0
4206 4205 -225 0
-4207 4206 226 0
-4207 -4206 -226 0
4207 -4206 226 0
4207 4206 -226 0
-4208 4207 237 0
-4208 -4207 -237 0
4208 -4207 237 0
4208 4207 -237 0
-4209 4208 239 0
-4209 -4208 -239 0
4209 -4208 239 0
4209 4208 -239 0
-4210 4209 242 0
-4210 -4209 -242 0
4210 -4209 242 0
4210 4209 -242 0
-4211 4210 243 0
-4211 -4210 -243 0
4211 -4210 243 0
4211 4210 -243 0
-4212 4211 244 0
-4212 -4211 -244 0
4212 -4211 244 0
4212 4211 -244 0
-4213 4212 246 0
-4213 -4212 -246 0
4213 -4212 246 0
4213 4212 -246 0
-4214 4213 247 0
-4214 -4213 -247 0
4214 -4213 247 0
4214 4213 -247 0
-4215 4214 249 0
-4215 -4214 -249 0
4215 -4214 249 0
4215 4214 -249 0
-4216 4215 251 0
-4216 -4215 -251 0
4216 -4215 251 0
4216 4215 -251 0
-4217 4216 254 0
-4217 -4216 -254 0
4217 -4216 254 0
4217 4216 -254 0
-4218 4217 265 0
-4218 -4217 -265 0
4218 -4217 265 0
4218 4217 -265 0
-4219 4218 268 0
-4219 -4218 -268 0
4219 -4218 268 0
4219 4218 -268 0
-4220 4219 269 0
-4220 -4219 -269 0
4220 -4219 269 0
4220 4219 -269 0
-4221 4220 270 0
-4221 -4220 -270 0
4221 -4220 270 0
4221 4220 -270 0
-4222 4221 271 0
-4222 -4221 -271 0
4222 -4221 271 0
4222 4221 -271 0
-4223 4222 273 0
-4223 -4222 -273 0
4223 -4222 273 0
4223 4222 -273 0
-4224 4223 274 0
-4224 -4223 -274 0
4224 -4223 274 0
4224 4223 -274 0
-4225 4224 277 0
-4225 -4224 -277 0
4225 -4224 277 0
4225 4224 -277 0
-4226 4225 280 0
-4226 -4225 -280 0
4226 -4225 280 0
4226 4225 -280 0
-4227 4226 281 0
-4227 -4226 -281 0
4227 -4226 281 0
4227 4226 -281 0
-4228 4227 282 0
-4228 -4227 -282 0
4228 -4227 282 0
4228 4227 -282 0
-4229 4228 283 0
-4229 -4228 -283 0
4229 -4228 283 0
4229 4228 -283 0
-4229 0
-4230 69 72 0
-4230 -69 -72 0
4230 -69 72 0
4230 69 -72 0
-4231 4230 75 0
-4231 -4230 -75 0
4231 -4230 75 0
4231 4230 -75 0
-4232 4231 82 0
-4232 -4231 -82 0
4232 -4231 82 0
4232 4231 -82 0
-4233 4232 84 0
-4233 -4232 -84 0
4233 -4232 84 0
4233 4232 -84 0
-4234 4233 85 0
-4234 -4233 -85 0
4234 -4233 85 0
4234 4233 -85 0
-4235 4234 86 0
-4235 -4234 -86 0
4235 -4234 86 0
4235 4234 -86 0
-4236 4235 89 0
-4236 -4235 -89 0
4236 -4235 89 0
4236 4235 -89 0
-4237 4236 90 0
-4237 -4236 -90 0
4237 -4236 90 0
4237 4236 -90 0
-4238 4237 94 0
-4238 -4237 -94 0
4238 -4237 94 0
4238 4237 -94 0
-4239 4238 95 0
-4239 -4238 -95 0
4239 -4238 95 0
4239 4238 -95 0
-4240 4239 96 0
-4240 -4239 -96 0
4240 -4239 96 0
4240 4239 -96 0
-4241 4240 98 0
-4241 -4240 -98 0
4241 -4240 98 0
4241 4240 -98 0
-4242 4241 100 0
-4242 -4241 -100 0
4242 -4241 100 0
4242 4241 -100 0
-4243 4242 104 0
-4243 -4242 -104 0
4243 -4242 104 0
4243 4242 -104 0
-4244 4243 105 0
-4244 -4243 -105 0
4244 -4243 105 0
4244 4243 -105 0
-4245 4244 106 0
-4245 -4244 -106 0
4245 -4244 106 0
4245 4244 -106 0
-4246 4245 108 0
-4246 -4245 -108 0
4246 -4245 108 0
4246 4245 -108 0
-4247 4246 109 0
-4247 -4246 -109 0
4247 -4246 109 0
4247 4246 -109 0
-4248 4247 110 0
-4248 -4247 -110 0
4248 -4247 110 0
4248 4247 -110 0
-4249 4248 111 0
-4249 -4248 -111 0
4249 -4248 111 0
4249 4248 -111 0
-4250 4249 113 0
-4250 -4249 -113 0
4250 -4249 113 0
4250 4249 -113 0
-4251 4250 115 0
-4251 -4250 -115 0
4251 -4250 115 0
4251 4250 -115 0
-4252 4251 116 0
-4252 -4251 -116 0
4252 -4251 116 0
4252 4251 -116 0
-4253 4252 121 0
-4253 -4252 -121 0
4253 -4252 121 0
4253 4252 -121 0
-4254 4253 123 0
-4254 -4253 -123 0
4254 -4253 123 0
4254 4253 -123 0
-4255 4254 128 0
-4255 -4254 -128 0
4255 -4254 128 0
4255 4254 -128 0
-4256 4255 132 0
-4256 -4255 -132 0
4256 -4255 132 0
4256 4255 -132 0
-4257 4256 133 0
-4257 -4256 -133 0
4257 -4256 133 0
4257 4256 -133 0
-4258 4257 135 0
-4258 -4257 -135 0
4258 -4257 135 0
4258 4257 -135 0
-4259 4258 136 0
-4259 -4258 -136 0
4259 -4258 136 0
4259 4258 -136 0
-4260 4259 137 0
-4260 -4259 -137 0
4260 -4259 137 0
4260 4259 -137 0
-4261 4260 138 0
-4261 -4260 -138 0
4261 -4260 138 0
4261 4260 -138 0
-4262 4261 139 0
-4262 -4261 -139 0
4262 -4261 139 0
4262 4261 -139 0
-4263 4262 140 0
-4263 -4262 -140 0
4263 -4262 140 0
4263 4262 -140 0
-4264 4263 141 0
-4264 -4263 -141 0
4264 -4263 141 0
4264 4263 -141 0
-4265 4264 142 0
-4265 -4264 -142 0
4265 -4264 142 0
4265 4264 -142 0
-4266 4265 143 0
-4266 -4265 -143 0
4266 -4265 143 0
4266 4265 -143 0
-4267 4266 198 0
-4267 -4266 -198 0
4267 -4266 198 0
4267 4266 -198 0
-4268 4267 213 0
-4268 -4267 -213 0
4268 -4267 213 0
4268 4267 -213 0
-4269 4268 214 0
-4269 -4268 -214 0
4269 -4268 214 0
4269 4268 -214 0
-4270 4269 215 0
-4270 -4269 -215 0
4270 -4269 215 0
4270 4269 -215 0
-4271 4270 216 0
-4271 -4270 -216 0
4271 -4270 216 0
4271 4270 -216 0
-4272 4271 217 0
-4272 -4271 -217 0
4272 -4271 217 0
4272 4271 -217 0
-4273 4272 218 0
-4273 -4272 -218 0
4273 -4272 218 0
4273 4272 -218 0
-4274 4273 219 0
-4274 -4273 -219 0
4274 -4273 219 0
4274 4273 -219 0
-4275 4274 220 0
-4275 -4274 -220 0
4275 -4274 220 0
4275 4274 -220 0
-4276 4275 221 0
-4276 -4275 -221 0
4276 -4275 221 0
4276 4275 -221 0
-4277 4276 222 0
-4277 -4276 -222 0
4277 -4276 222 0
4277 4276 -222 0
-4278 4277 226 0
-4278 -4277 -226 0
4278 -4277 226 0
4278 4277 -226 0
-4279 4278 227 0
-4279 -4278 -227 0
4279 -4278 227 0
4279 4278 -227 0
-4280 4279 235 0
-4280 -4279 -235 0
4280 -4279 235 0
4280 4279 -235 0
-4281 4280 236 0
-4281 -4280 -236 0
4281 -4280 236 0
4281 4280 -236 0
-4282 4281 237 0
-4282 -4281 -237 0
4282 -4281 237 0
4282 4281 -237 0
-4283 4282 239 0
-4283 -4282 -239 0
4283 -4282 239 0
4283 4282 -239 0
-4284 4283 242 0
-4284 -4283 -242 0
4284 -4283 242 0
4284 4283 -242 0
-4285 4284 246 0
-4285 -4284 -246 0
4285 -4284 246 0
4285 4284 -246 0
-4286 4285 248 0
-4286 -4285 -248 0
4286 -4285 248 0
4286 4285 -248 0
-4287 4286 250 0
-4287 -4286 -250 0
4287 -4286 250 0
4287 4286 -250 0
-4288 4287 252 0
-4288 -4287 -252 0
4288 -4287 252 0
4288 4287 -252 0
-4289 4288 253 0
-4289 -4288 -253 0
4289 -4288 253 0
4289 4288 -253 0
-4290 4289 254 0
-4290 -4289 -254 0
4290 -4289 254 0
4290 4289 -254 0
-4291 4290 256 0
-4291 -4290 -256 0
4291 -4290 256 0
4291 4290 -256 0
-4292 4291 257 0
-4292 -4291 -257 0
4292 -4291 257 0
4292 4291 -257 0
-4293 4292 258 0
-4293 -4292 -258 0
4293 -4292 258 0
4293 4292 -258 0
-4294 4293 266 0
-4294 -4293 -266 0
4294 -4293 266 0
4294 4293 -266 0
-4295 4294 267 0
-4295 -4294 -267 0
4295 -4294 267 0
4295 4294 -267 0
-4296 4295 270 0
-4296 -4295 -270 0
4296 -4295 270 0
4296 4295 -270 0
-4297 4296 271 0
-4297 -4296 -271 0
4297 -4296 271 0
4297 4296 -271 0
-4298 4297 272 0
-4298 -4297 -272 0
4298 -4297 272 0
4298 4297 -272 0
-4299 4298 273 0
-4299 -4298 -273 0
4299 -4298 273 0
4299 4298 -273 0
-4300 4299 274 0
-4300 -4299 -274 0
4300 -4299 274 0
4300 4299 -274 0
-4301 4300 277 0
-4301 -4300 -277 0
4301 -4300 277 0
4301 4300 -277 0
-4302 4301 278 0
-4302 -4301 -278 0
4302 -4301 278 0
4302 4301 -278 0
-4303 4302 281 0
-4303 -4302 -281 0
4303 -4302 281 0
4303 4302 -281 0
-4304 4303 282 0
-4304 -4303 -282 0
4304 -4303 282 0
4304 4303 -282 0
-4305 4304 286 0
-4305 -4304 -286 0
4305 -4304 286 0
4305 4304 -286 0
-4306 4305 288 0
-4306 -4305 -288 0
4306 -4305 288 0
4306 4305 -288 0
-4306 0
-4307 73 74 0
-4307 -73 -74 0
4307 -73 74 0
4307 73 -74 0
-4308 4307 78 0
-4308 -4307 -78 0
4308 -4307 78 0
4308 4307 -78 0
-4309 4308 79 0
-4309 -4308 -79 0
4309 -4308 79 0
4309 4308 -79 0
-4310 4309 82 0
-4310 -4309 -82 0
4310 -4309 82 0
4310 4309 -82 0
-4311 4310 84 0
-4311 -4310 -84 0
4311 -4310 84 0
4311 4310 -84 0
-4312 4311 87 0
-4312 -4311 -87 0
4312 -4311 87 0
4312 4311 -87 0
-4313 4312 89 0
-4313 -4312 -89 0
4313 -4312 89 0
4313 4312 -89 0
-4314 4313 91 0
-4314 -4313 -91 0
4314 -4313 91 0
4314 4313 -91 0
-4315 4314 92 0
-4315 -4314 -92 0
4315 -4314 92 0
4315 4314 -92 0
-4316 4315 95 0
-4316 -4315 -95 0
4316 -4315 95 0
4316 4315 -95 0
-4317 4316 96 0
-4317 -4316 -96 0
4317 -4316 96 0
4317 4316 -96 0
-4318 4317 100 0
-4318 -4317 -100 0
4318 -4317 100 0
4318 4317 -100 0
-4319 4318 101 0
-4319 -4318 -101 0
4319 -4318 101 0
4319 4318 -101 0
-4320 4319 102 0
-4320 -4319 -102 0
4320 -4319 102 0
4320 4319 -102 0
-4321 4320 103 0
-4321 -4320 -103 0
4321 -4320 103 0
4321 4320 -103 0
-4322 4321 107 0
-4322 -4321 -107 0
4322 -4321 107 0
4322 4321 -107 0
-4323 4322 109 0
-4323 -4322 -109 0
4323 -4322 109 0
4323 4322 -109 0
-4324 4323 110 0
-4324 -4323 -110 0
4324 -4323 110 0
4324 4323 -110 0
-4325 4324 111 0
-4325 -4324 -111 0
4325 -4324 111 0
4325 4324 -111 0
-4326 4325 114 0
-4326 -4325 -114 0
4326 -4325 114 0
4326 4325 -114 0
-4327 4326 118 0
-4327 -4326 -118 0
4327 -4326 118 0
4327 4326 -118 0
-4328 4327 120 0
-4328 -4327 -120 0
4328 -4327 120 0
4328 4327 -120 0
-4329 4328 121 0
-4329 -4328 -121 0
4329 -4328 121 0
4329 4328 -121 0
-4330 4329 125 0
-4330 -4329 -125 0
4330 -4329 125 0
4330 4329 -125 0
-4331 4330 127 0
-4331 -4330 -127 0
4331 -4330 127 0
4331 4330 -127 0
-4332 4331 128 0
-4332 -4331 -128 0
4332 -4331 128 0
4332 4331 -128 0
-4333 4332 129 0
-4333 -4332 -129 0
4333 -4332 129 0
4333 4332 -129 0
-4334 4333 132 0
-4334 -4333 -132 0
4334 -4333 132 0
4334 4333 -132 0
-4335 4334 133 0
-4335 -4334 -133 0
4335 -4334 133 0
4335 4334 -133 0
-4336 4335 136 0
-4336 -4335 -136 0
4336 -4335 136 0
4336 4335 -136 0
-4337 4336 137 0
-4337 -4336 -137 0
4337 -4336 137 0
4337 4336 -137 0
-4338 4337 138 0
-4338 -4337 -138 0
4338 -4337 138 0
4338 4337 -138 0
-4339 4338 141 0
-4339 -4338 -141 0
4339 -4338 141 0
4339 4338 -141 0
-4340 4339 199 0
-4340 -4339 -199 0
4340 -4339 199 0
4340 4339 -199 0
-4341 4340 213 0
-4341 -4340 -213 0
4341 -4340 213 0
4341 4340 -213 0
-4342 4341 215 0
-4342 -4341 -215 0
4342 -4341 215 0
4342 4341 -215 0
-4343 4342 226 0
-4343 -4342 -226 0
4343 -4342 226 0
4343 4342 -226 0
-4344 4343 227 0
-4344 -4343 -227 0
4344 -4343 227 0
4344 4343 -227 0
-4345 4344 229 0
-4345 -4344 -229 0
4345 -4344 229 0
4345 4344 -229 0
-4346 4345 234 0
-4346 -4345 -234 0
4346 -4345 234 0
4346 4345 -234 0
-4347 4346 245 0
-4347 -4346 -245 0
4347 -4346 245 0
4347 4346 -245 0
-4348 4347 246 0
-4348 -4347 -246 0
4348 -4347 246 0
4348 4347 -246 0
-4349 4348 255 0
-4349 -4348 -255 0
4349 -4348 255 0
4349 4348 -255 0
-4350 4349 263 0
-4350 -4349 -263 0
4350 -4349 263 0
4350 4349 -263 0
-4351 4350 274 0
-4351 -4350 -274 0
4351 -4350 274 0
4351 4350 -274 0
-4351 0
-4352 73 74 0
-4352 -73 -74 0
4352 -73 74 0
4352 73 -74 0
-4353 4352 75 0
-4353 -4352 -75 0
4353 -4352 75 0
4353 4352 -75 0
-4354 4353 79 0
-4354 -4353 -79 0
4354 -4353 79 0
4354 4353 -79 0
-4355 4354 80 0
-4355 -4354 -80 0
4355 -4354 80 0
4355 4354 -80 0
-4356 4355 83 0
-4356 -4355 -83 0
4356 -4355 83 0
4356 4355 -83 0
-4357 4356 88 0
-4357 -4356 -88 0
4357 -4356 88 0
4357 4356 -88 0
-4358 4357 90 0
-4358 -4357 -90 0
4358 -4357 90 0
4358 4357 -90 0
-4359 4358 91 0
-4359 -4358 -91 0
4359 -4358 91 0
4359 4358 -91 0
-4360 4359 92 0
-4360 -4359 -92 0
4360 -4359 92 0
4360 4359 -92 0
-4361 4360 93 0
-4361 -4360 -93 0
4361 -4360 93 0
4361 4360 -93 0
-4362 4361 96 0
-4362 -4361 -96 0
4362 -4361 96 0
4362 4361 -96 0
-4363 4362 97 0
-4363 -4362 -97 0
4363 -4362 97 0
4363 4362 -97 0
-4364 4363 101 0
-4364 -4363 -101 0
4364 -4363 101 0
4364 4363 -101 0
-4365 4364 102 0
-4365 -4364 -102 0
4365 -4364 102 0
4365 4364 -102 0
-4366 4365 104 0
-4366 -4365 -104 0
4366 -4365 104 0
4366 4365 -104 0
-4367 4366 108 0
-4367 -4366 -108 0
4367 -4366 108 0
4367 4366 -108 0
-4368 4367 109 0
-4368 -4367 -109 0
4368 -4367 109 0
4368 4367 -109 0
-4369 4368 110 0
-4369 -4368 -110 0
4369 -4368 110 0
4369 4368 -110 0
-4370 4369 111 0
-4370 -4369 -111 0
4370 -4369 111 0
4370 4369 -111 0
-4371 4370 112 0
-4371 -4370 -112 0
4371 -4370 112 0
4371 4370 -112 0
-4372 4371 115 0
-4372 -4371 -115 0
4372 -4371 115 0
4372 4371 -115 0
-4373 4372 119 0
-4373 -4372 -119 0
4373 -4372 119 0
4373 4372 -119 0
-4374 4373 122 0
-4374 -4373 -122 0
4374 -4373 122 0
4374 4373 -122 0
-4375 4374 126 0
-4375 -4374 -126 0
4375 -4374 126 0
4375 4374 -126 0
-4376 4375 127 0
-4376 -4375 -127 0
4376 -4375 127 0
4376 4375 -127 0
-4377 4376 128 0
-4377 -4376 -128 0
4377 -4376 128 0
4377 4376 -128 0
-4378 4377 129 0
-4378 -4377 -129 0
4378 -4377 129 0
4378 4377 -129 0
-4379 4378 130 0
-4379 -4378 -130 0
4379 -4378 130 0
4379 4378 -130 0
-4380 4379 133 0
-4380 -4379 -133 0
4380 -4379 133 0
4380 4379 -133 0
-4381 4380 134 0
-4381 -4380 -134 0
4381 -4380 134 0
4381 4380 -134 0
-4382 4381 137 0
-4382 -4381 -137 0
4382 -4381 137 0
4382 4381 -137 0
-4383 4382 138 0
-4383 -4382 -138 0
4383 -4382 138 0
4383 4382 -138 0
-4384 4383 142 0
-4384 -4383 -142 0
4384 -4383 142 0
4384 4383 -142 0
-4385 4384 200 0
-4385 -4384 -200 0
4385 -4384 200 0
4385 4384 -200 0
-4386 4385 214 0
-4386 -4385 -214 0
4386 -4385 214 0
4386 4385 -214 0
-4387 4386 216 0
-4387 -4386 -216 0
4387 -4386 216 0
4387 4386 -216 0
-4388 4387 227 0
-4388 -4387 -227 0
4388 -4387 227 0
4388 4387 -227 0
-4389 4388 228 0
-4389 -4388 -228 0
4389 -4388 228 0
4389 4388 -228 0
-4390 4389 229 0
-4390 -4389 -229 0
4390 -4389 229 0
4390 4389 -229 0
-4391 4390 230 0
-4391 -4390 -230 0
4391 -4390 230 0
4391 4390 -230 0
-4392 4391 241 0
-4392 -4391 -241 0
4392 -4391 241 0
4392 4391 -241 0
-4393 4392 246 0
-4393 -4392 -246 0
4393 -4392 246 0
4393 4392 -246 0
-4394 4393 256 0
-4394 -4393 -256 0
4394 -4393 256 0
4394 4393 -256 0
-4395 4394 264 0
-4395 -4394 -264 0
4395 -4394 264 0
4395 4394 -264 0
-4396 4395 275 0
-4396 -4395 -275 0
4396 -4395 275 0
4396 4395 -275 0
-4396 0
-4397 74 75 0
-4397 -74 -75 0
4397 -74 75 0
4397 74 -75 0
-4398 4397 76 0
-4398 -4397 -76 0
4398 -4397 76 0
4398 4397 -76 0
-4399 4398 79 0
-4399 -4398 -79 0
4399 -4398 79 0
4399 4398 -79 0
-4400 4399 80 0
-4400 -4399 -80 0
4400 -4399 80 0
4400 4399 -80 0
-4401 4400 83 0
-4401 -4400 -83 0
4401 -4400 83 0
4401 4400 -83 0
-4402 4401 84 0
-4402 -4401 -84 0
4402 -4401 84 0
4402 4401 -84 0
-4403 4402 87 0
-4403 -4402 -87 0
4403 -4402 87 0
4403 4402 -87 0
-4404 4403 92 0
-4404 -4403 -92 0
4404 -4403 92 0
4404 4403 -92 0
-4405 4404 94 0
-4405 -4404 -94 0
4405 -4404 94 0
4405 4404 -94 0
-4406 4405 95 0
-4406 -4405 -95 0
4406 -4405 95 0
4406 4405 -95 0
-4407 4406 97 0
-4407 -4406 -97 0
4407 -4406 97 0
4407 4406 -97 0
-4408 4407 98 0
-4408 -4407 -98 0
4408 -4407 98 0
4408 4407 -98 0
-4409 4408 102 0
-4409 -4408 -102 0
4409 -4408 102 0
4409 4408 -102 0
-4410 4409 103 0
-4410 -4409 -103 0
4410 -4409 103 0
4410 4409 -103 0
-4411 4410 105 0
-4411 -4410 -105 0
4411 -4410 105 0
4411 4410 -105 0
-4412 4411 109 0
-4412 -4411 -109 0
4412 -4411 109 0
4412 4411 -109 0
-4413 4412 110 0
-4413 -4412 -110 0
4413 -4412 110 0
4413 4412 -110 0
-4414 4413 112 0
-4414 -4413 -112 0
4414 -4413 112 0
4414 4413 -112 0
-4415 4414 116 0
-4415 -4414 -116 0
4415 -4414 116 0
4415 4414 -116 0
-4416 4415 120 0
-4416 -4415 -120 0
4416 -4415 120 0
4416 4415 -120 0
-4417 4416 121 0
-4417 -4416 -121 0
4417 -4416 121 0
4417 4416 -121 0
-4418 4417 123 0
-4418 -4417 -123 0
4418 -4417 123 0
4418 4417 -123 0
-4419 4418 128 0
-4419 -4418 -128 0
4419 -4418 128 0
4419 4418 -128 0
-4420 4419 129 0
-4420 -4419 -129 0
4420 -4419 129 0
4420 4419 -129 0
-4421 4420 130 0
-4421 -4420 -130 0
4421 -4420 130 0
4421 4420 -130 0
-4422 4421 131 0
-4422 -4421 -131 0
4422 -4421 131 0
4422 4421 -131 0
-4423 4422 133 0
-4423 -4422 -133 0
4423 -4422 133 0
4423 4422 -133 0
-4424 4423 134 0
-4424 -4423 -134 0
4424 -4423 134 0
4424 4423 -134 0
-4425 4424 135 0
-4425 -4424 -135 0
4425 -4424 135 0
4425 4424 -135 0
-4426 4425 138 0
-4426 -4425 -138 0
4426 -4425 138 0
4426 4425 -138 0
-4427 4426 143 0
-4427 -4426 -143 0
4427 -4426 143 0
4427 4426 -143 0
-4428 4427 201 0
-4428 -4427 -201 0
4428 -4427 201 0
4428 4427 -201 0
-4429 4428 213 0
-4429 -4428 -213 0
4429 -4428 213 0
4429 4428 -213 0
-4430 4429 223 0
-4430 -4429 -223 0
4430 -4429 223 0
4430 4429 -223 0
-4431 4430 228 0
-4431 -4430 -228 0
4431 -4430 228 0
4431 4430 -228 0
-4432 4431 230 0
-4432 -4431 -230 0
4432 -4431 230 0
4432 4431 -230 0
-4433 4432 231 0
-4433 -4432 -231 0
4433 -4432 231 0
4433 4432 -231 0
-4434 4433 235 0
-4434 -4433 -235 0
4434 -4433 235 0
4434 4433 -235 0
-4435 4434 236 0
-4435 -4434 -236 0
4435 -4434 236 0
4435 4434 -236 0
-4436 4435 237 0
-4436 -4435 -237 0
4436 -4435 237 0
4436 4435 -237 0
-4437 4436 238 0
-4437 -4436 -238 0
4437 -4436 238 0
4437 4436 -238 0
-4438 4437 239 0
-4438 -4437 -239 0
4438 -4437 239 0
4438 4437 -239 0
-4439 4438 240 0
-4439 -4438 -240 0
4439 -4438 240 0
4439 4438 -240 0
-4440 4439 243 0
-4440 -4439 -243 0
4440 -4439 243 0
4440 4439 -243 0
-4441 4440 244 0
-4441 -4440 -244 0
4441 -4440 244 0
4441 4440 -244 0
-4442 4441 245 0
-4442 -4441 -245 0
4442 -4441 245 0
4442 4441 -245 0
-4443 4442 246 0
-4443 -4442 -246 0
4443 -4442 246 0
4443 4442 -246 0
-4444 4443 253 0
-4444 -4443 -253 0
4444 -4443 253 0
4444 4443 -253 0
-4445 4444 254 0
-4445 -4444 -254 0
4445 -4444 254 0
4445 4444 -254 0
-4446 4445 255 0
-4446 -4445 -255 0
4446 -4445 255 0
4446 4445 -255 0
-4447 4446 256 0
-4447 -4446 -256 0
4447 -4446 256 0
4447 4446 -256 0
-4448 4447 258 0
-4448 -4447 -258 0
4448 -4447 258 0
4448 4447 -258 0
-4449 4448 259 0
-4449 -4448 -259 0
4449 -4448 259 0
4449 4448 -259 0
-4450 4449 265 0
-4450 -4449 -265 0
4450 -4449 265 0
4450 4449 -265 0
-4451 4450 267 0
-4451 -4450 -267 0
4451 -4450 267 0
4451 4450 -267 0
-4452 4451 269 0
-4452 -4451 -269 0
4452 -4451 269 0
4452 4451 -269 0
-4453 4452 271 0
-4453 -4452 -271 0
4453 -4452 271 0
4453 4452 -271 0
-4454 4453 273 0
-4454 -4453 -273 0
4454 -4453 273 0
4454 4453 -273 0
-4455 4454 275 0
-4455 -4454 -275 0
4455 -4454 275 0
4455 4454 -275 0
-4456 4455 276 0
-4456 -4455 -276 0
4456 -4455 276 0
4456 4455 -276 0
-4457 4456 284 0
-4457 -4456 -284 0
4457 -4456 284 0
4457 4456 -284 0
-4458 4457 286 0
-4458 -4457 -286 0
4458 -4457 286 0
4458 4457 -286 0
-4459 4458 288 0
-4459 -4458 -288 0
4459 -4458 288 0
4459 4458 -288 0
-4459 0
-4460 75 76 0
-4460 -75 -76 0
4460 -75 76 0
4460 75 -76 0
-4461 4460 77 0
-4461 -4460 -77 0
4461 -4460 77 0
4461 4460 -77 0
-4462 4461 79 0
-4462 -4461 -79 0
4462 -4461 79 0
4462 4461 -79 0
-4463 4462 80 0
-4463 -4462 -80 0
4463 -4462 80 0
4463 4462 -80 0
-4464 4463 81 0
-4464 -4463 -81 0
4464 -4463 81 0
4464 4463 -81 0
-4465 4464 84 0
-4465 -4464 -84 0
4465 -4464 84 0
4465 4464 -84 0
-4466 4465 88 0
-4466 -4465 -88 0
4466 -4465 88 0
4466 4465 -88 0
-4467 4466 93 0
-4467 -4466 -93 0
4467 -4466 93 0
4467 4466 -93 0
-4468 4467 95 0
-4468 -4467 -95 0
4468 -4467 95 0
4468 4467 -95 0
-4469 4468 96 0
-4469 -4468 -96 0
4469 -4468 96 0
4469 4468 -96 0
-4470 4469 97 0
-4470 -4469 -97 0
4470 -4469 97 0
4470 4469 -97 0
-4471 4470 98 0
-4471 -4470 -98 0
4471 -4470 98 0
4471 4470 -98 0
-4472 4471 99 0
-4472 -4471 -99 0
4472 -4471 99 0
4472 4471 -99 0
-4473 4472 104 0
-4473 -4472 -104 0
4473 -4472 104 0
4473 4472 -104 0
-4474 4473 106 0
-4474 -4473 -106 0
4474 -4473 106 0
4474 4473 -106 0
-4475 4474 110 0
-4475 -4474 -110 0
4475 -4474 110 0
4475 4474 -110 0
-4476 4475 111 0
-4476 -4475 -111 0
4476 -4475 111 0
4476 4475 -111 0
-4477 4476 113 0
-4477 -4476 -113 0
4477 -4476 113 0
4477 4476 -113 0
-4478 4477 115 0
-4478 -4477 -115 0
4478 -4477 115 0
4478 4477 -115 0
-4479 4478 117 0
-4479 -4478 -117 0
4479 -4478 117 0
4479 4478 -117 0
-4480 4479 122 0
-4480 -4479 -122 0
4480 -4479 122 0
4480 4479 -122 0
-4481 4480 124 0
-4481 -4480 -124 0
4481 -4480 124 0
4481 4480 -124 0
-4482 4481 129 0
-4482 -4481 -129 0
4482 -4481 129 0
4482 4481 -129 0
-4483 4482 130 0
-4483 -4482 -130 0
4483 -4482 130 0
4483 4482 -130 0
-4484 4483 131 0
-4484 -4483 -131 0
4484 -4483 131 0
4484 4483 -131 0
-4485 4484 132 0
-4485 -4484 -132 0
4485 -4484 132 0
4485 4484 -132 0
-4486 4485 133 0
-4486 -4485 -133 0
4486 -4485 133 0
4486 4485 -133 0
-4487 4486 134 0
-4487 -4486 -134 0
4487 -4486 134 0
4487 4486 -134 0
-4488 4487 135 0
-4488 -4487 -135 0
4488 -4487 135 0
4488 4487 -135 0
-4489 4488 136 0
-4489 -4488 -136 0
4489 -4488 136 0
4489 4488 -136 0
-4490 4489 144 0
-4490 -4489 -144 0
4490 -4489 144 0
4490 4489 -144 0
-4491 4490 202 0
-4491 -4490 -202 0
4491 -4490 202 0
4491 4490 -202 0
-4492 4491 214 0
-4492 -4491 -214 0
4492 -4491 214 0
4492 4491 -214 0
-4493 4492 223 0
-4493 -4492 -223 0
4493 -4492 223 0
4493 4492 -223 0
-4494 4493 224 0
-4494 -4493 -224 0
4494 -4493 224 0
4494 4493 -224 0
-4495 4494 231 0
-4495 -4494 -231 0
4495 -4494 231 0
4495 4494 -231 0
-4496 4495 232 0
-4496 -4495 -232 0
4496 -4495 232 0
4496 4495 -232 0
-4497 4496 235 0
-4497 -4496 -235 0
4497 -4496 235 0
4497 4496 -235 0
-4498 4497 236 0
-4498 -4497 -236 0
4498 -4497 236 0
4498 4497 -236 0
-4499 4498 237 0
-4499 -4498 -237 0
4499 -4498 237 0
4499 4498 -237 0
-4500 4499 238 0
-4500 -4499 -238 0
4500 -4499 238 0
4500 4499 -238 0
-4501 4500 239 0
-4501 -4500 -239 0
4501 -4500 239 0
4501 4500 -239 0
-4502 4501 240 0
-4502 -4501 -240 0
4502 -4501 240 0
4502 4501 -240 0
-4503 4502 241 0
-4503 -4502 -241 0
4503 -4502 241 0
4503 4502 -241 0
-4504 4503 244 0
-4504 -4503 -244 0
4504 -4503 244 0
4504 4503 -244 0
-4505 4504 245 0
-4505 -4504 -245 0
4505 -4504 245 0
4505 4504 -245 0
-4506 4505 246 0
-4506 -4505 -246 0
4506 -4505 246 0
4506 4505 -246 0
-4507 4506 253 0
-4507 -4506 -253 0
4507 -4506 253 0
4507 4506 -253 0
-4508 4507 254 0
-4508 -4507 -254 0
4508 -4507 254 0
4508 4507 -254 0
-4509 4508 255 0
-4509 -4508 -255 0
4509 -4508 255 0
4509 4508 -255 0
-4510 4509 256 0
-4510 -4509 -256 0
4510 -4509 256 0
4510 4509 -256 0
-4511 4510 257 0
-4511 -4510 -257 0
4511 -4510 257 0
4511 4510 -257 0
-4512 4511 260 0
-4512 -4511 -260 0
4512 -4511 260 0
4512 4511 -260 0
-4513 4512 266 0
-4513 -4512 -266 0
4513 -4512 266 0
4513 4512 -266 0
-4514 4513 268 0
-4514 -4513 -268 0
4514 -4513 268 0
4514 4513 -268 0
-4515 4514 270 0
-4515 -4514 -270 0
4515 -4514 270 0
4515 4514 -270 0
-4516 4515 271 0
-4516 -4515 -271 0
4516 -4515 271 0
4516 4515 -271 0
-4517 4516 272 0
-4517 -4516 -272 0
4517 -4516 272 0
4517 4516 -272 0
-4518 4517 274 0
-4518 -4517 -274 0
4518 -4517 274 0
4518 4517 -274 0
-4519 4518 276 0
-4519 -4518 -276 0
4519 -4518 276 0
4519 4518 -276 0
-4520 4519 283 0
-4520 -4519 -283 0
4520 -4519 283 0
4520 4519 -283 0
-4521 4520 285 0
-4521 -4520 -285 0
4521 -4520 285 0
4521 4520 -285 0
-4522 4521 287 0
-4522 -4521 -287 0
4522 -4521 287 0
4522 4521 -287 0
-4522 0
-4523 76 77 0
-4523 -76 -77 0
4523 -76 77 0
4523 76 -77 0
-4524 4523 78 0
-4524 -4523 -78 0
4524 -4523 78 0
4524 4523 -78 0
-4525 4524 79 0
-4525 -4524 -79 0
4525 -4524 79 0
4525 4524 -79 0
-4526 4525 80 0
-4526 -4525 -80 0
4526 -4525 80 0
4526 4525 -80 0
-4527 4526 81 0
-4527 -4526 -81 0
4527 -4526 81 0
4527 4526 -81 0
-4528 4527 82 0
-4528 -4527 -82 0
4528 -4527 82 0
4528 4527 -82 0
-4529 4528 89 0
-4529 -4528 -89 0
4529 -4528 89 0
4529 4528 -89 0
-4530 4529 91 0
-4530 -4529 -91 0
4530 -4529 91 0
4530 4529 -91 0
-4531 4530 94 0
-4531 -4530 -94 0
4531 -4530 94 0
4531 4530 -94 0
-4532 4531 96 0
-4532 -4531 -96 0
4532 -4531 96 0
4532 4531 -96 0
-4533 4532 98 0
-4533 -4532 -98 0
4533 -4532 98 0
4533 4532 -98 0
-4534 4533 99 0
-4534 -4533 -99 0
4534 -4533 99 0
4534 4533 -99 0
-4535 4534 100 0
-4535 -4534 -100 0
4535 -4534 100 0
4535 4534 -100 0
-4536 4535 105 0
-4536 -4535 -105 0
4536 -4535 105 0
4536 4535 -105 0
-4537 4536 107 0
-4537 -4536 -107 0
4537 -4536 107 0
4537 4536 -107 0
-4538 4537 111 0
-4538 -4537 -111 0
4538 -4537 111 0
4538 4537 -111 0
-4539 4538 112 0
-4539 -4538 -112 0
4539 -4538 112 0
4539 4538 -112 0
-4540 4539 114 0
-4540 -4539 -114 0
4540 -4539 114 0
4540 4539 -114 0
-4541 4540 116 0
-4541 -4540 -116 0
4541 -4540 116 0
4541 4540 -116 0
-4542 4541 118 0
-4542 -4541 -118 0
4542 -4541 118 0
4542 4541 -118 0
-4543 4542 123 0
-4543 -4542 -123 0
4543 -4542 123 0
4543 4542 -123 0
-4544 4543 125 0
-4544 -4543 -125 0
4544 -4543 125 0
4544 4543 -125 0
-4545 4544 127 0
-4545 -4544 -127 0
4545 -4544 127 0
4545 4544 -127 0
-4546 4545 130 0
-4546 -4545 -130 0
4546 -4545 130 0
4546 4545 -130 0
-4547 4546 131 0
-4547 -4546 -131 0
4547 -4546 131 0
4547 4546 -131 0
-4548 4547 132 0
-4548 -4547 -132 0
4548 -4547 132 0
4548 4547 -132 0
-4549 4548 134 0
-4549 -4548 -134 0
4549 -4548 134 0
4549 4548 -134 0
-4550 4549 135 0
-4550 -4549 -135 0
4550 -4549 135 0
4550 4549 -135 0
-4551 4550 136 0
-4551 -4550 -136 0
4551 -4550 136 0
4551 4550 -136 0
-4552 4551 137 0
-4552 -4551 -137 0
4552 -4551 137 0
4552 4551 -137 0
-4553 4552 139 0
-4553 -4552 -139 0
4553 -4552 139 0
4553 4552 -139 0
-4554 4553 203 0
-4554 -4553 -203 0
4554 -4553 203 0
4554 4553 -203 0
-4555 4554 215 0
-4555 -4554 -215 0
4555 -4554 215 0
4555 4554 -215 0
-4556 4555 224 0
-4556 -4555 -224 0
4556 -4555 224 0
4556 4555 -224 0
-4557 4556 225 0
-4557 -4556 -225 0
4557 -4556 225 0
4557 4556 -225 0
-4558 4557 232 0
-4558 -4557 -232 0
4558 -4557 232 0
4558 4557 -232 0
-4559 4558 233 0
-4559 -4558 -233 0
4559 -4558 233 0
4559 4558 -233 0
-4560 4559 235 0
-4560 -4559 -235 0
4560 -4559 235 0
4560 4559 -235 0
-4561 4560 236 0
-4561 -4560 -236 0
4561 -4560 236 0
4561 4560 -236 0
-4562 4561 237 0
-4562 -4561 -237 0
4562 -4561 237 0
4562 4561 -237 0
-4563 4562 238 0
-4563 -4562 -238 0
4563 -4562 238 0
4563 4562 -238 0
-4564 4563 239 0
-4564 -4563 -239 0
4564 -4563 239 0
4564 4563 -239 0
-4565 4564 240 0
-4565 -4564 -240 0
4565 -4564 240 0
4565 4564 -240 0
-4566 4565 241 0
-4566 -4565 -241 0
4566 -4565 241 0
4566 4565 -241 0
-4567 4566 242 0
-4567 -4566 -242 0
4567 -4566 242 0
4567 4566 -242 0
-4568 4567 245 0
-4568 -4567 -245 0
4568 -4567 245 0
4568 4567 -245 0
-4569 4568 246 0
-4569 -4568 -246 0
4569 -4568 246 0
4569 4568 -246 0
-4570 4569 254 0
-4570 -4569 -254 0
4570 -4569 254 0
4570 4569 -254 0
-4571 4570 255 0
-4571 -4570 -255 0
4571 -4570 255 0
4571 4570 -255 0
-4572 4571 256 0
-4572 -4571 -256 0
4572 -4571 256 0
4572 4571 -256 0
-4573 4572 257 0
-4573 -4572 -257 0
4573 -4572 257 0
4573 4572 -257 0
-4574 4573 258 0
-4574 -4573 -258 0
4574 -4573 258 0
4574 4573 -258 0
-4575 4574 261 0
-4575 -4574 -261 0
4575 -4574 261 0
4575 4574 -261 0
-4576 4575 265 0
-4576 -4575 -265 0
4576 -4575 265 0
4576 4575 -265 0
-4577 4576 267 0
-4577 -4576 -267 0
4577 -4576 267 0
4577 4576 -267 0
-4578 4577 269 0
-4578 -4577 -269 0
4578 -4577 269 0
4578 4577 -269 0
-4579 4578 271 0
-4579 -4578 -271 0
4579 -4578 271 0
4579 4578 -271 0
-4580 4579 272 0
-4580 -4579 -272 0
4580 -4579 272 0
4580 4579 -272 0
-4581 4580 273 0
-4581 -4580 -273 0
4581 -4580 273 0
4581 4580 -273 0
-4582 4581 275 0
-4582 -4581 -275 0
4582 -4581 275 0
4582 4581 -275 0
-4583 4582 284 0
-4583 -4582 -284 0
4583 -4582 284 0
4583 4582 -284 0
-4584 4583 286 0
-4584 -4583 -286 0
4584 -4583 286 0
4584 4583 -286 0
-4585 4584 288 0
-4585 -4584 -288 0
4585 -4584 288 0
4585 4584 -288 0
-4585 0
-4586 73 77 0
-4586 -73 -77 0
4586 -73 77 0
4586 73 -77 0
-4587 4586 78 0
-4587 -4586 -78 0
4587 -4586 78 0
4587 4586 -78 0
-4588 4587 80 0
-4588 -4587 -80 0
4588 -4587 80 0
4588 4587 -80 0
-4589 4588 81 0
-4589 -4588 -81 0
4589 -4588 81 0
4589 4588 -81 0
-4590 4589 82 0
-4590 -4589 -82 0
4590 -4589 82 0
4590 4589 -82 0
-4591 4590 83 0
-4591 -4590 -83 0
4591 -4590 83 0
4591 4590 -83 0
-4592 4591 90 0
-4592 -4591 -90 0
4592 -4591 90 0
4592 4591 -90 0
-4593 4592 91 0
-4593 -4592 -91 0
4593 -4592 91 0
4593 4592 -91 0
-4594 4593 92 0
-4594 -4593 -92 0
4594 -4593 92 0
4594 4593 -92 0
-4595 4594 95 0
-4595 -4594 -95 0
4595 -4594 95 0
4595 4594 -95 0
-4596 4595 99 0
-4596 -4595 -99 0
4596 -4595 99 0
4596 4595 -99 0
-4597 4596 100 0
-4597 -4596 -100 0
4597 -4596 100 0
4597 4596 -100 0
-4598 4597 101 0
-4598 -4597 -101 0
4598 -4597 101 0
4598 4597 -101 0
-4599 4598 106 0
-4599 -4598 -106 0
4599 -4598 106 0
4599 4598 -106 0
-4600 4599 108 0
-4600 -4599 -108 0
4600 -4599 108 0
4600 4599 -108 0
-4601 4600 109 0
-4601 -4600 -109 0
4601 -4600 109 0
4601 4600 -109 0
-4602 4601 112 0
-4602 -4601 -112 0
4602 -4601 112 0
4602 4601 -112 0
-4603 4602 113 0
-4603 -4602 -113 0
4603 -4602 113 0
4603 4602 -113 0
-4604 4603 117 0
-4604 -4603 -117 0
4604 -4603 117 0
4604 4603 -117 0
-4605 4604 119 0
-4605 -4604 -119 0
4605 -4604 119 0
4605 4604 -119 0
-4606 4605 124 0
-4606 -4605 -124 0
4606 -4605 124 0
4606 4605 -124 0
-4607 4606 126 0
-4607 -4606 -126 0
4607 -4606 126 0
4607 4606 -126 0
-4608 4607 127 0
-4608 -4607 -127 0
4608 -4607 127 0
4608 4607 -127 0
-4609 4608 128 0
-4609 -4608 -128 0
4609 -4608 128 0
4609 4608 -128 0
-4610 4609 131 0
-4610 -4609 -131 0
4610 -4609 131 0
4610 4609 -131 0
-4611 4610 132 0
-4611 -4610 -132 0
4611 -4610 132 0
4611 4610 -132 0
-4612 4611 135 0
-4612 -4611 -135 0
4612 -4611 135 0
4612 4611 -135 0
-4613 4612 136 0
-4613 -4612 -136 0
4613 -4612 136 0
4613 4612 -136 0
-4614 4613 137 0
-4614 -4613 -137 0
4614 -4613 137 0
4614 4613 -137 0
-4615 4614 138 0
-4615 -4614 -138 0
4615 -4614 138 0
4615 4614 -138 0
-4616 4615 140 0
-4616 -4615 -140 0
4616 -4615 140 0
4616 4615 -140 0
-4617 4616 204 0
-4617 -4616 -204 0
4617 -4616 204 0
4617 4616 -204 0
-4618 4617 216 0
-4618 -4617 -216 0
4618 -4617 216 0
4618 4617 -216 0
-4619 4618 225 0
-4619 -4618 -225 0
4619 -4618 225 0
4619 4618 -225 0
-4620 4619 226 0
-4620 -4619 -226 0
4620 -4619 226 0
4620 4619 -226 0
-4621 4620 233 0
-4621 -4620 -233 0
4621 -4620 233 0
4621 4620 -233 0
-4622 4621 234 0
-4622 -4621 -234 0
4622 -4621 234 0
4622 4621 -234 0
-4623 4622 235 0
-4623 -4622 -235 0
4623 -4622 235 0
4623 4622 -235 0
-4624 4623 236 0
-4624 -4623 -236 0
4624 -4623 236 0
4624 4623 -236 0
-4625 4624 237 0
-4625 -4624 -237 0
4625 -4624 237 0
4625 4624 -237 0
-4626 4625 238 0
-4626 -4625 -238 0
4626 -4625 238 0
4626 4625 -238 0
-4627 4626 239 0
-4627 -4626 -239 0
4627 -4626 239 0
4627 4626 -239 0
-4628 4627 240 0
-4628 -4627 -240 0
4628 -4627 240 0
4628 4627 -240 0
-4629 4628 241 0
-4629 -4628 -241 0
4629 -4628 241 0
4629 4628 -241 0
-4630 4629 242 0
-4630 -4629 -242 0
4630 -4629 242 0
4630 4629 -242 0
-4631 4630 243 0
-4631 -4630 -243 0
4631 -4630 243 0
4631 4630 -243 0
-4632 4631 246 0
-4632 -4631 -246 0
4632 -4631 246 0
4632 4631 -246 0
-4633 4632 253 0
-4633 -4632 -253 0
4633 -4632 253 0
4633 4632 -253 0
-4634 4633 255 0
-4634 -4633 -255 0
4634 -4633 255 0
4634 4633 -255 0
-4635 4634 256 0
-4635 -4634 -256 0
4635 -4634 256 0
4635 4634 -256 0
-4636 4635 257 0
-4636 -4635 -257 0
4636 -4635 257 0
4636 4635 -257 0
-4637 4636 258 0
-4637 -4636 -258 0
4637 -4636 258 0
4637 4636 -258 0
-4638 4637 262 0
-4638 -4637 -262 0
4638 -4637 262 0
4638 4637 -262 0
-4639 4638 266 0
-4639 -4638 -266 0
4639 -4638 266 0
4639 4638 -266 0
-4640 4639 268 0
-4640 -4639 -268 0
4640 -4639 268 0
4640 4639 -268 0
-4641 4640 270 0
-4641 -4640 -270 0
4641 -4640 270 0
4641 4640 -270 0
-4642 4641 272 0
-4642 -4641 -272 0
4642 -4641 272 0
4642 4641 -272 0
-4643 4642 273 0
-4643 -4642 -273 0
4643 -4642 273 0
4643 4642 -273 0
-4644 4643 274 0
-4644 -4643 -274 0
4644 -4643 274 0
4644 4643 -274 0
-4645 4644 276 0
-4645 -4644 -276 0
4645 -4644 276 0
4645 4644 -276 0
-4646 4645 283 0
-4646 -4645 -283 0
4646 -4645 283 0
4646 4645 -283 0
-4647 4646 285 0
-4647 -4646 -285 0
4647 -4646 285 0
4647 4646 -285 0
-4648 4647 287 0
-4648 -4647 -287 0
4648 -4647 287 0
4648 4647 -287 0
-4648 0
-4649 69 70 0
-4649 -69 -70 0
4649 -69 70 0
4649 69 -70 0
-4650 4649 71 0
-4650 -4649 -71 0
4650 -4649 71 0
4650 4649 -71 0
-4651 4650 74 0
-4651 -4650 -74 0
4651 -4650 74 0
4651 4650 -74 0
-4652 4651 75 0
-4652 -4651 -75 0
4652 -4651 75 0
4652 4651 -75 0
-4653 4652 76 0
-4653 -4652 -76 0
4653 -4652 76 0
4653 4652 -76 0
-4654 4653 77 0
-4654 -4653 -77 0
4654 -4653 77 0
4654 4653 -77 0
-4655 4654 79 0
-4655 -4654 -79 0
4655 -4654 79 0
4655 4654 -79 0
-4656 4655 81 0
-4656 -4655 -81 0
4656 -4655 81 0
4656 4655 -81 0
-4657 4656 87 0
-4657 -4656 -87 0
4657 -4656 87 0
4657 4656 -87 0
-4658 4657 89 0
-4658 -4657 -89 0
4658 -4657 89 0
4658 4657 -89 0
-4659 4658 91 0
-4659 -4658 -91 0
4659 -4658 91 0
4659 4658 -91 0
-4660 4659 94 0
-4660 -4659 -94 0
4660 -4659 94 0
4660 4659 -94 0
-4661 4660 98 0
-4661 -4660 -98 0
4661 -4660 98 0
4661 4660 -98 0
-4662 4661 100 0
-4662 -4661 -100 0
4662 -4661 100 0
4662 4661 -100 0
-4663 4662 101 0
-4663 -4662 -101 0
4663 -4662 101 0
4663 4662 -101 0
-4664 4663 102 0
-4664 -4663 -102 0
4664 -4663 102 0
4664 4663 -102 0
-4665 4664 103 0
-4665 -4664 -103 0
4665 -4664 103 0
4665 4664 -103 0
-4666 4665 105 0
-4666 -4665 -105 0
4666 -4665 105 0
4666 4665 -105 0
-4667 4666 110 0
-4667 -4666 -110 0
4667 -4666 110 0
4667 4666 -110 0
-4668 4667 111 0
-4668 -4667 -111 0
4668 -4667 111 0
4668 4667 -111 0
-4669 4668 115 0
-4669 -4668 -115 0
4669 -4668 115 0
4669 4668 -115 0
-4670 4669 117 0
-4670 -4669 -117 0
4670 -4669 117 0
4670 4669 -117 0
-4671 4670 118 0
-4671 -4670 -118 0
4671 -4670 118 0
4671 4670 -118 0
-4672 4671 119 0
-4672 -4671 -119 0
4672 -4671 119 0
4672 4671 -119 0
-4673 4672 120 0
-4673 -4672 -120 0
4673 -4672 120 0
4673 4672 -120 0
-4674 4673 122 0
-4674 -4673 -122 0
4674 -4673 122 0
4674 4673 -122 0
-4675 4674 125 0
-4675 -4674 -125 0
4675 -4674 125 0
4675 4674 -125 0
-4676 4675 127 0
-4676 -4675 -127 0
4676 -4675 127 0
4676 4675 -127 0
-4677 4676 128 0
-4677 -4676 -128 0
4677 -4676 128 0
4677 4676 -128 0
-4678 4677 133 0
-4678 -4677 -133 0
4678 -4677 133 0
4678 4677 -133 0
-4679 4678 135 0
-4679 -4678 -135 0
4679 -4678 135 0
4679 4678 -135 0
-4680 4679 137 0
-4680 -4679 -137 0
4680 -4679 137 0
4680 4679 -137 0
-4681 4680 139 0
-4681 -4680 -139 0
4681 -4680 139 0
4681 4680 -139 0
-4682 4681 140 0
-4682 -4681 -140 0
4682 -4681 140 0
4682 4681 -140 0
-4683 4682 141 0
-4683 -4682 -141 0
4683 -4682 141 0
4683 4682 -141 0
-4684 4683 143 0
-4684 -4683 -143 0
4684 -4683 143 0
4684 4683 -143 0
-4685 4684 144 0
-4685 -4684 -144 0
4685 -4684 144 0
4685 4684 -144 0
-4686 4685 205 0
-4686 -4685 -205 0
4686 -4685 205 0
4686 4685 -205 0
-4687 4686 213 0
-4687 -4686 -213 0
4687 -4686 213 0
4687 4686 -213 0
-4688 4687 214 0
-4688 -4687 -214 0
4688 -4687 214 0
4688 4687 -214 0
-4689 4688 216 0
-4689 -4688 -216 0
4689 -4688 216 0
4689 4688 -216 0
-4690 4689 217 0
-4690 -4689 -217 0
4690 -4689 217 0
4690 4689 -217 0
-4691 4690 218 0
-4691 -4690 -218 0
4691 -4690 218 0
4691 4690 -218 0
-4692 4691 219 0
-4692 -4691 -219 0
4692 -4691 219 0
4692 4691 -219 0
-4693 4692 222 0
-4693 -4692 -222 0
4693 -4692 222 0
4693 4692 -222 0
-4694 4693 223 0
-4694 -4693 -223 0
4694 -4693 223 0
4694 4693 -223 0
-4695 4694 227 0
-4695 -4694 -227 0
4695 -4694 227 0
4695 4694 -227 0
-4696 4695 229 0
-4696 -4695 -229 0
4696 -4695 229 0
4696 4695 -229 0
-4697 4696 230 0
-4697 -4696 -230 0
4697 -4696 230 0
4697 4696 -230 0
-4698 4697 231 0
-4698 -4697 -231 0
4698 -4697 231 0
4698 4697 -231 0
-4699 4698 232 0
-4699 -4698 -232 0
4699 -4698 232 0
4699 4698 -232 0
-4700 4699 233 0
-4700 -4699 -233 0
4700 -4699 233 0
4700 4699 -233 0
-4701 4700 234 0
-4701 -4700 -234 0
4701 -4700 234 0
4701 4700 -234 0
-4702 4701 236 0
-4702 -4701 -236 0
4702 -4701 236 0
4702 4701 -236 0
-4703 4702 237 0
-4703 -4702 -237 0
4703 -4702 237 0
4703 4702 -237 0
-4704 4703 238 0
-4704 -4703 -238 0
4704 -4703 238 0
4704 4703 -238 0
-4705 4704 239 0
-4705 -4704 -239 0
4705 -4704 239 0
4705 4704 -239 0
-4706 4705 242 0
-4706 -4705 -242 0
4706 -4705 242 0
4706 4705 -242 0
-4707 4706 244 0
-4707 -4706 -244 0
4707 -4706 244 0
4707 4706 -244 0
-4708 4707 245 0
-4708 -4707 -245 0
4708 -4707 245 0
4708 4707 -245 0
-4709 4708 246 0
-4709 -4708 -246 0
4709 -4708 246 0
4709 4708 -246 0
-4710 4709 248 0
-4710 -4709 -248 0
4710 -4709 248 0
4710 4709 -248 0
-4711 4710 249 0
-4711 -4710 -249 0
4711 -4710 249 0
4711 4710 -249 0
-4712 4711 250 0
-4712 -4711 -250 0
4712 -4711 250 0
4712 4711 -250 0
-4713 4712 252 0
-4713 -4712 -252 0
4713 -4712 252 0
4713 4712 -252 0
-4714 4713 256 0
-4714 -4713 -256 0
4714 -4713 256 0
4714 4713 -256 0
-4715 4714 257 0
-4715 -4714 -257 0
4715 -4714 257 0
4715 4714 -257 0
-4716 4715 259 0
-4716 -4715 -259 0
4716 -4715 259 0
4716 4715 -259 0
-4717 4716 261 0
-4717 -4716 -261 0
4717 -4716 261 0
4717 4716 -261 0
-4718 4717 263 0
-4718 -4717 -263 0
4718 -4717 263 0
4718 4717 -263 0
-4719 4718 265 0
-4719 -4718 -265 0
4719 -4718 265 0
4719 4718 -265 0
-4720 4719 267 0
-4720 -4719 -267 0
4720 -4719 267 0
4720 4719 -267 0
-4721 4720 271 0
-4721 -4720 -271 0
4721 -4720 271 0
4721 4720 -271 0
-4722 4721 272 0
-4722 -4721 -272 0
4722 -4721 272 0
4722 4721 -272 0
-4723 4722 274 0
-4723 -4722 -274 0
4723 -4722 274 0
4723 4722 -274 0
-4724 4723 277 0
-4724 -4723 -277 0
4724 -4723 277 0
4724 4723 -277 0
-4725 4724 279 0
-4725 -4724 -279 0
4725 -4724 279 0
4725 4724 -279 0
-4726 4725 280 0
-4726 -4725 -280 0
4726 -4725 280 0
4726 4725 -280 0
-4727 4726 283 0
-4727 -4726 -283 0
4727 -4726 283 0
4727 4726 -283 0
-4728 4727 284 0
-4728 -4727 -284 0
4728 -4727 284 0
4728 4727 -284 0
-4729 4728 286 0
-4729 -4728 -286 0
4729 -4728 286 0
4729 4728 -286 0
-4730 4729 287 0
-4730 -4729 -287 0
4730 -4729 287 0
4730 4729 -287 0
-4731 4730 288 0
-4731 -4730 -288 0
4731 -4730 288 0
4731 4730 -288 0
-4731 0
-4732 70 71 0
-4732 -70 -71 0
4732 -70 71 0
4732 70 -71 0
-4733 4732 72 0
-4733 -4732 -72 0
4733 -4732 72 0
4733 4732 -72 0
-4734 4733 75 0
-4734 -4733 -75 0
4734 -4733 75 0
4734 4733 -75 0
-4735 4734 76 0
-4735 -4734 -76 0
4735 -4734 76 0
4735 4734 -76 0
-4736 4735 77 0
-4736 -4735 -77 0
4736 -4735 77 0
4736 4735 -77 0
-4737 4736 78 0
-4737 -4736 -78 0
4737 -4736 78 0
4737 4736 -78 0
-4738 4737 79 0
-4738 -4737 -79 0
4738 -4737 79 0
4738 4737 -79 0
-4739 4738 80 0
-4739 -4738 -80 0
4739 -4738 80 0
4739 4738 -80 0
-4740 4739 81 0
-4740 -4739 -81 0
4740 -4739 81 0
4740 4739 -81 0
-4741 4740 82 0
-4741 -4740 -82 0
4741 -4740 82 0
4741 4740 -82 0
-4742 4741 83 0
-4742 -4741 -83 0
4742 -4741 83 0
4742 4741 -83 0
-4743 4742 85 0
-4743 -4742 -85 0
4743 -4742 85 0
4743 4742 -85 0
-4744 4743 87 0
-4744 -4743 -87 0
4744 -4743 87 0
4744 4743 -87 0
-4745 4744 88 0
-4745 -4744 -88 0
4745 -4744 88 0
4745 4744 -88 0
-4746 4745 89 0
-4746 -4745 -89 0
4746 -4745 89 0
4746 4745 -89 0
-4747 4746 90 0
-4747 -4746 -90 0
4747 -4746 90 0
4747 4746 -90 0
-4748 4747 91 0
-4748 -4747 -91 0
4748 -4747 91 0
4748 4747 -91 0
-4749 4748 92 0
-4749 -4748 -92 0
4749 -4748 92 0
4749 4748 -92 0
-4750 4749 93 0
-4750 -4749 -93 0
4750 -4749 93 0
4750 4749 -93 0
-4751 4750 97 0
-4751 -4750 -97 0
4751 -4750 97 0
4751 4750 -97 0
-4752 4751 99 0
-4752 -4751 -99 0
4752 -4751 99 0
4752 4751 -99 0
-4753 4752 101 0
-4753 -4752 -101 0
4753 -4752 101 0
4753 4752 -101 0
-4754 4753 102 0
-4754 -4753 -102 0
4754 -4753 102 0
4754 4753 -102 0
-4755 4754 104 0
-4755 -4754 -104 0
4755 -4754 104 0
4755 4754 -104 0
-4756 4755 106 0
-4756 -4755 -106 0
4756 -4755 106 0
4756 4755 -106 0
-4757 4756 109 0
-4757 -4756 -109 0
4757 -4756 109 0
4757 4756 -109 0
-4758 4757 112 0
-4758 -4757 -112 0
4758 -4757 112 0
4758 4757 -112 0
-4759 4758 113 0
-4759 -4758 -113 0
4759 -4758 113 0
4759 4758 -113 0
-4760 4759 115 0
-4760 -4759 -115 0
4760 -4759 115 0
4760 4759 -115 0
-4761 4760 116 0
-4761 -4760 -116 0
4761 -4760 116 0
4761 4760 -116 0
-4762 4761 118 0
-4762 -4761 -118 0
4762 -4761 118 0
4762 4761 -118 0
-4763 4762 119 0
-4763 -4762 -119 0
4763 -4762 119 0
4763 4762 -119 0
-4764 4763 120 0
-4764 -4763 -120 0
4764 -4763 120 0
4764 4763 -120 0
-4765 4764 123 0
-4765 -4764 -123 0
4765 -4764 123 0
4765 4764 -123 0
-4766 4765 126 0
-4766 -4765 -126 0
4766 -4765 126 0
4766 4765 -126 0
-4767 4766 128 0
-4767 -4766 -128 0
4767 -4766 128 0
4767 4766 -128 0
-4768 4767 129 0
-4768 -4767 -129 0
4768 -4767 129 0
4768 4767 -129 0
-4769 4768 134 0
-4769 -4768 -134 0
4769 -4768 134 0
4769 4768 -134 0
-4770 4769 136 0
-4770 -4769 -136 0
4770 -4769 136 0
4770 4769 -136 0
-4771 4770 138 0
-4771 -4770 -138 0
4771 -4770 138 0
4771 4770 -138 0
-4772 4771 139 0
-4772 -4771 -139 0
4772 -4771 139 0
4772 4771 -139 0
-4773 4772 140 0
-4773 -4772 -140 0
4773 -4772 140 0
4773 4772 -140 0
-4774 4773 141 0
-4774 -4773 -141 0
4774 -4773 141 0
4774 4773 -141 0
-4775 4774 142 0
-4775 -4774 -142 0
4775 -4774 142 0
4775 4774 -142 0
-4776 4775 144 0
-4776 -4775 -144 0
4776 -4775 144 0
4776 4775 -144 0
-4777 4776 206 0
-4777 -4776 -206 0
4777 -4776 206 0
4777 4776 -206 0
-4778 4777 213 0
-4778 -4777 -213 0
4778 -4777 213 0
4778 4777 -213 0
-4779 4778 214 0
-4779 -4778 -214 0
4779 -4778 214 0
4779 4778 -214 0
-4780 4779 217 0
-4780 -4779 -217 0
4780 -4779 217 0
4780 4779 -217 0
-4781 4780 218 0
-4781 -4780 -218 0
4781 -4780 218 0
4781 4780 -218 0
-4782 4781 219 0
-4782 -4781 -219 0
4782 -4781 219 0
4782 4781 -219 0
-4783 4782 220 0
-4783 -4782 -220 0
4783 -4782 220 0
4783 4782 -220 0
-4784 4783 224 0
-4784 -4783 -224 0
4784 -4783 224 0
4784 4783 -224 0
-4785 4784 228 0
-4785 -4784 -228 0
4785 -4784 228 0
4785 4784 -228 0
-4786 4785 229 0
-4786 -4785 -229 0
4786 -4785 229 0
4786 4785 -229 0
-4787 4786 230 0
-4787 -4786 -230 0
4787 -4786 230 0
4787 4786 -230 0
-4788 4787 231 0
-4788 -4787 -231 0
4788 -4787 231 0
4788 4787 -231 0
-4789 4788 232 0
-4789 -4788 -232 0
4789 -4788 232 0
4789 4788 -232 0
-4790 4789 233 0
-4790 -4789 -233 0
4790 -4789 233 0
4790 4789 -233 0
-4791 4790 234 0
-4791 -4790 -234 0
4791 -4790 234 0
4791 4790 -234 0
-4792 4791 235 0
-4792 -4791 -235 0
4792 -4791 235 0
4792 4791 -235 0
-4793 4792 236 0
-4793 -4792 -236 0
4793 -4792 236 0
4793 4792 -236 0
-4794 4793 242 0
-4794 -4793 -242 0
4794 -4793 242 0
4794 4793 -242 0
-4795 4794 244 0
-4795 -4794 -244 0
4795 -4794 244 0
4795 4794 -244 0
-4796 4795 247 0
-4796 -4795 -247 0
4796 -4795 247 0
4796 4795 -247 0
-4797 4796 249 0
-4797 -4796 -249 0
4797 -4796 249 0
4797 4796 -249 0
-4798 4797 250 0
-4798 -4797 -250 0
4798 -4797 250 0
4798 4797 -250 0
-4799 4798 251 0
-4799 -4798 -251 0
4799 -4798 251 0
4799 4798 -251 0
-4800 4799 253 0
-4800 -4799 -253 0
4800 -4799 253 0
4800 4799 -253 0
-4801 4800 254 0
-4801 -4800 -254 0
4801 -4800 254 0
4801 4800 -254 0
-4802 4801 255 0
-4802 -4801 -255 0
4802 -4801 255 0
4802 4801 -255 0
-4803 4802 256 0
-4803 -4802 -256 0
4803 -4802 256 0
4803 4802 -256 0
-4804 4803 260 0
-4804 -4803 -260 0
4804 -4803 260 0
4804 4803 -260 0
-4805 4804 262 0
-4805 -4804 -262 0
4805 -4804 262 0
4805 4804 -262 0
-4806 4805 264 0
-4806 -4805 -264 0
4806 -4805 264 0
4806 4805 -264 0
-4807 4806 265 0
-4807 -4806 -265 0
4807 -4806 265 0
4807 4806 -265 0
-4808 4807 266 0
-4808 -4807 -266 0
4808 -4807 266 0
4808 4807 -266 0
-4809 4808 267 0
-4809 -4808 -267 0
4809 -4808 267 0
4809 4808 -267 0
-4810 4809 268 0
-4810 -4809 -268 0
4810 -4809 268 0
4810 4809 -268 0
-4811 4810 269 0
-4811 -4810 -269 0
4811 -4810 269 0
4811 4810 -269 0
-4812 4811 271 0
-4812 -4811 -271 0
4812 -4811 271 0
4812 4811 -271 0
-4813 4812 272 0
-4813 -4812 -272 0
4813 -4812 272 0
4813 4812 -272 0
-4814 4813 278 0
-4814 -4813 -278 0
4814 -4813 278 0
4814 4813 -278 0
-4815 4814 280 0
-4815 -4814 -280 0
4815 -4814 280 0
4815 4814 -280 0
-4816 4815 281 0
-4816 -4815 -281 0
4816 -4815 281 0
4816 4815 -281 0
-4817 4816 283 0
-4817 -4816 -283 0
4817 -4816 283 0
4817 4816 -283 0
-4818 4817 285 0
-4818 -4817 -285 0
4818 -4817 285 0
4818 4817 -285 0
-4819 4818 286 0
-4819 -4818 -286 0
4819 -4818 286 0
4819 4818 -286 0
-4820 4819 287 0
-4820 -4819 -287 0
4820 -4819 287 0
4820 4819 -287 0
-4820 0
-4821 69 72 0
-4821 -69 -72 0
4821 -69 72 0
4821 69 -72 0
-4822 4821 73 0
-4822 -4821 -73 0
4822 -4821 73 0
4822 4821 -73 0
-4823 4822 74 0
-4823 -4822 -74 0
4823 -4822 74 0
4823 4822 -74 0
-4824 4823 77 0
-4824 -4823 -77 0
4824 -4823 77 0
4824 4823 -77 0
-4825 4824 80 0
-4825 -4824 -80 0
4825 -4824 80 0
4825 4824 -80 0
-4826 4825 81 0
-4826 -4825 -81 0
4826 -4825 81 0
4826 4825 -81 0
-4827 4826 82 0
-4827 -4826 -82 0
4827 -4826 82 0
4827 4826 -82 0
-4828 4827 83 0
-4828 -4827 -83 0
4828 -4827 83 0
4828 4827 -83 0
-4829 4828 84 0
-4829 -4828 -84 0
4829 -4828 84 0
4829 4828 -84 0
-4830 4829 85 0
-4830 -4829 -85 0
4830 -4829 85 0
4830 4829 -85 0
-4831 4830 86 0
-4831 -4830 -86 0
4831 -4830 86 0
4831 4830 -86 0
-4832 4831 88 0
-4832 -4831 -88 0
4832 -4831 88 0
4832 4831 -88 0
-4833 4832 89 0
-4833 -4832 -89 0
4833 -4832 89 0
4833 4832 -89 0
-4834 4833 90 0
-4834 -4833 -90 0
4834 -4833 90 0
4834 4833 -90 0
-4835 4834 91 0
-4835 -4834 -91 0
4835 -4834 91 0
4835 4834 -91 0
-4836 4835 92 0
-4836 -4835 -92 0
4836 -4835 92 0
4836 4835 -92 0
-4837 4836 94 0
-4837 -4836 -94 0
4837 -4836 94 0
4837 4836 -94 0
-4838 4837 95 0
-4838 -4837 -95 0
4838 -4837 95 0
4838 4837 -95 0
-4839 4838 99 0
-4839 -4838 -99 0
4839 -4838 99 0
4839 4838 -99 0
-4840 4839 101 0
-4840 -4839 -101 0
4840 -4839 101 0
4840 4839 -101 0
-4841 4840 104 0
-4841 -4840 -104 0
4841 -4840 104 0
4841 4840 -104 0
-4842 4841 105 0
-4842 -4841 -105 0
4842 -4841 105 0
4842 4841 -105 0
-4843 4842 106 0
-4843 -4842 -106 0
4843 -4842 106 0
4843 4842 -106 0
-4844 4843 107 0
-4844 -4843 -107 0
4844 -4843 107 0
4844 4843 -107 0
-4845 4844 108 0
-4845 -4844 -108 0
4845 -4844 108 0
4845 4844 -108 0
-4846 4845 109 0
-4846 -4845 -109 0
4846 -4845 109 0
4846 4845 -109 0
-4847 4846 110 0
-4847 -4846 -110 0
4847 -4846 110 0
4847 4846 -110 0
-4848 4847 111 0
-4848 -4847 -111 0
4848 -4847 111 0
4848 4847 -111 0
-4849 4848 114 0
-4849 -4848 -114 0
4849 -4848 114 0
4849 4848 -114 0
-4850 4849 115 0
-4850 -4849 -115 0
4850 -4849 115 0
4850 4849 -115 0
-4851 4850 117 0
-4851 -4850 -117 0
4851 -4850 117 0
4851 4850 -117 0
-4852 4851 118 0
-4852 -4851 -118 0
4852 -4851 118 0
4852 4851 -118 0
-4853 4852 119 0
-4853 -4852 -119 0
4853 -4852 119 0
4853 4852 -119 0
-4854 4853 122 0
-4854 -4853 -122 0
4854 -4853 122 0
4854 4853 -122 0
-4855 4854 123 0
-4855 -4854 -123 0
4855 -4854 123 0
4855 4854 -123 0
-4856 4855 125 0
-4856 -4855 -125 0
4856 -4855 125 0
4856 4855 -125 0
-4857 4856 126 0
-4857 -4856 -126 0
4857 -4856 126 0
4857 4856 -126 0
-4858 4857 127 0
-4858 -4857 -127 0
4858 -4857 127 0
4858 4857 -127 0
-4859 4858 128 0
-4859 -4858 -128 0
4859 -4858 128 0
4859 4858 -128 0
-4860 4859 131 0
-4860 -4859 -131 0
4860 -4859 131 0
4860 4859 -131 0
-4861 4860 132 0
-4861 -4860 -132 0
4861 -4860 132 0
4861 4860 -132 0
-4862 4861 133 0
-4862 -4861 -133 0
4862 -4861 133 0
4862 4861 -133 0
-4863 4862 134 0
-4863 -4862 -134 0
4863 -4862 134 0
4863 4862 -134 0
-4864 4863 135 0
-4864 -4863 -135 0
4864 -4863 135 0
4864 4863 -135 0
-4865 4864 136 0
-4865 -4864 -136 0
4865 -4864 136 0
4865 4864 -136 0
-4866 4865 137 0
-4866 -4865 -137 0
4866 -4865 137 0
4866 4865 -137 0
-4867 4866 138 0
-4867 -4866 -138 0
4867 -4866 138 0
4867 4866 -138 0
-4868 4867 139 0
-4868 -4867 -139 0
4868 -4867 139 0
4868 4867 -139 0
-4869 4868 141 0
-4869 -4868 -141 0
4869 -4868 141 0
4869 4868 -141 0
-4870 4869 143 0
-4870 -4869 -143 0
4870 -4869 143 0
4870 4869 -143 0
-4871 4870 144 0
-4871 -4870 -144 0
4871 -4870 144 0
4871 4870 -144 0
-4872 4871 207 0
-4872 -4871 -207 0
4872 -4871 207 0
4872 4871 -207 0
-4873 4872 214 0
-4873 -4872 -214 0
4873 -4872 214 0
4873 4872 -214 0
-4874 4873 215 0
-4874 -4873 -215 0
4874 -4873 215 0
4874 4873 -215 0
-4875 4874 218 0
-4875 -4874 -218 0
4875 -4874 218 0
4875 4874 -218 0
-4876 4875 219 0
-4876 -4875 -219 0
4876 -4875 219 0
4876 4875 -219 0
-4877 4876 220 0
-4877 -4876 -220 0
4877 -4876 220 0
4877 4876 -220 0
-4878 4877 221 0
-4878 -4877 -221 0
4878 -4877 221 0
4878 4877 -221 0
-4879 4878 223 0
-4879 -4878 -223 0
4879 -4878 223 0
4879 4878 -223 0
-4880 4879 225 0
-4880 -4879 -225 0
4880 -4879 225 0
4880 4879 -225 0
-4881 4880 229 0
-4881 -4880 -229 0
4881 -4880 229 0
4881 4880 -229 0
-4882 4881 230 0
-4882 -4881 -230 0
4882 -4881 230 0
4882 4881 -230 0
-4883 4882 231 0
-4883 -4882 -231 0
4883 -4882 231 0
4883 4882 -231 0
-4884 4883 232 0
-4884 -4883 -232 0
4884 -4883 232 0
4884 4883 -232 0
-4885 4884 233 0
-4885 -4884 -233 0
4885 -4884 233 0
4885 4884 -233 0
-4886 4885 234 0
-4886 -4885 -234 0
4886 -4885 234 0
4886 4885 -234 0
-4887 4886 236 0
-4887 -4886 -236 0
4887 -4886 236 0
4887 4886 -236 0
-4888 4887 237 0
-4888 -4887 -237 0
4888 -4887 237 0
4888 4887 -237 0
-4889 4888 243 0
-4889 -4888 -243 0
4889 -4888 243 0
4889 4888 -243 0
-4890 4889 245 0
-4890 -4889 -245 0
4890 -4889 245 0
4890 4889 -245 0
-4891 4890 248 0
-4891 -4890 -248 0
4891 -4890 248 0
4891 4890 -248 0
-4892 4891 250 0
-4892 -4891 -250 0
4892 -4891 250 0
4892 4891 -250 0
-4893 4892 251 0
-4893 -4892 -251 0
4893 -4892 251 0
4893 4892 -251 0
-4894 4893 252 0
-4894 -4893 -252 0
4894 -4893 252 0
4894 4893 -252 0
-4895 4894 254 0
-4895 -4894 -254 0
4895 -4894 254 0
4895 4894 -254 0
-4896 4895 255 0
-4896 -4895 -255 0
4896 -4895 255 0
4896 4895 -255 0
-4897 4896 256 0
-4897 -4896 -256 0
4897 -4896 256 0
4897 4896 -256 0
-4898 4897 257 0
-4898 -4897 -257 0
4898 -4897 257 0
4898 4897 -257 0
-4899 4898 259 0
-4899 -4898 -259 0
4899 -4898 259 0
4899 4898 -259 0
-4900 4899 261 0
-4900 -4899 -261 0
4900 -4899 261 0
4900 4899 -261 0
-4901 4900 263 0
-4901 -4900 -263 0
4901 -4900 263 0
4901 4900 -263 0
-4902 4901 266 0
-4902 -4901 -266 0
4902 -4901 266 0
4902 4901 -266 0
-4903 4902 267 0
-4903 -4902 -267 0
4903 -4902 267 0
4903 4902 -267 0
-4904 4903 268 0
-4904 -4903 -268 0
4904 -4903 268 0
4904 4903 -268 0
-4905 4904 269 0
-4905 -4904 -269 0
4905 -4904 269 0
4905 4904 -269 0
-4906 4905 270 0
-4906 -4905 -270 0
4906 -4905 270 0
4906 4905 -270 0
-4907 4906 272 0
-4907 -4906 -272 0
4907 -4906 272 0
4907 4906 -272 0
-4908 4907 273 0
-4908 -4907 -273 0
4908 -4907 273 0
4908 4907 -273 0
-4909 4908 279 0
-4909 -4908 -279 0
4909 -4908 279 0
4909 4908 -279 0
-4910 4909 281 0
-4910 -4909 -281 0
4910 -4909 281 0
4910 4909 -281 0
-4911 4910 282 0
-4911 -4910 -282 0
4911 -4910 282 0
4911 4910 -282 0
-4912 4911 284 0
-4912 -4911 -284 0
4912 -4911 284 0
4912 4911 -284 0
-4913 4912 286 0
-4913 -4912 -286 0
4913 -4912 286 0
4913 4912 -286 0
-4914 4913 287 0
-4914 -4913 -287 0
4914 -4913 287 0
4914 4913 -287 0
-4915 4914 288 0
-4915 -4914 -288 0
4915 -4914 288 0
4915 4914 -288 0
-4915 0
-4916 69 70 0
-4916 -69 -70 0
4916 -69 70 0
4916 69 -70 0
-4917 4916 71 0
-4917 -4916 -71 0
4917 -4916 71 0
4917 4916 -71 0
-4918 4917 75 0
-4918 -4917 -75 0
4918 -4917 75 0
4918 4917 -75 0
-4919 4918 76 0
-4919 -4918 -76 0
4919 -4918 76 0
4919 4918 -76 0
-4920 4919 79 0
-4920 -4919 -79 0
4920 -4919 79 0
4920 4919 -79 0
-4921 4920 81 0
-4921 -4920 -81 0
4921 -4920 81 0
4921 4920 -81 0
-4922 4921 82 0
-4922 -4921 -82 0
4922 -4921 82 0
4922 4921 -82 0
-4923 4922 83 0
-4923 -4922 -83 0
4923 -4922 83 0
4923 4922 -83 0
-4924 4923 84 0
-4924 -4923 -84 0
4924 -4923 84 0
4924 4923 -84 0
-4925 4924 85 0
-4925 -4924 -85 0
4925 -4924 85 0
4925 4924 -85 0
-4926 4925 86 0
-4926 -4925 -86 0
4926 -4925 86 0
4926 4925 -86 0
-4927 4926 87 0
-4927 -4926 -87 0
4927 -4926 87 0
4927 4926 -87 0
-4928 4927 89 0
-4928 -4927 -89 0
4928 -4927 89 0
4928 4927 -89 0
-4929 4928 90 0
-4929 -4928 -90 0
4929 -4928 90 0
4929 4928 -90 0
-4930 4929 91 0
-4930 -4929 -91 0
4930 -4929 91 0
4930 4929 -91 0
-4931 4930 92 0
-4931 -4930 -92 0
4931 -4930 92 0
4931 4930 -92 0
-4932 4931 96 0
-4932 -4931 -96 0
4932 -4931 96 0
4932 4931 -96 0
-4933 4932 97 0
-4933 -4932 -97 0
4933 -4932 97 0
4933 4932 -97 0
-4934 4933 98 0
-4934 -4933 -98 0
4934 -4933 98 0
4934 4933 -98 0
-4935 4934 99 0
-4935 -4934 -99 0
4935 -4934 99 0
4935 4934 -99 0
-4936 4935 101 0
-4936 -4935 -101 0
4936 -4935 101 0
4936 4935 -101 0
-4937 4936 103 0
-4937 -4936 -103 0
4937 -4936 103 0
4937 4936 -103 0
-4938 4937 104 0
-4938 -4937 -104 0
4938 -4937 104 0
4938 4937 -104 0
-4939 4938 105 0
-4939 -4938 -105 0
4939 -4938 105 0
4939 4938 -105 0
-4940 4939 107 0
-4940 -4939 -107 0
4940 -4939 107 0
4940 4939 -107 0
-4941 4940 110 0
-4941 -4940 -110 0
4941 -4940 110 0
4941 4940 -110 0
-4942 4941 112 0
-4942 -4941 -112 0
4942 -4941 112 0
4942 4941 -112 0
-4943 4942 113 0
-4943 -4942 -113 0
4943 -4942 113 0
4943 4942 -113 0
-4944 4943 119 0
-4944 -4943 -119 0
4944 -4943 119 0
4944 4943 -119 0
-4945 4944 122 0
-4945 -4944 -122 0
4945 -4944 122 0
4945 4944 -122 0
-4946 4945 125 0
-4946 -4945 -125 0
4946 -4945 125 0
4946 4945 -125 0
-4947 4946 130 0
-4947 -4946 -130 0
4947 -4946 130 0
4947 4946 -130 0
-4948 4947 131 0
-4948 -4947 -131 0
4948 -4947 131 0
4948 4947 -131 0
-4949 4948 133 0
-4949 -4948 -133 0
4949 -4948 133 0
4949 4948 -133 0
-4950 4949 135 0
-4950 -4949 -135 0
4950 -4949 135 0
4950 4949 -135 0
-4951 4950 137 0
-4951 -4950 -137 0
4951 -4950 137 0
4951 4950 -137 0
-4952 4951 139 0
-4952 -4951 -139 0
4952 -4951 139 0
4952 4951 -139 0
-4953 4952 208 0
-4953 -4952 -208 0
4953 -4952 208 0
4953 4952 -208 0
-4954 4953 215 0
-4954 -4953 -215 0
4954 -4953 215 0
4954 4953 -215 0
-4955 4954 216 0
-4955 -4954 -216 0
4955 -4954 216 0
4955 4954 -216 0
-4956 4955 219 0
-4956 -4955 -219 0
4956 -4955 219 0
4956 4955 -219 0
-4957 4956 220 0
-4957 -4956 -220 0
4957 -4956 220 0
4957 4956 -220 0
-4958 4957 221 0
-4958 -4957 -221 0
4958 -4957 221 0
4958 4957 -221 0
-4959 4958 222 0
-4959 -4958 -222 0
4959 -4958 222 0
4959 4958 -222 0
-4960 4959 224 0
-4960 -4959 -224 0
4960 -4959 224 0
4960 4959 -224 0
-4961 4960 226 0
-4961 -4960 -226 0
4961 -4960 226 0
4961 4960 -226 0
-4962 4961 229 0
-4962 -4961 -229 0
4962 -4961 229 0
4962 4961 -229 0
-4963 4962 230 0
-4963 -4962 -230 0
4963 -4962 230 0
4963 4962 -230 0
-4964 4963 231 0
-4964 -4963 -231 0
4964 -4963 231 0
4964 4963 -231 0
-4965 4964 232 0
-4965 -4964 -232 0
4965 -4964 232 0
4965 4964 -232 0
-4966 4965 233 0
-4966 -4965 -233 0
4966 -4965 233 0
4966 4965 -233 0
-4967 4966 234 0
-4967 -4966 -234 0
4967 -4966 234 0
4967 4966 -234 0
-4968 4967 237 0
-4968 -4967 -237 0
4968 -4967 237 0
4968 4967 -237 0
-4969 4968 238 0
-4969 -4968 -238 0
4969 -4968 238 0
4969 4968 -238 0
-4970 4969 244 0
-4970 -4969 -244 0
4970 -4969 244 0
4970 4969 -244 0
-4971 4970 246 0
-4971 -4970 -246 0
4971 -4970 246 0
4971 4970 -246 0
-4972 4971 247 0
-4972 -4971 -247 0
4972 -4971 247 0
4972 4971 -247 0
-4973 4972 249 0
-4973 -4972 -249 0
4973 -4972 249 0
4973 4972 -249 0
-4974 4973 251 0
-4974 -4973 -251 0
4974 -4973 251 0
4974 4973 -251 0
-4975 4974 252 0
-4975 -4974 -252 0
4975 -4974 252 0
4975 4974 -252 0
-4976 4975 255 0
-4976 -4975 -255 0
4976 -4975 255 0
4976 4975 -255 0
-4977 4976 256 0
-4977 -4976 -256 0
4977 -4976 256 0
4977 4976 -256 0
-4978 4977 257 0
-4978 -4977 -257 0
4978 -4977 257 0
4978 4977 -257 0
-4979 4978 258 0
-4979 -4978 -258 0
4979 -4978 258 0
4979 4978 -258 0
-4980 4979 260 0
-4980 -4979 -260 0
4980 -4979 260 0
4980 4979 -260 0
-4981 4980 262 0
-4981 -4980 -262 0
4981 -4980 262 0
4981 4980 -262 0
-4982 4981 264 0
-4982 -4981 -264 0
4982 -4981 264 0
4982 4981 -264 0
-4983 4982 265 0
-4983 -4982 -265 0
4983 -4982 265 0
4983 4982 -265 0
-4984 4983 267 0
-4984 -4983 -267 0
4984 -4983 267 0
4984 4983 -267 0
-4985 4984 268 0
-4985 -4984 -268 0
4985 -4984 268 0
4985 4984 -268 0
-4986 4985 269 0
-4986 -4985 -269 0
4986 -4985 269 0
4986 4985 -269 0
-4987 4986 270 0
-4987 -4986 -270 0
4987 -4986 270 0
4987 4986 -270 0
-4988 4987 273 0
-4988 -4987 -273 0
4988 -4987 273 0
4988 4987 -273 0
-4989 4988 274 0
-4989 -4988 -274 0
4989 -4988 274 0
4989 4988 -274 0
-4990 4989 277 0
-4990 -4989 -277 0
4990 -4989 277 0
4990 4989 -277 0
-4991 4990 280 0
-4991 -4990 -280 0
4991 -4990 280 0
4991 4990 -280 0
-4992 4991 282 0
-4992 -4991 -282 0
4992 -4991 282 0
4992 4991 -282 0
-4993 4992 283 0
-4993 -4992 -283 0
4993 -4992 283 0
4993 4992 -283 0
-4994 4993 285 0
-4994 -4993 -285 0
4994 -4993 285 0
4994 4993 -285 0
-4995 4994 287 0
-4995 -4994 -287 0
4995 -4994 287 0
4995 4994 -287 0
-4996 4995 288 0
-4996 -4995 -288 0
4996 -4995 288 0
4996 4995 -288 0
-4996 0
-4997 70 71 0
-4997 -70 -71 0
4997 -70 71 0
4997 70 -71 0
-4998 4997 72 0
-4998 -4997 -72 0
4998 -4997 72 0
4998 4997 -72 0
-4999 4998 76 0
-4999 -4998 -76 0
4999 -4998 76 0
4999 4998 -76 0
-5000 4999 77 0
-5000 -4999 -77 0
5000 -4999 77 0
5000 4999 -77 0
-5001 5000 80 0
-5001 -5000 -80 0
5001 -5000 80 0
5001 5000 -80 0
-5002 5001 81 0
-5002 -5001 -81 0
5002 -5001 81 0
5002 5001 -81 0
-5003 5002 82 0
-5003 -5002 -82 0
5003 -5002 82 0
5003 5002 -82 0
-5004 5003 84 0
-5004 -5003 -84 0
5004 -5003 84 0
5004 5003 -84 0
-5005 5004 86 0
-5005 -5004 -86 0
5005 -5004 86 0
5005 5004 -86 0
-5006 5005 88 0
-5006 -5005 -88 0
5006 -5005 88 0
5006 5005 -88 0
-5007 5006 89 0
-5007 -5006 -89 0
5007 -5006 89 0
5007 5006 -89 0
-5008 5007 90 0
-5008 -5007 -90 0
5008 -5007 90 0
5008 5007 -90 0
-5009 5008 92 0
-5009 -5008 -92 0
5009 -5008 92 0
5009 5008 -92 0
-5010 5009 95 0
-5010 -5009 -95 0
5010 -5009 95 0
5010 5009 -95 0
-5011 5010 98 0
-5011 -5010 -98 0
5011 -5010 98 0
5011 5010 -98 0
-5012 5011 99 0
-5012 -5011 -99 0
5012 -5011 99 0
5012 5011 -99 0
-5013 5012 100 0
-5013 -5012 -100 0
5013 -5012 100 0
5013 5012 -100 0
-5014 5013 102 0
-5014 -5013 -102 0
5014 -5013 102 0
5014 5013 -102 0
-5015 5014 104 0
-5015 -5014 -104 0
5015 -5014 104 0
5015 5014 -104 0
-5016 5015 105 0
-5016 -5015 -105 0
5016 -5015 105 0
5016 5015 -105 0
-5017 5016 106 0
-5017 -5016 -106 0
5017 -5016 106 0
5017 5016 -106 0
-5018 5017 108 0
-5018 -5017 -108 0
5018 -5017 108 0
5018 5017 -108 0
-5019 5018 109 0
-5019 -5018 -109 0
5019 -5018 109 0
5019 5018 -109 0
-5020 5019 114 0
-5020 -5019 -114 0
5020 -5019 114 0
5020 5019 -114 0
-5021 5020 120 0
-5021 -5020 -120 0
5021 -5020 120 0
5021 5020 -120 0
-5022 5021 123 0
-5022 -5021 -123 0
5022 -5021 123 0
5022 5021 -123 0
-5023 5022 126 0
-5023 -5022 -126 0
5023 -5022 126 0
5023 5022 -126 0
-5024 5023 131 0
-5024 -5023 -131 0
5024 -5023 131 0
5024 5023 -131 0
-5025 5024 132 0
-5025 -5024 -132 0
5025 -5024 132 0
5025 5024 -132 0
-5026 5025 134 0
-5026 -5025 -134 0
5026 -5025 134 0
5026 5025 -134 0
-5027 5026 136 0
-5027 -5026 -136 0
5027 -5026 136 0
5027 5026 -136 0
-5028 5027 138 0
-5028 -5027 -138 0
5028 -5027 138 0
5028 5027 -138 0
-5029 5028 140 0
-5029 -5028 -140 0
5029 -5028 140 0
5029 5028 -140 0
-5030 5029 209 0
-5030 -5029 -209 0
5030 -5029 209 0
5030 5029 -209 0
-5031 5030 213 0
-5031 -5030 -213 0
5031 -5030 213 0
5031 5030 -213 0
-5032 5031 215 0
-5032 -5031 -215 0
5032 -5031 215 0
5032 5031 -215 0
-5033 5032 216 0
-5033 -5032 -216 0
5033 -5032 216 0
5033 5032 -216 0
-5034 5033 217 0
-5034 -5033 -217 0
5034 -5033 217 0
5034 5033 -217 0
-5035 5034 220 0
-5035 -5034 -220 0
5035 -5034 220 0
5035 5034 -220 0
-5036 5035 221 0
-5036 -5035 -221 0
5036 -5035 221 0
5036 5035 -221 0
-5037 5036 222 0
-5037 -5036 -222 0
5037 -5036 222 0
5037 5036 -222 0
-5038 5037 225 0
-5038 -5037 -225 0
5038 -5037 225 0
5038 5037 -225 0
-5039 5038 227 0
-5039 -5038 -227 0
5039 -5038 227 0
5039 5038 -227 0
-5040 5039 229 0
-5040 -5039 -229 0
5040 -5039 229 0
5040 5039 -229 0
-5041 5040 230 0
-5041 -5040 -230 0
5041 -5040 230 0
5041 5040 -230 0
-5042 5041 231 0
-5042 -5041 -231 0
5042 -5041 231 0
5042 5041 -231 0
-5043 5042 232 0
-5043 -5042 -232 0
5043 -5042 232 0
5043 5042 -232 0
-5044 5043 233 0
-5044 -5043 -233 0
5044 -5043 233 0
5044 5043 -233 0
-5045 5044 234 0
-5045 -5044 -234 0
5045 -5044 234 0
5045 5044 -234 0
-5046 5045 235 0
-5046 -5045 -235 0
5046 -5045 235 0
5046 5045 -235 0
-5047 5046 236 0
-5047 -5046 -236 0
5047 -5046 236 0
5047 5046 -236 0
-5048 5047 237 0
-5048 -5047 -237 0
5048 -5047 237 0
5048 5047 -237 0
-5049 5048 240 0
-5049 -5048 -240 0
5049 -5048 240 0
5049 5048 -240 0
-5050 5049 242 0
-5050 -5049 -242 0
5050 -5049 242 0
5050 5049 -242 0
-5051 5050 243 0
-5051 -5050 -243 0
5051 -5050 243 0
5051 5050 -243 0
-5052 5051 244 0
-5052 -5051 -244 0
5052 -5051 244 0
5052 5051 -244 0
-5053 5052 246 0
-5053 -5052 -246 0
5053 -5052 246 0
5053 5052 -246 0
-5054 5053 247 0
-5054 -5053 -247 0
5054 -5053 247 0
5054 5053 -247 0
-5055 5054 248 0
-5055 -5054 -248 0
5055 -5054 248 0
5055 5054 -248 0
-5056 5055 250 0
-5056 -5055 -250 0
5056 -5055 250 0
5056 5055 -250 0
-5057 5056 252 0
-5057 -5056 -252 0
5057 -5056 252 0
5057 5056 -252 0
-5058 5057 254 0
-5058 -5057 -254 0
5058 -5057 254 0
5058 5057 -254 0
-5059 5058 255 0
-5059 -5058 -255 0
5059 -5058 255 0
5059 5058 -255 0
-5060 5059 259 0
-5060 -5059 -259 0
5060 -5059 259 0
5060 5059 -259 0
-5061 5060 261 0
-5061 -5060 -261 0
5061 -5060 261 0
5061 5060 -261 0
-5062 5061 263 0
-5062 -5061 -263 0
5062 -5061 263 0
5062 5061 -263 0
-5063 5062 266 0
-5063 -5062 -266 0
5063 -5062 266 0
5063 5062 -266 0
-5064 5063 267 0
-5064 -5063 -267 0
5064 -5063 267 0
5064 5063 -267 0
-5065 5064 268 0
-5065 -5064 -268 0
5065 -5064 268 0
5065 5064 -268 0
-5066 5065 270 0
-5066 -5065 -270 0
5066 -5065 270 0
5066 5065 -270 0
-5067 5066 271 0
-5067 -5066 -271 0
5067 -5066 271 0
5067 5066 -271 0
-5068 5067 273 0
-5068 -5067 -273 0
5068 -5067 273 0
5068 5067 -273 0
-5069 5068 274 0
-5069 -5068 -274 0
5069 -5068 274 0
5069 5068 -274 0
-5070 5069 277 0
-5070 -5069 -277 0
5070 -5069 277 0
5070 5069 -277 0
-5071 5070 278 0
-5071 -5070 -278 0
5071 -5070 278 0
5071 5070 -278 0
-5072 5071 281 0
-5072 -5071 -281 0
5072 -5071 281 0
5072 5071 -281 0
-5073 5072 283 0
-5073 -5072 -283 0
5073 -5072 283 0
5073 5072 -283 0
-5073 0
-5074 69 72 0
-5074 -69 -72 0
5074 -69 72 0
5074 69 -72 0
-5075 5074 74 0
-5075 -5074 -74 0
5075 -5074 74 0
5075 5074 -74 0
-5076 5075 76 0
-5076 -5075 -76 0
5076 -5075 76 0
5076 5075 -76 0
-5077 5076 77 0
-5077 -5076 -77 0
5077 -5076 77 0
5077 5076 -77 0
-5078 5077 82 0
-5078 -5077 -82 0
5078 -5077 82 0
5078 5077 -82 0
-5079 5078 90 0
-5079 -5078 -90 0
5079 -5078 90 0
5079 5078 -90 0
-5080 5079 93 0
-5080 -5079 -93 0
5080 -5079 93 0
5080 5079 -93 0
-5081 5080 96 0
-5081 -5080 -96 0
5081 -5080 96 0
5081 5080 -96 0
-5082 5081 98 0
-5082 -5081 -98 0
5082 -5081 98 0
5082 5081 -98 0
-5083 5082 102 0
-5083 -5082 -102 0
5083 -5082 102 0
5083 5082 -102 0
-5084 5083 103 0
-5084 -5083 -103 0
5084 -5083 103 0
5084 5083 -103 0
-5085 5084 104 0
-5085 -5084 -104 0
5085 -5084 104 0
5085 5084 -104 0
-5086 5085 105 0
-5086 -5085 -105 0
5086 -5085 105 0
5086 5085 -105 0
-5087 5086 107 0
-5087 -5086 -107 0
5087 -5086 107 0
5087 5086 -107 0
-5088 5087 108 0
-5088 -5087 -108 0
5088 -5087 108 0
5088 5087 -108 0
-5089 5088 109 0
-5089 -5088 -109 0
5089 -5088 109 0
5089 5088 -109 0
-5090 5089 110 0
-5090 -5089 -110 0
5090 -5089 110 0
5090 5089 -110 0
-5091 5090 115 0
-5091 -5090 -115 0
5091 -5090 115 0
5091 5090 -115 0
-5092 5091 116 0
-5092 -5091 -116 0
5092 -5091 116 0
5092 5091 -116 0
-5093 5092 118 0
-5093 -5092 -118 0
5093 -5092 118 0
5093 5092 -118 0
-5094 5093 120 0
-5094 -5093 -120 0
5094 -5093 120 0
5094 5093 -120 0
-5095 5094 122 0
-5095 -5094 -122 0
5095 -5094 122 0
5095 5094 -122 0
-5096 5095 123 0
-5096 -5095 -123 0
5096 -5095 123 0
5096 5095 -123 0
-5097 5096 125 0
-5097 -5096 -125 0
5097 -5096 125 0
5097 5096 -125 0
-5098 5097 126 0
-5098 -5097 -126 0
5098 -5097 126 0
5098 5097 -126 0
-5099 5098 128 0
-5099 -5098 -128 0
5099 -5098 128 0
5099 5098 -128 0
-5100 5099 129 0
-5100 -5099 -129 0
5100 -5099 129 0
5100 5099 -129 0
-5101 5100 130 0
-5101 -5100 -130 0
5101 -5100 130 0
5101 5100 -130 0
-5102 5101 131 0
-5102 -5101 -131 0
5102 -5101 131 0
5102 5101 -131 0
-5103 5102 133 0
-5103 -5102 -133 0
5103 -5102 133 0
5103 5102 -133 0
-5104 5103 134 0
-5104 -5103 -134 0
5104 -5103 134 0
5104 5103 -134 0
-5105 5104 135 0
-5105 -5104 -135 0
5105 -5104 135 0
5105 5104 -135 0
-5106 5105 136 0
-5106 -5105 -136 0
5106 -5105 136 0
5106 5105 -136 0
-5107 5106 137 0
-5107 -5106 -137 0
5107 -5106 137 0
5107 5106 -137 0
-5108 5107 138 0
-5108 -5107 -138 0
5108 -5107 138 0
5108 5107 -138 0
-5109 5108 140 0
-5109 -5108 -140 0
5109 -5108 140 0
5109 5108 -140 0
-5110 5109 141 0
-5110 -5109 -141 0
5110 -5109 141 0
5110 5109 -141 0
-5111 5110 142 0
-5111 -5110 -142 0
5111 -5110 142 0
5111 5110 -142 0
-5112 5111 144 0
-5112 -5111 -144 0
5112 -5111 144 0
5112 5111 -144 0
-5113 5112 210 0
-5113 -5112 -210 0
5113 -5112 210 0
5113 5112 -210 0
-5114 5113 213 0
-5114 -5113 -213 0
5114 -5113 213 0
5114 5113 -213 0
-5115 5114 214 0
-5115 -5114 -214 0
5115 -5114 214 0
5115 5114 -214 0
-5116 5115 215 0
-5116 -5115 -215 0
5116 -5115 215 0
5116 5115 -215 0
-5117 5116 216 0
-5117 -5116 -216 0
5117 -5116 216 0
5117 5116 -216 0
-5118 5117 217 0
-5118 -5117 -217 0
5118 -5117 217 0
5118 5117 -217 0
-5119 5118 218 0
-5119 -5118 -218 0
5119 -5118 218 0
5119 5118 -218 0
-5120 5119 221 0
-5120 -5119 -221 0
5120 -5119 221 0
5120 5119 -221 0
-5121 5120 222 0
-5121 -5120 -222 0
5121 -5120 222 0
5121 5120 -222 0
-5122 5121 226 0
-5122 -5121 -226 0
5122 -5121 226 0
5122 5121 -226 0
-5123 5122 228 0
-5123 -5122 -228 0
5123 -5122 228 0
5123 5122 -228 0
-5124 5123 229 0
-5124 -5123 -229 0
5124 -5123 229 0
5124 5123 -229 0
-5125 5124 230 0
-5125 -5124 -230 0
5125 -5124 230 0
5125 5124 -230 0
-5126 5125 231 0
-5126 -5125 -231 0
5126 -5125 231 0
5126 5125 -231 0
-5127 5126 232 0
-5127 -5126 -232 0
5127 -5126 232 0
5127 5126 -232 0
-5128 5127 233 0
-5128 -5127 -233 0
5128 -5127 233 0
5128 5127 -233 0
-5129 5128 234 0
-5129 -5128 -234 0
5129 -5128 234 0
5129 5128 -234 0
-5130 5129 239 0
-5130 -5129 -239 0
5130 -5129 239 0
5130 5129 -239 0
-5131 5130 240 0
-5131 -5130 -240 0
5131 -5130 240 0
5131 5130 -240 0
-5132 5131 242 0
-5132 -5131 -242 0
5132 -5131 242 0
5132 5131 -242 0
-5133 5132 246 0
-5133 -5132 -246 0
5133 -5132 246 0
5133 5132 -246 0
-5134 5133 247 0
-5134 -5133 -247 0
5134 -5133 247 0
5134 5133 -247 0
-5135 5134 248 0
-5135 -5134 -248 0
5135 -5134 248 0
5135 5134 -248 0
-5136 5135 249 0
-5136 -5135 -249 0
5136 -5135 249 0
5136 5135 -249 0
-5137 5136 251 0
-5137 -5136 -251 0
5137 -5136 251 0
5137 5136 -251 0
-5138 5137 253 0
-5138 -5137 -253 0
5138 -5137 253 0
5138 5137 -253 0
-5139 5138 254 0
-5139 -5138 -254 0
5139 -5138 254 0
5139 5138 -254 0
-5140 5139 257 0
-5140 -5139 -257 0
5140 -5139 257 0
5140 5139 -257 0
-5141 5140 258 0
-5141 -5140 -258 0
5141 -5140 258 0
5141 5140 -258 0
-5142 5141 260 0
-5142 -5141 -260 0
5142 -5141 260 0
5142 5141 -260 0
-5143 5142 262 0
-5143 -5142 -262 0
5143 -5142 262 0
5143 5142 -262 0
-5144 5143 264 0
-5144 -5143 -264 0
5144 -5143 264 0
5144 5143 -264 0
-5145 5144 268 0
-5145 -5144 -268 0
5145 -5144 268 0
5145 5144 -268 0
-5146 5145 271 0
-5146 -5145 -271 0
5146 -5145 271 0
5146 5145 -271 0
-5147 5146 272 0
-5147 -5146 -272 0
5147 -5146 272 0
5147 5146 -272 0
-5148 5147 273 0
-5148 -5147 -273 0
5148 -5147 273 0
5148 5147 -273 0
-5149 5148 274 0
-5149 -5148 -274 0
5149 -5148 274 0
5149 5148 -274 0
-5150 5149 278 0
-5150 -5149 -278 0
5150 -5149 278 0
5150 5149 -278 0
-5151 5150 279 0
-5151 -5150 -279 0
5151 -5150 279 0
5151 5150 -279 0
-5152 5151 282 0
-5152 -5151 -282 0
5152 -5151 282 0
5152 5151 -282 0
-5153 5152 286 0
-5153 -5152 -286 0
5153 -5152 286 0
5153 5152 -286 0
-5154 5153 288 0
-5154 -5153 -288 0
5154 -5153 288 0
5154 5153 -288 0
-5154 0
-5155 79 81 0
-5155 -79 -81 0
5155 -79 81 0
5155 79 -81 0
-5156 5155 83 0
-5156 -5155 -83 0
5156 -5155 83 0
5156 5155 -83 0
-5157 5156 85 0
-5157 -5156 -85 0
5157 -5156 85 0
5157 5156 -85 0
-5158 5157 87 0
-5158 -5157 -87 0
5158 -5157 87 0
5158 5157 -87 0
-5159 5158 89 0
-5159 -5158 -89 0
5159 -5158 89 0
5159 5158 -89 0
-5160 5159 91 0
-5160 -5159 -91 0
5160 -5159 91 0
5160 5159 -91 0
-5161 5160 93 0
-5161 -5160 -93 0
5161 -5160 93 0
5161 5160 -93 0
-5162 5161 95 0
-5162 -5161 -95 0
5162 -5161 95 0
5162 5161 -95 0
-5163 5162 109 0
-5163 -5162 -109 0
5163 -5162 109 0
5163 5162 -109 0
-5164 5163 111 0
-5164 -5163 -111 0
5164 -5163 111 0
5164 5163 -111 0
-5165 5164 113 0
-5165 -5164 -113 0
5165 -5164 113 0
5165 5164 -113 0
-5166 5165 211 0
-5166 -5165 -211 0
5166 -5165 211 0
5166 5165 -211 0
-5167 5166 213 0
-5167 -5166 -213 0
5167 -5166 213 0
5167 5166 -213 0
-5168 5167 215 0
-5168 -5167 -215 0
5168 -5167 215 0
5168 5167 -215 0
-5169 5168 235 0
-5169 -5168 -235 0
5169 -5168 235 0
5169 5168 -235 0
-5170 5169 236 0
-5170 -5169 -236 0
5170 -5169 236 0
5170 5169 -236 0
-5171 5170 237 0
-5171 -5170 -237 0
5171 -5170 237 0
5171 5170 -237 0
-5172 5171 238 0
-5172 -5171 -238 0
5172 -5171 238 0
5172 5171 -238 0
-5173 5172 239 0
-5173 -5172 -239 0
5173 -5172 239 0
5173 5172 -239 0
-5174 5173 240 0
-5174 -5173 -240 0
5174 -5173 240 0
5174 5173 -240 0
-5175 5174 241 0
-5175 -5174 -241 0
5175 -5174 241 0
5175 5174 -241 0
-5176 5175 242 0
-5176 -5175 -242 0
5176 -5175 242 0
5176 5175 -242 0
-5177 5176 243 0
-5177 -5176 -243 0
5177 -5176 243 0
5177 5176 -243 0
-5178 5177 244 0
-5178 -5177 -244 0
5178 -5177 244 0
5178 5177 -244 0
-5179 5178 245 0
-5179 -5178 -245 0
5179 -5178 245 0
5179 5178 -245 0
-5180 5179 246 0
-5180 -5179 -246 0
5180 -5179 246 0
5180 5179 -246 0
-5181 5180 253 0
-5181 -5180 -253 0
5181 -5180 253 0
5181 5180 -253 0
-5182 5181 254 0
-5182 -5181 -254 0
5182 -5181 254 0
5182 5181 -254 0
-5183 5182 255 0
-5183 -5182 -255 0
5183 -5182 255 0
5183 5182 -255 0
-5184 5183 256 0
-5184 -5183 -256 0
5184 -5183 256 0
5184 5183 -256 0
-5185 5184 257 0
-5185 -5184 -257 0
5185 -5184 257 0
5185 5184 -257 0
-5186 5185 258 0
-5186 -5185 -258 0
5186 -5185 258 0
5186 5185 -258 0
-5187 5186 265 0
-5187 -5186 -265 0
5187 -5186 265 0
5187 5186 -265 0
-5188 5187 267 0
-5188 -5187 -267 0
5188 -5187 267 0
5188 5187 -267 0
-5189 5188 269 0
-5189 -5188 -269 0
5189 -5188 269 0
5189 5188 -269 0
-5190 5189 271 0
-5190 -5189 -271 0
5190 -5189 271 0
5190 5189 -271 0
-5191 5190 273 0
-5191 -5190 -273 0
5191 -5190 273 0
5191 5190 -273 0
-5192 5191 275 0
-5192 -5191 -275 0
5192 -5191 275 0
5192 5191 -275 0
-5193 5192 284 0
-5193 -5192 -284 0
5193 -5192 284 0
5193 5192 -284 0
-5194 5193 286 0
-5194 -5193 -286 0
5194 -5193 286 0
5194 5193 -286 0
-5195 5194 288 0
-5195 -5194 -288 0
5195 -5194 288 0
5195 5194 -288 0
-5195 0
-5196 80 82 0
-5196 -80 -82 0
5196 -80 82 0
5196 80 -82 0
-5197 5196 84 0
-5197 -5196 -84 0
5197 -5196 84 0
5197 5196 -84 0
-5198 5197 86 0
-5198 -5197 -86 0
5198 -5197 86 0
5198 5197 -86 0
-5199 5198 88 0
-5199 -5198 -88 0
5199 -5198 88 0
5199 5198 -88 0
-5200 5199 90 0
-5200 -5199 -90 0
5200 -5199 90 0
5200 5199 -90 0
-5201 5200 92 0
-5201 -5200 -92 0
5201 -5200 92 0
5201 5200 -92 0
-5202 5201 94 0
-5202 -5201 -94 0
5202 -5201 94 0
5202 5201 -94 0
-5203 5202 96 0
-5203 -5202 -96 0
5203 -5202 96 0
5203 5202 -96 0
-5204 5203 110 0
-5204 -5203 -110 0
5204 -5203 110 0
5204 5203 -110 0
-5205 5204 112 0
-5205 -5204 -112 0
5205 -5204 112 0
5205 5204 -112 0
-5206 5205 114 0
-5206 -5205 -114 0
5206 -5205 114 0
5206 5205 -114 0
-5207 5206 212 0
-5207 -5206 -212 0
5207 -5206 212 0
5207 5206 -212 0
-5208 5207 214 0
-5208 -5207 -214 0
5208 -5207 214 0
5208 5207 -214 0
-5209 5208 216 0
-5209 -5208 -216 0
5209 -5208 216 0
5209 5208 -216 0
-5210 5209 235 0
-5210 -5209 -235 0
5210 -5209 235 0
5210 5209 -235 0
-5211 5210 236 0
-5211 -5210 -236 0
5211 -5210 236 0
5211 5210 -236 0
-5212 5211 237 0
-5212 -5211 -237 0
5212 -5211 237 0
5212 5211 -237 0
-5213 5212 238 0
-5213 -5212 -238 0
5213 -5212 238 0
5213 5212 -238 0
-5214 5213 239 0
-5214 -5213 -239 0
5214 -5213 239 0
5214 5213 -239 0
-5215 5214 240 0
-5215 -5214 -240 0
5215 -5214 240 0
5215 5214 -240 0
-5216 5215 241 0
-5216 -5215 -241 0
5216 -5215 241 0
5216 5215 -241 0
-5217 5216 242 0
-5217 -5216 -242 0
5217 -5216 242 0
5217 5216 -242 0
-5218 5217 243 0
-5218 -5217 -243 0
5218 -5217 243 0
5218 5217 -243 0
-5219 5218 244 0
-5219 -5218 -244 0
5219 -5218 244 0
5219 5218 -244 0
-5220 5219 245 0
-5220 -5219 -245 0
5220 -5219 245 0
5220 5219 -245 0
-5221 5220 246 0
-5221 -5220 -246 0
5221 -5220 246 0
5221 5220 -246 0
-5222 5221 253 0
-5222 -5221 -253 0
5222 -5221 253 0
5222 5221 -253 0
-5223 5222 254 0
-5223 -5222 -254 0
5223 -5222 254 0
5223 5222 -254 0
-5224 5223 255 0
-5224 -5223 -255 0
5224 -5223 255 0
5224 5223 -255 0
-5225 5224 256 0
-5225 -5224 -256 0
5225 -5224 256 0
5225 5224 -256 0
-5226 5225 257 0
-5226 -5225 -257 0
5226 -5225 257 0
5226 5225 -257 0
-5227 5226 258 0
-5227 -5226 -258 0
5227 -5226 258 0
5227 5226 -258 0
-5228 5227 266 0
-5228 -5227 -266 0
5228 -5227 266 0
5228 5227 -266 0
-5229 5228 268 0
-5229 -5228 -268 0
5229 -5228 268 0
5229 5228 -268 0
-5230 5229 270 0
-5230 -5229 -270 0
5230 -5229 270 0
5230 5229 -270 0
-5231 5230 272 0
-5231 -5230 -272 0
5231 -5230 272 0
5231 5230 -272 0
-5232 5231 274 0
-5232 -5231 -274 0
5232 -5231 274 0
5232 5231 -274 0
-5233 5232 276 0
-5233 -5232 -276 0
5233 -5232 276 0
5233 5232 -276 0
-5234 5233 283 0
-5234 -5233 -283 0
5234 -5233 283 0
5234 5233 -283 0
-5235 5234 285 0
-5235 -5234 -285 0
5235 -5234 285 0
5235 5234 -285 0
-5236 5235 287 0
-5236 -5235 -287 0
5236 -5235 287 0
5236 5235 -287 0
-5236 0
-5237 1 71 0
-5237 -1 -71 0
5237 -1 71 0
5237 1 -71 0
-5238 5237 72 0
-5238 -5237 -72 0
5238 -5237 72 0
5238 5237 -72 0
-5239 5238 76 0
-5239 -5238 -76 0
5239 -5238 76 0
5239 5238 -76 0
-5240 5239 77 0
-5240 -5239 -77 0
5240 -5239 77 0
5240 5239 -77 0
-5241 5240 78 0
-5241 -5240 -78 0
5241 -5240 78 0
5241 5240 -78 0
-5242 5241 79 0
-5242 -5241 -79 0
5242 -5241 79 0
5242 5241 -79 0
-5243 5242 81 0
-5243 -5242 -81 0
5243 -5242 81 0
5243 5242 -81 0
-5244 5243 84 0
-5244 -5243 -84 0
5244 -5243 84 0
5244 5243 -84 0
-5245 5244 85 0
-5245 -5244 -85 0
5245 -5244 85 0
5245 5244 -85 0
-5246 5245 86 0
-5246 -5245 -86 0
5246 -5245 86 0
5246 5245 -86 0
-5247 5246 87 0
-5247 -5246 -87 0
5247 -5246 87 0
5247 5246 -87 0
-5248 5247 88 0
-5248 -5247 -88 0
5248 -5247 88 0
5248 5247 -88 0
-5249 5248 91 0
-5249 -5248 -91 0
5249 -5248 91 0
5249 5248 -91 0
-5250 5249 92 0
-5250 -5249 -92 0
5250 -5249 92 0
5250 5249 -92 0
-5251 5250 98 0
-5251 -5250 -98 0
5251 -5250 98 0
5251 5250 -98 0
-5252 5251 99 0
-5252 -5251 -99 0
5252 -5251 99 0
5252 5251 -99 0
-5253 5252 100 0
-5253 -5252 -100 0
5253 -5252 100 0
5253 5252 -100 0
-5254 5253 103 0
-5254 -5253 -103 0
5254 -5253 103 0
5254 5253 -103 0
-5255 5254 106 0
-5255 -5254 -106 0
5255 -5254 106 0
5255 5254 -106 0
-5256 5255 107 0
-5256 -5255 -107 0
5256 -5255 107 0
5256 5255 -107 0
-5257 5256 108 0
-5257 -5256 -108 0
5257 -5256 108 0
5257 5256 -108 0
-5258 5257 109 0
-5258 -5257 -109 0
5258 -5257 109 0
5258 5257 -109 0
-5259 5258 120 0
-5259 -5258 -120 0
5259 -5258 120 0
5259 5258 -120 0
-5260 5259 121 0
-5260 -5259 -121 0
5260 -5259 121 0
5260 5259 -121 0
-5261 5260 122 0
-5261 -5260 -122 0
5261 -5260 122 0
5261 5260 -122 0
-5262 5261 125 0
-5262 -5261 -125 0
5262 -5261 125 0
5262 5261 -125 0
-5263 5262 128 0
-5263 -5262 -128 0
5263 -5262 128 0
5263 5262 -128 0
-5264 5263 131 0
-5264 -5263 -131 0
5264 -5263 131 0
5264 5263 -131 0
-5265 5264 136 0
-5265 -5264 -136 0
5265 -5264 136 0
5265 5264 -136 0
-5266 5265 138 0
-5266 -5265 -138 0
5266 -5265 138 0
5266 5265 -138 0
-5267 5266 139 0
-5267 -5266 -139 0
5267 -5266 139 0
5267 5266 -139 0
-5268 5267 142 0
-5268 -5267 -142 0
5268 -5267 142 0
5268 5267 -142 0
-5269 5268 144 0
-5269 -5268 -144 0
5269 -5268 144 0
5269 5268 -144 0
-5269 0
-5270 2 69 0
-5270 -2 -69 0
5270 -2 69 0
5270 2 -69 0
-5271 5270 71 0
-5271 -5270 -71 0
5271 -5270 71 0
5271 5270 -71 0
-5272 5271 72 0
-5272 -5271 -72 0
5272 -5271 72 0
5272 5271 -72 0
-5273 5272 73 0
-5273 -5272 -73 0
5273 -5272 73 0
5273 5272 -73 0
-5274 5273 74 0
-5274 -5273 -74 0
5274 -5273 74 0
5274 5273 -74 0
-5275 5274 76 0
-5275 -5274 -76 0
5275 -5274 76 0
5275 5274 -76 0
-5276 5275 77 0
-5276 -5275 -77 0
5276 -5275 77 0
5276 5275 -77 0
-5277 5276 79 0
-5277 -5276 -79 0
5277 -5276 79 0
5277 5276 -79 0
-5278 5277 80 0
-5278 -5277 -80 0
5278 -5277 80 0
5278 5277 -80 0
-5279 5278 82 0
-5279 -5278 -82 0
5279 -5278 82 0
5279 5278 -82 0
-5280 5279 86 0
-5280 -5279 -86 0
5280 -5279 86 0
5280 5279 -86 0
-5281 5280 87 0
-5281 -5280 -87 0
5281 -5280 87 0
5281 5280 -87 0
-5282 5281 88 0
-5282 -5281 -88 0
5282 -5281 88 0
5282 5281 -88 0
-5283 5282 89 0
-5283 -5282 -89 0
5283 -5282 89 0
5283 5282 -89 0
-5284 5283 91 0
-5284 -5283 -91 0
5284 -5283 91 0
5284 5283 -91 0
-5285 5284 92 0
-5285 -5284 -92 0
5285 -5284 92 0
5285 5284 -92 0
-5286 5285 95 0
-5286 -5285 -95 0
5286 -5285 95 0
5286 5285 -95 0
-5287 5286 97 0
-5287 -5286 -97 0
5287 -5286 97 0
5287 5286 -97 0
-5288 5287 98 0
-5288 -5287 -98 0
5288 -5287 98 0
5288 5287 -98 0
-5289 5288 102 0
-5289 -5288 -102 0
5289 -5288 102 0
5289 5288 -102 0
-5290 5289 103 0
-5290 -5289 -103 0
5290 -5289 103 0
5290 5289 -103 0
-5291 5290 106 0
-5291 -5290 -106 0
5291 -5290 106 0
5291 5290 -106 0
-5292 5291 107 0
-5292 -5291 -107 0
5292 -5291 107 0
5292 5291 -107 0
-5293 5292 109 0
-5293 -5292 -109 0
5293 -5292 109 0
5293 5292 -109 0
-5294 5293 110 0
-5294 -5293 -110 0
5294 -5293 110 0
5294 5293 -110 0
-5295 5294 111 0
-5295 -5294 -111 0
5295 -5294 111 0
5295 5294 -111 0
-5296 5295 113 0
-5296 -5295 -113 0
5296 -5295 113 0
5296 5295 -113 0
-5297 5296 115 0
-5297 -5296 -115 0
5297 -5296 115 0
5297 5296 -115 0
-5298 5297 116 0
-5298 -5297 -116 0
5298 -5297 116 0
5298 5297 -116 0
-5299 5298 118 0
-5299 -5298 -118 0
5299 -5298 118 0
5299 5298 -118 0
-5300 5299 120 0
-5300 -5299 -120 0
5300 -5299 120 0
5300 5299 -120 0
-5301 5300 121 0
-5301 -5300 -121 0
5301 -5300 121 0
5301 5300 -121 0
-5302 5301 124 0
-5302 -5301 -124 0
5302 -5301 124 0
5302 5301 -124 0
-5303 5302 125 0
-5303 -5302 -125 0
5303 -5302 125 0
5303 5302 -125 0
-5304 5303 127 0
-5304 -5303 -127 0
5304 -5303 127 0
5304 5303 -127 0
-5305 5304 128 0
-5305 -5304 -128 0
5305 -5304 128 0
5305 5304 -128 0
-5306 5305 130 0
-5306 -5305 -130 0
5306 -5305 130 0
5306 5305 -130 0
-5307 5306 131 0
-5307 -5306 -131 0
5307 -5306 131 0
5307 5306 -131 0
-5308 5307 133 0
-5308 -5307 -133 0
5308 -5307 133 0
5308 5307 -133 0
-5309 5308 134 0
-5309 -5308 -134 0
5309 -5308 134 0
5309 5308 -134 0
-5310 5309 136 0
-5310 -5309 -136 0
5310 -5309 136 0
5310 5309 -136 0
-5311 5310 137 0
-5311 -5310 -137 0
5311 -5310 137 0
5311 5310 -137 0
-5312 5311 138 0
-5312 -5311 -138 0
5312 -5311 138 0
5312 5311 -138 0
-5313 5312 139 0
-5313 -5312 -139 0
5313 -5312 139 0
5313 5312 -139 0
-5314 5313 142 0
-5314 -5313 -142 0
5314 -5313 142 0
5314 5313 -142 0
-5315 5314 143 0
-5315 -5314 -143 0
5315 -5314 143 0
5315 5314 -143 0
-5316 5315 144 0
-5316 -5315 -144 0
5316 -5315 144 0
5316 5315 -144 0
-5316 0
-5317 3 69 0
-5317 -3 -69 0
5317 -3 69 0
5317 3 -69 0
-5318 5317 70 0
-5318 -5317 -70 0
5318 -5317 70 0
5318 5317 -70 0
-5319 5318 71 0
-5319 -5318 -71 0
5319 -5318 71 0
5319 5318 -71 0
-5320 5319 72 0
-5320 -5319 -72 0
5320 -5319 72 0
5320 5319 -72 0
-5321 5320 75 0
-5321 -5320 -75 0
5321 -5320 75 0
5321 5320 -75 0
-5322 5321 76 0
-5322 -5321 -76 0
5322 -5321 76 0
5322 5321 -76 0
-5323 5322 77 0
-5323 -5322 -77 0
5323 -5322 77 0
5323 5322 -77 0
-5324 5323 80 0
-5324 -5323 -80 0
5324 -5323 80 0
5324 5323 -80 0
-5325 5324 81 0
-5325 -5324 -81 0
5325 -5324 81 0
5325 5324 -81 0
-5326 5325 83 0
-5326 -5325 -83 0
5326 -5325 83 0
5326 5325 -83 0
-5327 5326 87 0
-5327 -5326 -87 0
5327 -5326 87 0
5327 5326 -87 0
-5328 5327 88 0
-5328 -5327 -88 0
5328 -5327 88 0
5328 5327 -88 0
-5329 5328 89 0
-5329 -5328 -89 0
5329 -5328 89 0
5329 5328 -89 0
-5330 5329 90 0
-5330 -5329 -90 0
5330 -5329 90 0
5330 5329 -90 0
-5331 5330 91 0
-5331 -5330 -91 0
5331 -5330 91 0
5331 5330 -91 0
-5332 5331 92 0
-5332 -5331 -92 0
5332 -5331 92 0
5332 5331 -92 0
-5333 5332 95 0
-5333 -5332 -95 0
5333 -5332 95 0
5333 5332 -95 0
-5334 5333 96 0
-5334 -5333 -96 0
5334 -5333 96 0
5334 5333 -96 0
-5335 5334 100 0
-5335 -5334 -100 0
5335 -5334 100 0
5335 5334 -100 0
-5336 5335 101 0
-5336 -5335 -101 0
5336 -5335 101 0
5336 5335 -101 0
-5337 5336 102 0
-5337 -5336 -102 0
5337 -5336 102 0
5337 5336 -102 0
-5338 5337 106 0
-5338 -5337 -106 0
5338 -5337 106 0
5338 5337 -106 0
-5339 5338 107 0
-5339 -5338 -107 0
5339 -5338 107 0
5339 5338 -107 0
-5340 5339 109 0
-5340 -5339 -109 0
5340 -5339 109 0
5340 5339 -109 0
-5341 5340 110 0
-5341 -5340 -110 0
5341 -5340 110 0
5341 5340 -110 0
-5342 5341 112 0
-5342 -5341 -112 0
5342 -5341 112 0
5342 5341 -112 0
-5343 5342 113 0
-5343 -5342 -113 0
5343 -5342 113 0
5343 5342 -113 0
-5344 5343 114 0
-5344 -5343 -114 0
5344 -5343 114 0
5344 5343 -114 0
-5345 5344 115 0
-5345 -5344 -115 0
5345 -5344 115 0
5345 5344 -115 0
-5346 5345 117 0
-5346 -5345 -117 0
5346 -5345 117 0
5346 5345 -117 0
-5347 5346 118 0
-5347 -5346 -118 0
5347 -5346 118 0
5347 5346 -118 0
-5348 5347 119 0
-5348 -5347 -119 0
5348 -5347 119 0
5348 5347 -119 0
-5349 5348 120 0
-5349 -5348 -120 0
5349 -5348 120 0
5349 5348 -120 0
-5350 5349 121 0
-5350 -5349 -121 0
5350 -5349 121 0
5350 5349 -121 0
-5351 5350 123 0
-5351 -5350 -123 0
5351 -5350 123 0
5351 5350 -123 0
-5352 5351 124 0
-5352 -5351 -124 0
5352 -5351 124 0
5352 5351 -124 0
-5353 5352 127 0
-5353 -5352 -127 0
5353 -5352 127 0
5353 5352 -127 0
-5354 5353 130 0
-5354 -5353 -130 0
5354 -5353 130 0
5354 5353 -130 0
-5355 5354 133 0
-5355 -5354 -133 0
5355 -5354 133 0
5355 5354 -133 0
-5356 5355 135 0
-5356 -5355 -135 0
5356 -5355 135 0
5356 5355 -135 0
-5357 5356 136 0
-5357 -5356 -136 0
5357 -5356 136 0
5357 5356 -136 0
-5358 5357 137 0
-5358 -5357 -137 0
5358 -5357 137 0
5358 5357 -137 0
-5359 5358 139 0
-5359 -5358 -139 0
5359 -5358 139 0
5359 5358 -139 0
-5360 5359 142 0
-5360 -5359 -142 0
5360 -5359 142 0
5360 5359 -142 0
-5361 5360 143 0
-5361 -5360 -143 0
5361 -5360 143 0
5361 5360 -143 0
-5361 0
-5362 4 69 0
-5362 -4 -69 0
5362 -4 69 0
5362 4 -69 0
-5363 5362 70 0
-5363 -5362 -70 0
5363 -5362 70 0
5363 5362 -70 0
-5364 5363 72 0
-5364 -5363 -72 0
5364 -5363 72 0
5364 5363 -72 0
-5365 5364 74 0
-5365 -5364 -74 0
5365 -5364 74 0
5365 5364 -74 0
-5366 5365 77 0
-5366 -5365 -77 0
5366 -5365 77 0
5366 5365 -77 0
-5367 5366 81 0
-5367 -5366 -81 0
5367 -5366 81 0
5367 5366 -81 0
-5368 5367 82 0
-5368 -5367 -82 0
5368 -5367 82 0
5368 5367 -82 0
-5369 5368 84 0
-5369 -5368 -84 0
5369 -5368 84 0
5369 5368 -84 0
-5370 5369 85 0
-5370 -5369 -85 0
5370 -5369 85 0
5370 5369 -85 0
-5371 5370 88 0
-5371 -5370 -88 0
5371 -5370 88 0
5371 5370 -88 0
-5372 5371 89 0
-5372 -5371 -89 0
5372 -5371 89 0
5372 5371 -89 0
-5373 5372 90 0
-5373 -5372 -90 0
5373 -5372 90 0
5373 5372 -90 0
-5374 5373 92 0
-5374 -5373 -92 0
5374 -5373 92 0
5374 5373 -92 0
-5375 5374 95 0
-5375 -5374 -95 0
5375 -5374 95 0
5375 5374 -95 0
-5376 5375 96 0
-5376 -5375 -96 0
5376 -5375 96 0
5376 5375 -96 0
-5377 5376 98 0
-5377 -5376 -98 0
5377 -5376 98 0
5377 5376 -98 0
-5378 5377 99 0
-5378 -5377 -99 0
5378 -5377 99 0
5378 5377 -99 0
-5379 5378 100 0
-5379 -5378 -100 0
5379 -5378 100 0
5379 5378 -100 0
-5380 5379 104 0
-5380 -5379 -104 0
5380 -5379 104 0
5380 5379 -104 0
-5381 5380 106 0
-5381 -5380 -106 0
5381 -5380 106 0
5381 5380 -106 0
-5382 5381 107 0
-5382 -5381 -107 0
5382 -5381 107 0
5382 5381 -107 0
-5383 5382 110 0
-5383 -5382 -110 0
5383 -5382 110 0
5383 5382 -110 0
-5384 5383 114 0
-5384 -5383 -114 0
5384 -5383 114 0
5384 5383 -114 0
-5385 5384 115 0
-5385 -5384 -115 0
5385 -5384 115 0
5385 5384 -115 0
-5386 5385 119 0
-5386 -5385 -119 0
5386 -5385 119 0
5386 5385 -119 0
-5387 5386 121 0
-5387 -5386 -121 0
5387 -5386 121 0
5387 5386 -121 0
-5388 5387 123 0
-5388 -5387 -123 0
5388 -5387 123 0
5388 5387 -123 0
-5389 5388 126 0
-5389 -5388 -126 0
5389 -5388 126 0
5389 5388 -126 0
-5390 5389 127 0
-5390 -5389 -127 0
5390 -5389 127 0
5390 5389 -127 0
-5391 5390 129 0
-5391 -5390 -129 0
5391 -5390 129 0
5391 5390 -129 0
-5392 5391 130 0
-5392 -5391 -130 0
5392 -5391 130 0
5392 5391 -130 0
-5393 5392 132 0
-5393 -5392 -132 0
5393 -5392 132 0
5393 5392 -132 0
-5394 5393 137 0
-5394 -5393 -137 0
5394 -5393 137 0
5394 5393 -137 0
-5395 5394 142 0
-5395 -5394 -142 0
5395 -5394 142 0
5395 5394 -142 0
-5396 5395 143 0
-5396 -5395 -143 0
5396 -5395 143 0
5396 5395 -143 0
-5396 0
-5397 5 69 0
-5397 -5 -69 0
5397 -5 69 0
5397 5 -69 0
-5398 5397 70 0
-5398 -5397 -70 0
5398 -5397 70 0
5398 5397 -70 0
-5399 5398 74 0
-5399 -5398 -74 0
5399 -5398 74 0
5399 5398 -74 0
-5400 5399 75 0
-5400 -5399 -75 0
5400 -5399 75 0
5400 5399 -75 0
-5401 5400 76 0
-5401 -5400 -76 0
5401 -5400 76 0
5401 5400 -76 0
-5402 5401 79 0
-5402 -5401 -79 0
5402 -5401 79 0
5402 5401 -79 0
-5403 5402 82 0
-5403 -5402 -82 0
5403 -5402 82 0
5403 5402 -82 0
-5404 5403 83 0
-5404 -5403 -83 0
5404 -5403 83 0
5404 5403 -83 0
-5405 5404 85 0
-5405 -5404 -85 0
5405 -5404 85 0
5405 5404 -85 0
-5406 5405 86 0
-5406 -5405 -86 0
5406 -5405 86 0
5406 5405 -86 0
-5407 5406 89 0
-5407 -5406 -89 0
5407 -5406 89 0
5407 5406 -89 0
-5408 5407 90 0
-5408 -5407 -90 0
5408 -5407 90 0
5408 5407 -90 0
-5409 5408 95 0
-5409 -5408 -95 0
5409 -5408 95 0
5409 5408 -95 0
-5410 5409 96 0
-5410 -5409 -96 0
5410 -5409 96 0
5410 5409 -96 0
-5411 5410 97 0
-5411 -5410 -97 0
5411 -5410 97 0
5411 5410 -97 0
-5412 5411 98 0
-5412 -5411 -98 0
5412 -5411 98 0
5412 5411 -98 0
-5413 5412 102 0
-5413 -5412 -102 0
5413 -5412 102 0
5413 5412 -102 0
-5414 5413 104 0
-5414 -5413 -104 0
5414 -5413 104 0
5414 5413 -104 0
-5415 5414 105 0
-5415 -5414 -105 0
5415 -5414 105 0
5415 5414 -105 0
-5416 5415 106 0
-5416 -5415 -106 0
5416 -5415 106 0
5416 5415 -106 0
-5417 5416 107 0
-5417 -5416 -107 0
5417 -5416 107 0
5417 5416 -107 0
-5418 5417 113 0
-5418 -5417 -113 0
5418 -5417 113 0
5418 5417 -113 0
-5419 5418 118 0
-5419 -5418 -118 0
5419 -5418 118 0
5419 5418 -118 0
-5420 5419 123 0
-5420 -5419 -123 0
5420 -5419 123 0
5420 5419 -123 0
-5421 5420 125 0
-5421 -5420 -125 0
5421 -5420 125 0
5421 5420 -125 0
-5422 5421 126 0
-5422 -5421 -126 0
5422 -5421 126 0
5422 5421 -126 0
-5423 5422 129 0
-5423 -5422 -129 0
5423 -5422 129 0
5423 5422 -129 0
-5424 5423 132 0
-5424 -5423 -132 0
5424 -5423 132 0
5424 5423 -132 0
-5425 5424 134 0
-5425 -5424 -134 0
5425 -5424 134 0
5425 5424 -134 0
-5426 5425 136 0
-5426 -5425 -136 0
5426 -5425 136 0
5426 5425 -136 0
-5427 5426 140 0
-5427 -5426 -140 0
5427 -5426 140 0
5427 5426 -140 0
-5428 5427 142 0
-5428 -5427 -142 0
5428 -5427 142 0
5428 5427 -142 0
-5429 5428 143 0
-5429 -5428 -143 0
5429 -5428 143 0
5429 5428 -143 0
-5429 0
-5430 6 70 0
-5430 -6 -70 0
5430 -6 70 0
5430 6 -70 0
-5431 5430 71 0
-5431 -5430 -71 0
5431 -5430 71 0
5431 5430 -71 0
-5432 5431 75 0
-5432 -5431 -75 0
5432 -5431 75 0
5432 5431 -75 0
-5433 5432 76 0
-5433 -5432 -76 0
5433 -5432 76 0
5433 5432 -76 0
-5434 5433 77 0
-5434 -5433 -77 0
5434 -5433 77 0
5434 5433 -77 0
-5435 5434 80 0
-5435 -5434 -80 0
5435 -5434 80 0
5435 5434 -80 0
-5436 5435 83 0
-5436 -5435 -83 0
5436 -5435 83 0
5436 5435 -83 0
-5437 5436 84 0
-5437 -5436 -84 0
5437 -5436 84 0
5437 5436 -84 0
-5438 5437 85 0
-5438 -5437 -85 0
5438 -5437 85 0
5438 5437 -85 0
-5439 5438 86 0
-5439 -5438 -86 0
5439 -5438 86 0
5439 5438 -86 0
-5440 5439 87 0
-5440 -5439 -87 0
5440 -5439 87 0
5440 5439 -87 0
-5441 5440 90 0
-5441 -5440 -90 0
5441 -5440 90 0
5441 5440 -90 0
-5442 5441 91 0
-5442 -5441 -91 0
5442 -5441 91 0
5442 5441 -91 0
-5443 5442 96 0
-5443 -5442 -96 0
5443 -5442 96 0
5443 5442 -96 0
-5444 5443 97 0
-5444 -5443 -97 0
5444 -5443 97 0
5444 5443 -97 0
-5445 5444 98 0
-5445 -5444 -98 0
5445 -5444 98 0
5445 5444 -98 0
-5446 5445 99 0
-5446 -5445 -99 0
5446 -5445 99 0
5446 5445 -99 0
-5447 5446 105 0
-5447 -5446 -105 0
5447 -5446 105 0
5447 5446 -105 0
-5448 5447 106 0
-5448 -5447 -106 0
5448 -5447 106 0
5448 5447 -106 0
-5449 5448 107 0
-5449 -5448 -107 0
5449 -5448 107 0
5449 5448 -107 0
-5450 5449 108 0
-5450 -5449 -108 0
5450 -5449 108 0
5450 5449 -108 0
-5451 5450 114 0
-5451 -5450 -114 0
5451 -5450 114 0
5451 5450 -114 0
-5452 5451 119 0
-5452 -5451 -119 0
5452 -5451 119 0
5452 5451 -119 0
-5453 5452 121 0
-5453 -5452 -121 0
5453 -5452 121 0
5453 5452 -121 0
-5454 5453 124 0
-5454 -5453 -124 0
5454 -5453 124 0
5454 5453 -124 0
-5455 5454 126 0
-5455 -5454 -126 0
5455 -5454 126 0
5455 5454 -126 0
-5456 5455 127 0
-5456 -5455 -127 0
5456 -5455 127 0
5456 5455 -127 0
-5457 5456 130 0
-5457 -5456 -130 0
5457 -5456 130 0
5457 5456 -130 0
-5458 5457 135 0
-5458 -5457 -135 0
5458 -5457 135 0
5458 5457 -135 0
-5459 5458 137 0
-5459 -5458 -137 0
5459 -5458 137 0
5459 5458 -137 0
-5460 5459 141 0
-5460 -5459 -141 0
5460 -5459 141 0
5460 5459 -141 0
-5461 5460 143 0
-5461 -5460 -143 0
5461 -5460 143 0
5461 5460 -143 0
-5462 5461 144 0
-5462 -5461 -144 0
5462 -5461 144 0
5462 5461 -144 0
-5462 0
-5463 7 69 0
-5463 -7 -69 0
5463 -7 69 0
5463 7 -69 0
-5464 5463 71 0
-5464 -5463 -71 0
5464 -5463 71 0
5464 5463 -71 0
-5465 5464 73 0
-5465 -5464 -73 0
5465 -5464 73 0
5465 5464 -73 0
-5466 5465 74 0
-5466 -5465 -74 0
5466 -5465 74 0
5466 5465 -74 0
-5467 5466 76 0
-5467 -5466 -76 0
5467 -5466 76 0
5467 5466 -76 0
-5468 5467 77 0
-5468 -5467 -77 0
5468 -5467 77 0
5468 5467 -77 0
-5469 5468 78 0
-5469 -5468 -78 0
5469 -5468 78 0
5469 5468 -78 0
-5470 5469 79 0
-5470 -5469 -79 0
5470 -5469 79 0
5470 5469 -79 0
-5471 5470 80 0
-5471 -5470 -80 0
5471 -5470 80 0
5471 5470 -80 0
-5472 5471 83 0
-5472 -5471 -83 0
5472 -5471 83 0
5472 5471 -83 0
-5473 5472 85 0
-5473 -5472 -85 0
5473 -5472 85 0
5473 5472 -85 0
-5474 5473 89 0
-5474 -5473 -89 0
5474 -5473 89 0
5474 5473 -89 0
-5475 5474 90 0
-5475 -5474 -90 0
5475 -5474 90 0
5475 5474 -90 0
-5476 5475 92 0
-5476 -5475 -92 0
5476 -5475 92 0
5476 5475 -92 0
-5477 5476 93 0
-5477 -5476 -93 0
5477 -5476 93 0
5477 5476 -93 0
-5478 5477 94 0
-5478 -5477 -94 0
5478 -5477 94 0
5478 5477 -94 0
-5479 5478 95 0
-5479 -5478 -95 0
5479 -5478 95 0
5479 5478 -95 0
-5480 5479 97 0
-5480 -5479 -97 0
5480 -5479 97 0
5480 5479 -97 0
-5481 5480 98 0
-5481 -5480 -98 0
5481 -5480 98 0
5481 5480 -98 0
-5482 5481 99 0
-5482 -5481 -99 0
5482 -5481 99 0
5482 5481 -99 0
-5483 5482 102 0
-5483 -5482 -102 0
5483 -5482 102 0
5483 5482 -102 0
-5484 5483 105 0
-5484 -5483 -105 0
5484 -5483 105 0
5484 5483 -105 0
-5485 5484 106 0
-5485 -5484 -106 0
5485 -5484 106 0
5485 5484 -106 0
-5486 5485 108 0
-5486 -5485 -108 0
5486 -5485 108 0
5486 5485 -108 0
-5487 5486 109 0
-5487 -5486 -109 0
5487 -5486 109 0
5487 5486 -109 0
-5488 5487 112 0
-5488 -5487 -112 0
5488 -5487 112 0
5488 5487 -112 0
-5489 5488 115 0
-5489 -5488 -115 0
5489 -5488 115 0
5489 5488 -115 0
-5490 5489 118 0
-5490 -5489 -118 0
5490 -5489 118 0
5490 5489 -118 0
-5491 5490 119 0
-5491 -5490 -119 0
5491 -5490 119 0
5491 5490 -119 0
-5492 5491 121 0
-5492 -5491 -121 0
5492 -5491 121 0
5492 5491 -121 0
-5493 5492 123 0
-5493 -5492 -123 0
5493 -5492 123 0
5493 5492 -123 0
-5494 5493 124 0
-5494 -5493 -124 0
5494 -5493 124 0
5494 5493 -124 0
-5495 5494 125 0
-5495 -5494 -125 0
5495 -5494 125 0
5495 5494 -125 0
-5496 5495 126 0
-5496 -5495 -126 0
5496 -5495 126 0
5496 5495 -126 0
-5497 5496 128 0
-5497 -5496 -128 0
5497 -5496 128 0
5497 5496 -128 0
-5498 5497 129 0
-5498 -5497 -129 0
5498 -5497 129 0
5498 5497 -129 0
-5499 5498 130 0
-5499 -5498 -130 0
5499 -5498 130 0
5499 5498 -130 0
-5500 5499 131 0
-5500 -5499 -131 0
5500 -5499 131 0
5500 5499 -131 0
-5501 5500 132 0
-5501 -5500 -132 0
5501 -5500 132 0
5501 5500 -132 0
-5502 5501 135 0
-5502 -5501 -135 0
5502 -5501 135 0
5502 5501 -135 0
-5503 5502 136 0
-5503 -5502 -136 0
5503 -5502 136 0
5503 5502 -136 0
-5504 5503 140 0
-5504 -5503 -140 0
5504 -5503 140 0
5504 5503 -140 0
-5505 5504 141 0
-5505 -5504 -141 0
5505 -5504 141 0
5505 5504 -141 0
-5505 0
-5506 8 70 0
-5506 -8 -70 0
5506 -8 70 0
5506 8 -70 0
-5507 5506 72 0
-5507 -5506 -72 0
5507 -5506 72 0
5507 5506 -72 0
-5508 5507 73 0
-5508 -5507 -73 0
5508 -5507 73 0
5508 5507 -73 0
-5509 5508 74 0
-5509 -5508 -74 0
5509 -5508 74 0
5509 5508 -74 0
-5510 5509 75 0
-5510 -5509 -75 0
5510 -5509 75 0
5510 5509 -75 0
-5511 5510 77 0
-5511 -5510 -77 0
5511 -5510 77 0
5511 5510 -77 0
-5512 5511 78 0
-5512 -5511 -78 0
5512 -5511 78 0
5512 5511 -78 0
-5513 5512 80 0
-5513 -5512 -80 0
5513 -5512 80 0
5513 5512 -80 0
-5514 5513 81 0
-5514 -5513 -81 0
5514 -5513 81 0
5514 5513 -81 0
-5515 5514 84 0
-5515 -5514 -84 0
5515 -5514 84 0
5515 5514 -84 0
-5516 5515 85 0
-5516 -5515 -85 0
5516 -5515 85 0
5516 5515 -85 0
-5517 5516 86 0
-5517 -5516 -86 0
5517 -5516 86 0
5517 5516 -86 0
-5518 5517 90 0
-5518 -5517 -90 0
5518 -5517 90 0
5518 5517 -90 0
-5519 5518 93 0
-5519 -5518 -93 0
5519 -5518 93 0
5519 5518 -93 0
-5520 5519 94 0
-5520 -5519 -94 0
5520 -5519 94 0
5520 5519 -94 0
-5521 5520 95 0
-5521 -5520 -95 0
5521 -5520 95 0
5521 5520 -95 0
-5522 5521 96 0
-5522 -5521 -96 0
5522 -5521 96 0
5522 5521 -96 0
-5523 5522 97 0
-5523 -5522 -97 0
5523 -5522 97 0
5523 5522 -97 0
-5524 5523 98 0
-5524 -5523 -98 0
5524 -5523 98 0
5524 5523 -98 0
-5525 5524 99 0
-5525 -5524 -99 0
5525 -5524 99 0
5525 5524 -99 0
-5526 5525 100 0
-5526 -5525 -100 0
5526 -5525 100 0
5526 5525 -100 0
-5527 5526 103 0
-5527 -5526 -103 0
5527 -5526 103 0
5527 5526 -103 0
-5528 5527 106 0
-5528 -5527 -106 0
5528 -5527 106 0
5528 5527 -106 0
-5529 5528 107 0
-5529 -5528 -107 0
5529 -5528 107 0
5529 5528 -107 0
-5530 5529 110 0
-5530 -5529 -110 0
5530 -5529 110 0
5530 5529 -110 0
-5531 5530 113 0
-5531 -5530 -113 0
5531 -5530 113 0
5531 5530 -113 0
-5532 5531 116 0
-5532 -5531 -116 0
5532 -5531 116 0
5532 5531 -116 0
-5533 5532 119 0
-5533 -5532 -119 0
5533 -5532 119 0
5533 5532 -119 0
-5534 5533 120 0
-5534 -5533 -120 0
5534 -5533 120 0
5534 5533 -120 0
-5535 5534 121 0
-5535 -5534 -121 0
5535 -5534 121 0
5535 5534 -121 0
-5536 5535 122 0
-5536 -5535 -122 0
5536 -5535 122 0
5536 5535 -122 0
-5537 5536 124 0
-5537 -5536 -124 0
5537 -5536 124 0
5537 5536 -124 0
-5538 5537 125 0
-5538 -5537 -125 0
5538 -5537 125 0
5538 5537 -125 0
-5539 5538 126 0
-5539 -5538 -126 0
5539 -5538 126 0
5539 5538 -126 0
-5540 5539 127 0
-5540 -5539 -127 0
5540 -5539 127 0
5540 5539 -127 0
-5541 5540 129 0
-5541 -5540 -129 0
5541 -5540 129 0
5541 5540 -129 0
-5542 5541 130 0
-5542 -5541 -130 0
5542 -5541 130 0
5542 5541 -130 0
-5543 5542 131 0
-5543 -5542 -131 0
5543 -5542 131 0
5543 5542 -131 0
-5544 5543 132 0
-5544 -5543 -132 0
5544 -5543 132 0
5544 5543 -132 0
-5545 5544 136 0
-5545 -5544 -136 0
5545 -5544 136 0
5545 5544 -136 0
-5546 5545 137 0
-5546 -5545 -137 0
5546 -5545 137 0
5546 5545 -137 0
-5547 5546 141 0
-5547 -5546 -141 0
5547 -5546 141 0
5547 5546 -141 0
-5548 5547 142 0
-5548 -5547 -142 0
5548 -5547 142 0
5548 5547 -142 0
-5548 0
-5549 9 69 0
-5549 -9 -69 0
5549 -9 69 0
5549 9 -69 0
-5550 5549 73 0
-5550 -5549 -73 0
5550 -5549 73 0
5550 5549 -73 0
-5551 5550 75 0
-5551 -5550 -75 0
5551 -5550 75 0
5551 5550 -75 0
-5552 5551 79 0
-5552 -5551 -79 0
5552 -5551 79 0
5552 5551 -79 0
-5553 5552 81 0
-5553 -5552 -81 0
5553 -5552 81 0
5553 5552 -81 0
-5554 5553 82 0
-5554 -5553 -82 0
5554 -5553 82 0
5554 5553 -82 0
-5555 5554 85 0
-5555 -5554 -85 0
5555 -5554 85 0
5555 5554 -85 0
-5556 5555 86 0
-5556 -5555 -86 0
5556 -5555 86 0
5556 5555 -86 0
-5557 5556 87 0
-5557 -5556 -87 0
5557 -5556 87 0
5557 5556 -87 0
-5558 5557 93 0
-5558 -5557 -93 0
5558 -5557 93 0
5558 5557 -93 0
-5559 5558 94 0
-5559 -5558 -94 0
5559 -5558 94 0
5559 5558 -94 0
-5560 5559 96 0
-5560 -5559 -96 0
5560 -5559 96 0
5560 5559 -96 0
-5561 5560 97 0
-5561 -5560 -97 0
5561 -5560 97 0
5561 5560 -97 0
-5562 5561 102 0
-5562 -5561 -102 0
5562 -5561 102 0
5562 5561 -102 0
-5563 5562 106 0
-5563 -5562 -106 0
5563 -5562 106 0
5563 5562 -106 0
-5564 5563 107 0
-5564 -5563 -107 0
5564 -5563 107 0
5564 5563 -107 0
-5565 5564 109 0
-5565 -5564 -109 0
5565 -5564 109 0
5565 5564 -109 0
-5566 5565 113 0
-5566 -5565 -113 0
5566 -5565 113 0
5566 5565 -113 0
-5567 5566 114 0
-5567 -5566 -114 0
5567 -5566 114 0
5567 5566 -114 0
-5568 5567 115 0
-5568 -5567 -115 0
5568 -5567 115 0
5568 5567 -115 0
-5569 5568 116 0
-5569 -5568 -116 0
5569 -5568 116 0
5569 5568 -116 0
-5570 5569 117 0
-5570 -5569 -117 0
5570 -5569 117 0
5570 5569 -117 0
-5571 5570 118 0
-5571 -5570 -118 0
5571 -5570 118 0
5571 5570 -118 0
-5572 5571 124 0
-5572 -5571 -124 0
5572 -5571 124 0
5572 5571 -124 0
-5573 5572 129 0
-5573 -5572 -129 0
5573 -5572 129 0
5573 5572 -129 0
-5574 5573 134 0
-5574 -5573 -134 0
5574 -5573 134 0
5574 5573 -134 0
-5575 5574 136 0
-5575 -5574 -136 0
5575 -5574 136 0
5575 5574 -136 0
-5576 5575 137 0
-5576 -5575 -137 0
5576 -5575 137 0
5576 5575 -137 0
-5577 5576 140 0
-5577 -5576 -140 0
5577 -5576 140 0
5577 5576 -140 0
-5578 5577 143 0
-5578 -5577 -143 0
5578 -5577 143 0
5578 5577 -143 0
-5579 5578 144 0
-5579 -5578 -144 0
5579 -5578 144 0
5579 5578 -144 0
-5579 0
-5580 10 70 0
-5580 -10 -70 0
5580 -10 70 0
5580 10 -70 0
-5581 5580 74 0
-5581 -5580 -74 0
5581 -5580 74 0
5581 5580 -74 0
-5582 5581 76 0
-5582 -5581 -76 0
5582 -5581 76 0
5582 5581 -76 0
-5583 5582 80 0
-5583 -5582 -80 0
5583 -5582 80 0
5583 5582 -80 0
-5584 5583 82 0
-5584 -5583 -82 0
5584 -5583 82 0
5584 5583 -82 0
-5585 5584 83 0
-5585 -5584 -83 0
5585 -5584 83 0
5585 5584 -83 0
-5586 5585 86 0
-5586 -5585 -86 0
5586 -5585 86 0
5586 5585 -86 0
-5587 5586 87 0
-5587 -5586 -87 0
5587 -5586 87 0
5587 5586 -87 0
-5588 5587 88 0
-5588 -5587 -88 0
5588 -5587 88 0
5588 5587 -88 0
-5589 5588 91 0
-5589 -5588 -91 0
5589 -5588 91 0
5589 5588 -91 0
-5590 5589 94 0
-5590 -5589 -94 0
5590 -5589 94 0
5590 5589 -94 0
-5591 5590 95 0
-5591 -5590 -95 0
5591 -5590 95 0
5591 5590 -95 0
-5592 5591 97 0
-5592 -5591 -97 0
5592 -5591 97 0
5592 5591 -97 0
-5593 5592 98 0
-5593 -5592 -98 0
5593 -5592 98 0
5593 5592 -98 0
-5594 5593 107 0
-5594 -5593 -107 0
5594 -5593 107 0
5594 5593 -107 0
-5595 5594 108 0
-5595 -5594 -108 0
5595 -5594 108 0
5595 5594 -108 0
-5596 5595 109 0
-5596 -5595 -109 0
5596 -5595 109 0
5596 5595 -109 0
-5597 5596 110 0
-5597 -5596 -110 0
5597 -5596 110 0
5597 5596 -110 0
-5598 5597 114 0
-5598 -5597 -114 0
5598 -5597 114 0
5598 5597 -114 0
-5599 5598 116 0
-5599 -5598 -116 0
5599 -5598 116 0
5599 5598 -116 0
-5600 5599 117 0
-5600 -5599 -117 0
5600 -5599 117 0
5600 5599 -117 0
-5601 5600 118 0
-5601 -5600 -118 0
5601 -5600 118 0
5601 5600 -118 0
-5602 5601 119 0
-5602 -5601 -119 0
5602 -5601 119 0
5602 5601 -119 0
-5603 5602 125 0
-5603 -5602 -125 0
5603 -5602 125 0
5603 5602 -125 0
-5604 5603 130 0
-5604 -5603 -130 0
5604 -5603 130 0
5604 5603 -130 0
-5605 5604 135 0
-5605 -5604 -135 0
5605 -5604 135 0
5605 5604 -135 0
-5606 5605 137 0
-5606 -5605 -137 0
5606 -5605 137 0
5606 5605 -137 0
-5607 5606 138 0
-5607 -5606 -138 0
5607 -5606 138 0
5607 5606 -138 0
-5608 5607 139 0
-5608 -5607 -139 0
5608 -5607 139 0
5608 5607 -139 0
-5609 5608 141 0
-5609 -5608 -141 0
5609 -5608 141 0
5609 5608 -141 0
-5610 5609 144 0
-5610 -5609 -144 0
5610 -5609 144 0
5610 5609 -144 0
-5610 0
-5611 11 71 0
-5611 -11 -71 0
5611 -11 71 0
5611 11 -71 0
-5612 5611 75 0
-5612 -5611 -75 0
5612 -5611 75 0
5612 5611 -75 0
-5613 5612 77 0
-5613 -5612 -77 0
5613 -5612 77 0
5613 5612 -77 0
-5614 5613 81 0
-5614 -5613 -81 0
5614 -5613 81 0
5614 5613 -81 0
-5615 5614 83 0
-5615 -5614 -83 0
5615 -5614 83 0
5615 5614 -83 0
-5616 5615 84 0
-5616 -5615 -84 0
5616 -5615 84 0
5616 5615 -84 0
-5617 5616 87 0
-5617 -5616 -87 0
5617 -5616 87 0
5617 5616 -87 0
-5618 5617 88 0
-5618 -5617 -88 0
5618 -5617 88 0
5618 5617 -88 0
-5619 5618 89 0
-5619 -5618 -89 0
5619 -5618 89 0
5619 5618 -89 0
-5620 5619 92 0
-5620 -5619 -92 0
5620 -5619 92 0
5620 5619 -92 0
-5621 5620 95 0
-5621 -5620 -95 0
5621 -5620 95 0
5621 5620 -95 0
-5622 5621 96 0
-5622 -5621 -96 0
5622 -5621 96 0
5622 5621 -96 0
-5623 5622 98 0
-5623 -5622 -98 0
5623 -5622 98 0
5623 5622 -98 0
-5624 5623 99 0
-5624 -5623 -99 0
5624 -5623 99 0
5624 5623 -99 0
-5625 5624 103 0
-5625 -5624 -103 0
5625 -5624 103 0
5625 5624 -103 0
-5626 5625 108 0
-5626 -5625 -108 0
5626 -5625 108 0
5626 5625 -108 0
-5627 5626 109 0
-5627 -5626 -109 0
5627 -5626 109 0
5627 5626 -109 0
-5628 5627 110 0
-5628 -5627 -110 0
5628 -5627 110 0
5628 5627 -110 0
-5629 5628 111 0
-5629 -5628 -111 0
5629 -5628 111 0
5629 5628 -111 0
-5630 5629 117 0
-5630 -5629 -117 0
5630 -5629 117 0
5630 5629 -117 0
-5631 5630 118 0
-5631 -5630 -118 0
5631 -5630 118 0
5631 5630 -118 0
-5632 5631 119 0
-5632 -5631 -119 0
5632 -5631 119 0
5632 5631 -119 0
-5633 5632 120 0
-5633 -5632 -120 0
5633 -5632 120 0
5633 5632 -120 0
-5634 5633 126 0
-5634 -5633 -126 0
5634 -5633 126 0
5634 5633 -126 0
-5635 5634 131 0
-5635 -5634 -131 0
5635 -5634 131 0
5635 5634 -131 0
-5636 5635 133 0
-5636 -5635 -133 0
5636 -5635 133 0
5636 5635 -133 0
-5637 5636 136 0
-5637 -5636 -136 0
5637 -5636 136 0
5637 5636 -136 0
-5638 5637 138 0
-5638 -5637 -138 0
5638 -5637 138 0
5638 5637 -138 0
-5639 5638 139 0
-5639 -5638 -139 0
5639 -5638 139 0
5639 5638 -139 0
-5640 5639 140 0
-5640 -5639 -140 0
5640 -5639 140 0
5640 5639 -140 0
-5641 5640 142 0
-5641 -5640 -142 0
5641 -5640 142 0
5641 5640 -142 0
-5641 0
-5642 12 72 0
-5642 -12 -72 0
5642 -12 72 0
5642 12 -72 0
-5643 5642 76 0
-5643 -5642 -76 0
5643 -5642 76 0
5643 5642 -76 0
-5644 5643 78 0
-5644 -5643 -78 0
5644 -5643 78 0
5644 5643 -78 0
-5645 5644 79 0
-5645 -5644 -79 0
5645 -5644 79 0
5645 5644 -79 0
-5646 5645 82 0
-5646 -5645 -82 0
5646 -5645 82 0
5646 5645 -82 0
-5647 5646 84 0
-5647 -5646 -84 0
5647 -5646 84 0
5647 5646 -84 0
-5648 5647 88 0
-5648 -5647 -88 0
5648 -5647 88 0
5648 5647 -88 0
-5649 5648 89 0
-5649 -5648 -89 0
5649 -5648 89 0
5649 5648 -89 0
-5650 5649 90 0
-5650 -5649 -90 0
5650 -5649 90 0
5650 5649 -90 0
-5651 5650 91 0
-5651 -5650 -91 0
5651 -5650 91 0
5651 5650 -91 0
-5652 5651 93 0
-5652 -5651 -93 0
5652 -5651 93 0
5652 5651 -93 0
-5653 5652 96 0
-5653 -5652 -96 0
5653 -5652 96 0
5653 5652 -96 0
-5654 5653 99 0
-5654 -5653 -99 0
5654 -5653 99 0
5654 5653 -99 0
-5655 5654 100 0
-5655 -5654 -100 0
5655 -5654 100 0
5655 5654 -100 0
-5656 5655 103 0
-5656 -5655 -103 0
5656 -5655 103 0
5656 5655 -103 0
-5657 5656 104 0
-5657 -5656 -104 0
5657 -5656 104 0
5657 5656 -104 0
-5658 5657 110 0
-5658 -5657 -110 0
5658 -5657 110 0
5658 5657 -110 0
-5659 5658 111 0
-5659 -5658 -111 0
5659 -5658 111 0
5659 5658 -111 0
-5660 5659 112 0
-5660 -5659 -112 0
5660 -5659 112 0
5660 5659 -112 0
-5661 5660 115 0
-5661 -5660 -115 0
5661 -5660 115 0
5661 5660 -115 0
-5662 5661 118 0
-5662 -5661 -118 0
5662 -5661 118 0
5662 5661 -118 0
-5663 5662 119 0
-5663 -5662 -119 0
5663 -5662 119 0
5663 5662 -119 0
-5664 5663 120 0
-5664 -5663 -120 0
5664 -5663 120 0
5664 5663 -120 0
-5665 5664 121 0
-5665 -5664 -121 0
5665 -5664 121 0
5665 5664 -121 0
-5666 5665 132 0
-5666 -5665 -132 0
5666 -5665 132 0
5666 5665 -132 0
-5667 5666 133 0
-5667 -5666 -133 0
5667 -5666 133 0
5667 5666 -133 0
-5668 5667 134 0
-5668 -5667 -134 0
5668 -5667 134 0
5668 5667 -134 0
-5669 5668 137 0
-5669 -5668 -137 0
5669 -5668 137 0
5669 5668 -137 0
-5670 5669 140 0
-5670 -5669 -140 0
5670 -5669 140 0
5670 5669 -140 0
-5671 5670 141 0
-5671 -5670 -141 0
5671 -5670 141 0
5671 5670 -141 0
-5672 5671 143 0
-5672 -5671 -143 0
5672 -5671 143 0
5672 5671 -143 0
-5672 0
-5673 13 71 0
-5673 -13 -71 0
5673 -13 71 0
5673 13 -71 0
-5674 5673 72 0
-5674 -5673 -72 0
5674 -5673 72 0
5674 5673 -72 0
-5675 5674 75 0
-5675 -5674 -75 0
5675 -5674 75 0
5675 5674 -75 0
-5676 5675 77 0
-5676 -5675 -77 0
5676 -5675 77 0
5676 5675 -77 0
-5677 5676 81 0
-5677 -5676 -81 0
5677 -5676 81 0
5677 5676 -81 0
-5678 5677 83 0
-5678 -5677 -83 0
5678 -5677 83 0
5678 5677 -83 0
-5679 5678 84 0
-5679 -5678 -84 0
5679 -5678 84 0
5679 5678 -84 0
-5680 5679 87 0
-5680 -5679 -87 0
5680 -5679 87 0
5680 5679 -87 0
-5681 5680 88 0
-5681 -5680 -88 0
5681 -5680 88 0
5681 5680 -88 0
-5682 5681 89 0
-5682 -5681 -89 0
5682 -5681 89 0
5682 5681 -89 0
-5683 5682 92 0
-5683 -5682 -92 0
5683 -5682 92 0
5683 5682 -92 0
-5684 5683 95 0
-5684 -5683 -95 0
5684 -5683 95 0
5684 5683 -95 0
-5685 5684 96 0
-5685 -5684 -96 0
5685 -5684 96 0
5685 5684 -96 0
-5686 5685 97 0
-5686 -5685 -97 0
5686 -5685 97 0
5686 5685 -97 0
-5687 5686 99 0
-5687 -5686 -99 0
5687 -5686 99 0
5687 5686 -99 0
-5688 5687 103 0
-5688 -5687 -103 0
5688 -5687 103 0
5688 5687 -103 0
-5689 5688 108 0
-5689 -5688 -108 0
5689 -5688 108 0
5689 5688 -108 0
-5690 5689 109 0
-5690 -5689 -109 0
5690 -5689 109 0
5690 5689 -109 0
-5691 5690 110 0
-5691 -5690 -110 0
5691 -5690 110 0
5691 5690 -110 0
-5692 5691 111 0
-5692 -5691 -111 0
5692 -5691 111 0
5692 5691 -111 0
-5693 5692 117 0
-5693 -5692 -117 0
5693 -5692 117 0
5693 5692 -117 0
-5694 5693 118 0
-5694 -5693 -118 0
5694 -5693 118 0
5694 5693 -118 0
-5695 5694 119 0
-5695 -5694 -119 0
5695 -5694 119 0
5695 5694 -119 0
-5696 5695 120 0
-5696 -5695 -120 0
5696 -5695 120 0
5696 5695 -120 0
-5697 5696 126 0
-5697 -5696 -126 0
5697 -5696 126 0
5697 5696 -126 0
-5698 5697 131 0
-5698 -5697 -131 0
5698 -5697 131 0
5698 5697 -131 0
-5699 5698 133 0
-5699 -5698 -133 0
5699 -5698 133 0
5699 5698 -133 0
-5700 5699 136 0
-5700 -5699 -136 0
5700 -5699 136 0
5700 5699 -136 0
-5701 5700 138 0
-5701 -5700 -138 0
5701 -5700 138 0
5701 5700 -138 0
-5702 5701 139 0
-5702 -5701 -139 0
5702 -5701 139 0
5702 5701 -139 0
-5703 5702 140 0
-5703 -5702 -140 0
5703 -5702 140 0
5703 5702 -140 0
-5704 5703 141 0
-5704 -5703 -141 0
5704 -5703 141 0
5704 5703 -141 0
-5705 5704 142 0
-5705 -5704 -142 0
5705 -5704 142 0
5705 5704 -142 0
-5705 0
-5706 14 69 0
-5706 -14 -69 0
5706 -14 69 0
5706 14 -69 0
-5707 5706 71 0
-5707 -5706 -71 0
5707 -5706 71 0
5707 5706 -71 0
-5708 5707 72 0
-5708 -5707 -72 0
5708 -5707 72 0
5708 5707 -72 0
-5709 5708 74 0
-5709 -5708 -74 0
5709 -5708 74 0
5709 5708 -74 0
-5710 5709 79 0
-5710 -5709 -79 0
5710 -5709 79 0
5710 5709 -79 0
-5711 5710 82 0
-5711 -5710 -82 0
5711 -5710 82 0
5711 5710 -82 0
-5712 5711 84 0
-5712 -5711 -84 0
5712 -5711 84 0
5712 5711 -84 0
-5713 5712 88 0
-5713 -5712 -88 0
5713 -5712 88 0
5713 5712 -88 0
-5714 5713 89 0
-5714 -5713 -89 0
5714 -5713 89 0
5714 5713 -89 0
-5715 5714 90 0
-5715 -5714 -90 0
5715 -5714 90 0
5715 5714 -90 0
-5716 5715 95 0
-5716 -5715 -95 0
5716 -5715 95 0
5716 5715 -95 0
-5717 5716 96 0
-5717 -5716 -96 0
5717 -5716 96 0
5717 5716 -96 0
-5718 5717 97 0
-5718 -5717 -97 0
5718 -5717 97 0
5718 5717 -97 0
-5719 5718 99 0
-5719 -5718 -99 0
5719 -5718 99 0
5719 5718 -99 0
-5720 5719 101 0
-5720 -5719 -101 0
5720 -5719 101 0
5720 5719 -101 0
-5721 5720 102 0
-5721 -5720 -102 0
5721 -5720 102 0
5721 5720 -102 0
-5722 5721 103 0
-5722 -5721 -103 0
5722 -5721 103 0
5722 5721 -103 0
-5723 5722 106 0
-5723 -5722 -106 0
5723 -5722 106 0
5723 5722 -106 0
-5724 5723 108 0
-5724 -5723 -108 0
5724 -5723 108 0
5724 5723 -108 0
-5725 5724 109 0
-5725 -5724 -109 0
5725 -5724 109 0
5725 5724 -109 0
-5726 5725 110 0
-5726 -5725 -110 0
5726 -5725 110 0
5726 5725 -110 0
-5727 5726 112 0
-5727 -5726 -112 0
5727 -5726 112 0
5727 5726 -112 0
-5728 5727 113 0
-5728 -5727 -113 0
5728 -5727 113 0
5728 5727 -113 0
-5729 5728 115 0
-5729 -5728 -115 0
5729 -5728 115 0
5729 5728 -115 0
-5730 5729 116 0
-5730 -5729 -116 0
5730 -5729 116 0
5730 5729 -116 0
-5731 5730 119 0
-5731 -5730 -119 0
5731 -5730 119 0
5731 5730 -119 0
-5732 5731 122 0
-5732 -5731 -122 0
5732 -5731 122 0
5732 5731 -122 0
-5733 5732 123 0
-5733 -5732 -123 0
5733 -5732 123 0
5733 5732 -123 0
-5734 5733 124 0
-5734 -5733 -124 0
5734 -5733 124 0
5734 5733 -124 0
-5735 5734 125 0
-5735 -5734 -125 0
5735 -5734 125 0
5735 5734 -125 0
-5736 5735 126 0
-5736 -5735 -126 0
5736 -5735 126 0
5736 5735 -126 0
-5737 5736 127 0
-5737 -5736 -127 0
5737 -5736 127 0
5737 5736 -127 0
-5738 5737 128 0
-5738 -5737 -128 0
5738 -5737 128 0
5738 5737 -128 0
-5739 5738 129 0
-5739 -5738 -129 0
5739 -5738 129 0
5739 5738 -129 0
-5740 5739 130 0
-5740 -5739 -130 0
5740 -5739 130 0
5740 5739 -130 0
-5741 5740 131 0
-5741 -5740 -131 0
5741 -5740 131 0
5741 5740 -131 0
-5742 5741 133 0
-5742 -5741 -133 0
5742 -5741 133 0
5742 5741 -133 0
-5743 5742 136 0
-5743 -5742 -136 0
5743 -5742 136 0
5743 5742 -136 0
-5744 5743 137 0
-5744 -5743 -137 0
5744 -5743 137 0
5744 5743 -137 0
-5745 5744 138 0
-5745 -5744 -138 0
5745 -5744 138 0
5745 5744 -138 0
-5746 5745 141 0
-5746 -5745 -141 0
5746 -5745 141 0
5746 5745 -141 0
-5747 5746 143 0
-5747 -5746 -143 0
5747 -5746 143 0
5747 5746 -143 0
-5748 5747 144 0
-5748 -5747 -144 0
5748 -5747 144 0
5748 5747 -144 0
-5748 0
-5749 15 69 0
-5749 -15 -69 0
5749 -15 69 0
5749 15 -69 0
-5750 5749 70 0
-5750 -5749 -70 0
5750 -5749 70 0
5750 5749 -70 0
-5751 5750 71 0
-5751 -5750 -71 0
5751 -5750 71 0
5751 5750 -71 0
-5752 5751 72 0
-5752 -5751 -72 0
5752 -5751 72 0
5752 5751 -72 0
-5753 5752 74 0
-5753 -5752 -74 0
5753 -5752 74 0
5753 5752 -74 0
-5754 5753 75 0
-5754 -5753 -75 0
5754 -5753 75 0
5754 5753 -75 0
-5755 5754 76 0
-5755 -5754 -76 0
5755 -5754 76 0
5755 5754 -76 0
-5756 5755 78 0
-5756 -5755 -78 0
5756 -5755 78 0
5756 5755 -78 0
-5757 5756 79 0
-5757 -5756 -79 0
5757 -5756 79 0
5757 5756 -79 0
-5758 5757 80 0
-5758 -5757 -80 0
5758 -5757 80 0
5758 5757 -80 0
-5759 5758 83 0
-5759 -5758 -83 0
5759 -5758 83 0
5759 5758 -83 0
-5760 5759 85 0
-5760 -5759 -85 0
5760 -5759 85 0
5760 5759 -85 0
-5761 5760 89 0
-5761 -5760 -89 0
5761 -5760 89 0
5761 5760 -89 0
-5762 5761 90 0
-5762 -5761 -90 0
5762 -5761 90 0
5762 5761 -90 0
-5763 5762 93 0
-5763 -5762 -93 0
5763 -5762 93 0
5763 5762 -93 0
-5764 5763 95 0
-5764 -5763 -95 0
5764 -5763 95 0
5764 5763 -95 0
-5765 5764 96 0
-5765 -5764 -96 0
5765 -5764 96 0
5765 5764 -96 0
-5766 5765 99 0
-5766 -5765 -99 0
5766 -5765 99 0
5766 5765 -99 0
-5767 5766 101 0
-5767 -5766 -101 0
5767 -5766 101 0
5767 5766 -101 0
-5768 5767 103 0
-5768 -5767 -103 0
5768 -5767 103 0
5768 5767 -103 0
-5769 5768 106 0
-5769 -5768 -106 0
5769 -5768 106 0
5769 5768 -106 0
-5770 5769 107 0
-5770 -5769 -107 0
5770 -5769 107 0
5770 5769 -107 0
-5771 5770 108 0
-5771 -5770 -108 0
5771 -5770 108 0
5771 5770 -108 0
-5772 5771 109 0
-5772 -5771 -109 0
5772 -5771 109 0
5772 5771 -109 0
-5773 5772 110 0
-5773 -5772 -110 0
5773 -5772 110 0
5773 5772 -110 0
-5774 5773 114 0
-5774 -5773 -114 0
5774 -5773 114 0
5774 5773 -114 0
-5775 5774 117 0
-5775 -5774 -117 0
5775 -5774 117 0
5775 5774 -117 0
-5776 5775 118 0
-5776 -5775 -118 0
5776 -5775 118 0
5776 5775 -118 0
-5777 5776 122 0
-5777 -5776 -122 0
5777 -5776 122 0
5777 5776 -122 0
-5778 5777 127 0
-5778 -5777 -127 0
5778 -5777 127 0
5778 5777 -127 0
-5779 5778 133 0
-5779 -5778 -133 0
5779 -5778 133 0
5779 5778 -133 0
-5780 5779 136 0
-5780 -5779 -136 0
5780 -5779 136 0
5780 5779 -136 0
-5781 5780 137 0
-5781 -5780 -137 0
5781 -5780 137 0
5781 5780 -137 0
-5782 5781 139 0
-5782 -5781 -139 0
5782 -5781 139 0
5782 5781 -139 0
-5783 5782 140 0
-5783 -5782 -140 0
5783 -5782 140 0
5783 5782 -140 0
-5783 0
-5784 16 69 0
-5784 -16 -69 0
5784 -16 69 0
5784 16 -69 0
-5785 5784 70 0
-5785 -5784 -70 0
5785 -5784 70 0
5785 5784 -70 0
-5786 5785 72 0
-5786 -5785 -72 0
5786 -5785 72 0
5786 5785 -72 0
-5787 5786 73 0
-5787 -5786 -73 0
5787 -5786 73 0
5787 5786 -73 0
-5788 5787 74 0
-5788 -5787 -74 0
5788 -5787 74 0
5788 5787 -74 0
-5789 5788 75 0
-5789 -5788 -75 0
5789 -5788 75 0
5789 5788 -75 0
-5790 5789 77 0
-5790 -5789 -77 0
5790 -5789 77 0
5790 5789 -77 0
-5791 5790 78 0
-5791 -5790 -78 0
5791 -5790 78 0
5791 5790 -78 0
-5792 5791 80 0
-5792 -5791 -80 0
5792 -5791 80 0
5792 5791 -80 0
-5793 5792 81 0
-5793 -5792 -81 0
5793 -5792 81 0
5793 5792 -81 0
-5794 5793 84 0
-5794 -5793 -84 0
5794 -5793 84 0
5794 5793 -84 0
-5795 5794 85 0
-5795 -5794 -85 0
5795 -5794 85 0
5795 5794 -85 0
-5796 5795 86 0
-5796 -5795 -86 0
5796 -5795 86 0
5796 5795 -86 0
-5797 5796 90 0
-5797 -5796 -90 0
5797 -5796 90 0
5797 5796 -90 0
-5798 5797 93 0
-5798 -5797 -93 0
5798 -5797 93 0
5798 5797 -93 0
-5799 5798 94 0
-5799 -5798 -94 0
5799 -5798 94 0
5799 5798 -94 0
-5800 5799 95 0
-5800 -5799 -95 0
5800 -5799 95 0
5800 5799 -95 0
-5801 5800 96 0
-5801 -5800 -96 0
5801 -5800 96 0
5801 5800 -96 0
-5802 5801 97 0
-5802 -5801 -97 0
5802 -5801 97 0
5802 5801 -97 0
-5803 5802 98 0
-5803 -5802 -98 0
5803 -5802 98 0
5803 5802 -98 0
-5804 5803 99 0
-5804 -5803 -99 0
5804 -5803 99 0
5804 5803 -99 0
-5805 5804 101 0
-5805 -5804 -101 0
5805 -5804 101 0
5805 5804 -101 0
-5806 5805 103 0
-5806 -5805 -103 0
5806 -5805 103 0
5806 5805 -103 0
-5807 5806 106 0
-5807 -5806 -106 0
5807 -5806 106 0
5807 5806 -106 0
-5808 5807 107 0
-5808 -5807 -107 0
5808 -5807 107 0
5808 5807 -107 0
-5809 5808 110 0
-5809 -5808 -110 0
5809 -5808 110 0
5809 5808 -110 0
-5810 5809 113 0
-5810 -5809 -113 0
5810 -5809 113 0
5810 5809 -113 0
-5811 5810 116 0
-5811 -5810 -116 0
5811 -5810 116 0
5811 5810 -116 0
-5812 5811 119 0
-5812 -5811 -119 0
5812 -5811 119 0
5812 5811 -119 0
-5813 5812 120 0
-5813 -5812 -120 0
5813 -5812 120 0
5813 5812 -120 0
-5814 5813 121 0
-5814 -5813 -121 0
5814 -5813 121 0
5814 5813 -121 0
-5815 5814 122 0
-5815 -5814 -122 0
5815 -5814 122 0
5815 5814 -122 0
-5816 5815 124 0
-5816 -5815 -124 0
5816 -5815 124 0
5816 5815 -124 0
-5817 5816 125 0
-5817 -5816 -125 0
5817 -5816 125 0
5817 5816 -125 0
-5818 5817 126 0
-5818 -5817 -126 0
5818 -5817 126 0
5818 5817 -126 0
-5819 5818 127 0
-5819 -5818 -127 0
5819 -5818 127 0
5819 5818 -127 0
-5820 5819 129 0
-5820 -5819 -129 0
5820 -5819 129 0
5820 5819 -129 0
-5821 5820 130 0
-5821 -5820 -130 0
5821 -5820 130 0
5821 5820 -130 0
-5822 5821 131 0
-5822 -5821 -131 0
5822 -5821 131 0
5822 5821 -131 0
-5823 5822 132 0
-5823 -5822 -132 0
5823 -5822 132 0
5823 5822 -132 0
-5824 5823 136 0
-5824 -5823 -136 0
5824 -5823 136 0
5824 5823 -136 0
-5825 5824 137 0
-5825 -5824 -137 0
5825 -5824 137 0
5825 5824 -137 0
-5826 5825 141 0
-5826 -5825 -141 0
5826 -5825 141 0
5826 5825 -141 0
-5827 5826 142 0
-5827 -5826 -142 0
5827 -5826 142 0
5827 5826 -142 0
-5828 5827 144 0
-5828 -5827 -144 0
5828 -5827 144 0
5828 5827 -144 0
-5828 0
-5829 17 69 0
-5829 -17 -69 0
5829 -17 69 0
5829 17 -69 0
-5830 5829 70 0
-5830 -5829 -70 0
5830 -5829 70 0
5830 5829 -70 0
-5831 5830 73 0
-5831 -5830 -73 0
5831 -5830 73 0
5831 5830 -73 0
-5832 5831 75 0
-5832 -5831 -75 0
5832 -5831 75 0
5832 5831 -75 0
-5833 5832 79 0
-5833 -5832 -79 0
5833 -5832 79 0
5833 5832 -79 0
-5834 5833 81 0
-5834 -5833 -81 0
5834 -5833 81 0
5834 5833 -81 0
-5835 5834 82 0
-5835 -5834 -82 0
5835 -5834 82 0
5835 5834 -82 0
-5836 5835 85 0
-5836 -5835 -85 0
5836 -5835 85 0
5836 5835 -85 0
-5837 5836 86 0
-5837 -5836 -86 0
5837 -5836 86 0
5837 5836 -86 0
-5838 5837 87 0
-5838 -5837 -87 0
5838 -5837 87 0
5838 5837 -87 0
-5839 5838 93 0
-5839 -5838 -93 0
5839 -5838 93 0
5839 5838 -93 0
-5840 5839 94 0
-5840 -5839 -94 0
5840 -5839 94 0
5840 5839 -94 0
-5841 5840 96 0
-5841 -5840 -96 0
5841 -5840 96 0
5841 5840 -96 0
-5842 5841 97 0
-5842 -5841 -97 0
5842 -5841 97 0
5842 5841 -97 0
-5843 5842 101 0
-5843 -5842 -101 0
5843 -5842 101 0
5843 5842 -101 0
-5844 5843 106 0
-5844 -5843 -106 0
5844 -5843 106 0
5844 5843 -106 0
-5845 5844 107 0
-5845 -5844 -107 0
5845 -5844 107 0
5845 5844 -107 0
-5846 5845 109 0
-5846 -5845 -109 0
5846 -5845 109 0
5846 5845 -109 0
-5847 5846 113 0
-5847 -5846 -113 0
5847 -5846 113 0
5847 5846 -113 0
-5848 5847 114 0
-5848 -5847 -114 0
5848 -5847 114 0
5848 5847 -114 0
-5849 5848 115 0
-5849 -5848 -115 0
5849 -5848 115 0
5849 5848 -115 0
-5850 5849 116 0
-5850 -5849 -116 0
5850 -5849 116 0
5850 5849 -116 0
-5851 5850 117 0
-5851 -5850 -117 0
5851 -5850 117 0
5851 5850 -117 0
-5852 5851 118 0
-5852 -5851 -118 0
5852 -5851 118 0
5852 5851 -118 0
-5853 5852 124 0
-5853 -5852 -124 0
5853 -5852 124 0
5853 5852 -124 0
-5854 5853 129 0
-5854 -5853 -129 0
5854 -5853 129 0
5854 5853 -129 0
-5855 5854 134 0
-5855 -5854 -134 0
5855 -5854 134 0
5855 5854 -134 0
-5856 5855 136 0
-5856 -5855 -136 0
5856 -5855 136 0
5856 5855 -136 0
-5857 5856 137 0
-5857 -5856 -137 0
5857 -5856 137 0
5857 5856 -137 0
-5858 5857 139 0
-5858 -5857 -139 0
5858 -5857 139 0
5858 5857 -139 0
-5859 5858 140 0
-5859 -5858 -140 0
5859 -5858 140 0
5859 5858 -140 0
-5860 5859 143 0
-5860 -5859 -143 0
5860 -5859 143 0
5860 5859 -143 0
-5861 5860 144 0
-5861 -5860 -144 0
5861 -5860 144 0
5861 5860 -144 0
-5861 0
-5862 18 70 0
-5862 -18 -70 0
5862 -18 70 0
5862 18 -70 0
-5863 5862 71 0
-5863 -5862 -71 0
5863 -5862 71 0
5863 5862 -71 0
-5864 5863 74 0
-5864 -5863 -74 0
5864 -5863 74 0
5864 5863 -74 0
-5865 5864 76 0
-5865 -5864 -76 0
5865 -5864 76 0
5865 5864 -76 0
-5866 5865 80 0
-5866 -5865 -80 0
5866 -5865 80 0
5866 5865 -80 0
-5867 5866 82 0
-5867 -5866 -82 0
5867 -5866 82 0
5867 5866 -82 0
-5868 5867 83 0
-5868 -5867 -83 0
5868 -5867 83 0
5868 5867 -83 0
-5869 5868 86 0
-5869 -5868 -86 0
5869 -5868 86 0
5869 5868 -86 0
-5870 5869 87 0
-5870 -5869 -87 0
5870 -5869 87 0
5870 5869 -87 0
-5871 5870 88 0
-5871 -5870 -88 0
5871 -5870 88 0
5871 5870 -88 0
-5872 5871 91 0
-5872 -5871 -91 0
5872 -5871 91 0
5872 5871 -91 0
-5873 5872 94 0
-5873 -5872 -94 0
5873 -5872 94 0
5873 5872 -94 0
-5874 5873 95 0
-5874 -5873 -95 0
5874 -5873 95 0
5874 5873 -95 0
-5875 5874 98 0
-5875 -5874 -98 0
5875 -5874 98 0
5875 5874 -98 0
-5876 5875 102 0
-5876 -5875 -102 0
5876 -5875 102 0
5876 5875 -102 0
-5877 5876 107 0
-5877 -5876 -107 0
5877 -5876 107 0
5877 5876 -107 0
-5878 5877 108 0
-5878 -5877 -108 0
5878 -5877 108 0
5878 5877 -108 0
-5879 5878 109 0
-5879 -5878 -109 0
5879 -5878 109 0
5879 5878 -109 0
-5880 5879 110 0
-5880 -5879 -110 0
5880 -5879 110 0
5880 5879 -110 0
-5881 5880 114 0
-5881 -5880 -114 0
5881 -5880 114 0
5881 5880 -114 0
-5882 5881 116 0
-5882 -5881 -116 0
5882 -5881 116 0
5882 5881 -116 0
-5883 5882 117 0
-5883 -5882 -117 0
5883 -5882 117 0
5883 5882 -117 0
-5884 5883 118 0
-5884 -5883 -118 0
5884 -5883 118 0
5884 5883 -118 0
-5885 5884 119 0
-5885 -5884 -119 0
5885 -5884 119 0
5885 5884 -119 0
-5886 5885 125 0
-5886 -5885 -125 0
5886 -5885 125 0
5886 5885 -125 0
-5887 5886 130 0
-5887 -5886 -130 0
5887 -5886 130 0
5887 5886 -130 0
-5888 5887 135 0
-5888 -5887 -135 0
5888 -5887 135 0
5888 5887 -135 0
-5889 5888 137 0
-5889 -5888 -137 0
5889 -5888 137 0
5889 5888 -137 0
-5890 5889 138 0
-5890 -5889 -138 0
5890 -5889 138 0
5890 5889 -138 0
-5891 5890 139 0
-5891 -5890 -139 0
5891 -5890 139 0
5891 5890 -139 0
-5892 5891 140 0
-5892 -5891 -140 0
5892 -5891 140 0
5892 5891 -140 0
-5893 5892 141 0
-5893 -5892 -141 0
5893 -5892 141 0
5893 5892 -141 0
-5894 5893 144 0
-5894 -5893 -144 0
5894 -5893 144 0
5894 5893 -144 0
-5894 0
-5895 19 69 0
-5895 -19 -69 0
5895 -19 69 0
5895 19 -69 0
-5896 5895 71 0
-5896 -5895 -71 0
5896 -5895 71 0
5896 5895 -71 0
-5897 5896 73 0
-5897 -5896 -73 0
5897 -5896 73 0
5897 5896 -73 0
-5898 5897 75 0
-5898 -5897 -75 0
5898 -5897 75 0
5898 5897 -75 0
-5899 5898 76 0
-5899 -5898 -76 0
5899 -5898 76 0
5899 5898 -76 0
-5900 5899 77 0
-5900 -5899 -77 0
5900 -5899 77 0
5900 5899 -77 0
-5901 5900 79 0
-5901 -5900 -79 0
5901 -5900 79 0
5901 5900 -79 0
-5902 5901 80 0
-5902 -5901 -80 0
5902 -5901 80 0
5902 5901 -80 0
-5903 5902 81 0
-5903 -5902 -81 0
5903 -5902 81 0
5903 5902 -81 0
-5904 5903 82 0
-5904 -5903 -82 0
5904 -5903 82 0
5904 5903 -82 0
-5905 5904 83 0
-5905 -5904 -83 0
5905 -5904 83 0
5905 5904 -83 0
-5906 5905 84 0
-5906 -5905 -84 0
5906 -5905 84 0
5906 5905 -84 0
-5907 5906 90 0
-5907 -5906 -90 0
5907 -5906 90 0
5907 5906 -90 0
-5908 5907 91 0
-5908 -5907 -91 0
5908 -5907 91 0
5908 5907 -91 0
-5909 5908 93 0
-5909 -5908 -93 0
5909 -5908 93 0
5909 5908 -93 0
-5910 5909 94 0
-5910 -5909 -94 0
5910 -5909 94 0
5910 5909 -94 0
-5911 5910 98 0
-5911 -5910 -98 0
5911 -5910 98 0
5911 5910 -98 0
-5912 5911 99 0
-5912 -5911 -99 0
5912 -5911 99 0
5912 5911 -99 0
-5913 5912 101 0
-5913 -5912 -101 0
5913 -5912 101 0
5913 5912 -101 0
-5914 5913 103 0
-5914 -5913 -103 0
5914 -5913 103 0
5914 5913 -103 0
-5915 5914 104 0
-5915 -5914 -104 0
5915 -5914 104 0
5915 5914 -104 0
-5916 5915 105 0
-5916 -5915 -105 0
5916 -5915 105 0
5916 5915 -105 0
-5917 5916 108 0
-5917 -5916 -108 0
5917 -5916 108 0
5917 5916 -108 0
-5918 5917 109 0
-5918 -5917 -109 0
5918 -5917 109 0
5918 5917 -109 0
-5919 5918 113 0
-5919 -5918 -113 0
5919 -5918 113 0
5919 5918 -113 0
-5920 5919 115 0
-5920 -5919 -115 0
5920 -5919 115 0
5920 5919 -115 0
-5921 5920 116 0
-5921 -5920 -116 0
5921 -5920 116 0
5921 5920 -116 0
-5922 5921 117 0
-5922 -5921 -117 0
5922 -5921 117 0
5922 5921 -117 0
-5923 5922 118 0
-5923 -5922 -118 0
5923 -5922 118 0
5923 5922 -118 0
-5924 5923 119 0
-5924 -5923 -119 0
5924 -5923 119 0
5924 5923 -119 0
-5925 5924 121 0
-5925 -5924 -121 0
5925 -5924 121 0
5925 5924 -121 0
-5926 5925 126 0
-5926 -5925 -126 0
5926 -5925 126 0
5926 5925 -126 0
-5927 5926 127 0
-5927 -5926 -127 0
5927 -5926 127 0
5927 5926 -127 0
-5928 5927 129 0
-5928 -5927 -129 0
5928 -5927 129 0
5928 5927 -129 0
-5929 5928 130 0
-5929 -5928 -130 0
5929 -5928 130 0
5929 5928 -130 0
-5930 5929 134 0
-5930 -5929 -134 0
5930 -5929 134 0
5930 5929 -134 0
-5931 5930 135 0
-5931 -5930 -135 0
5931 -5930 135 0
5931 5930 -135 0
-5932 5931 136 0
-5932 -5931 -136 0
5932 -5931 136 0
5932 5931 -136 0
-5933 5932 139 0
-5933 -5932 -139 0
5933 -5932 139 0
5933 5932 -139 0
-5934 5933 140 0
-5934 -5933 -140 0
5934 -5933 140 0
5934 5933 -140 0
-5935 5934 141 0
-5935 -5934 -141 0
5935 -5934 141 0
5935 5934 -141 0
-5935 0
-5936 20 70 0
-5936 -20 -70 0
5936 -20 70 0
5936 20 -70 0
-5937 5936 72 0
-5937 -5936 -72 0
5937 -5936 72 0
5937 5936 -72 0
-5938 5937 74 0
-5938 -5937 -74 0
5938 -5937 74 0
5938 5937 -74 0
-5939 5938 76 0
-5939 -5938 -76 0
5939 -5938 76 0
5939 5938 -76 0
-5940 5939 77 0
-5940 -5939 -77 0
5940 -5939 77 0
5940 5939 -77 0
-5941 5940 78 0
-5941 -5940 -78 0
5941 -5940 78 0
5941 5940 -78 0
-5942 5941 79 0
-5942 -5941 -79 0
5942 -5941 79 0
5942 5941 -79 0
-5943 5942 80 0
-5943 -5942 -80 0
5943 -5942 80 0
5943 5942 -80 0
-5944 5943 81 0
-5944 -5943 -81 0
5944 -5943 81 0
5944 5943 -81 0
-5945 5944 82 0
-5945 -5944 -82 0
5945 -5944 82 0
5945 5944 -82 0
-5946 5945 83 0
-5946 -5945 -83 0
5946 -5945 83 0
5946 5945 -83 0
-5947 5946 84 0
-5947 -5946 -84 0
5947 -5946 84 0
5947 5946 -84 0
-5948 5947 85 0
-5948 -5947 -85 0
5948 -5947 85 0
5948 5947 -85 0
-5949 5948 92 0
-5949 -5948 -92 0
5949 -5948 92 0
5949 5948 -92 0
-5950 5949 94 0
-5950 -5949 -94 0
5950 -5949 94 0
5950 5949 -94 0
-5951 5950 95 0
-5951 -5950 -95 0
5951 -5950 95 0
5951 5950 -95 0
-5952 5951 99 0
-5952 -5951 -99 0
5952 -5951 99 0
5952 5951 -99 0
-5953 5952 100 0
-5953 -5952 -100 0
5953 -5952 100 0
5953 5952 -100 0
-5954 5953 102 0
-5954 -5953 -102 0
5954 -5953 102 0
5954 5953 -102 0
-5955 5954 103 0
-5955 -5954 -103 0
5955 -5954 103 0
5955 5954 -103 0
-5956 5955 104 0
-5956 -5955 -104 0
5956 -5955 104 0
5956 5955 -104 0
-5957 5956 105 0
-5957 -5956 -105 0
5957 -5956 105 0
5957 5956 -105 0
-5958 5957 106 0
-5958 -5957 -106 0
5958 -5957 106 0
5958 5957 -106 0
-5959 5958 110 0
-5959 -5958 -110 0
5959 -5958 110 0
5959 5958 -110 0
-5960 5959 114 0
-5960 -5959 -114 0
5960 -5959 114 0
5960 5959 -114 0
-5961 5960 116 0
-5961 -5960 -116 0
5961 -5960 116 0
5961 5960 -116 0
-5962 5961 117 0
-5962 -5961 -117 0
5962 -5961 117 0
5962 5961 -117 0
-5963 5962 118 0
-5963 -5962 -118 0
5963 -5962 118 0
5963 5962 -118 0
-5964 5963 119 0
-5964 -5963 -119 0
5964 -5963 119 0
5964 5963 -119 0
-5965 5964 120 0
-5965 -5964 -120 0
5965 -5964 120 0
5965 5964 -120 0
-5966 5965 121 0
-5966 -5965 -121 0
5966 -5965 121 0
5966 5965 -121 0
-5967 5966 122 0
-5967 -5966 -122 0
5967 -5966 122 0
5967 5966 -122 0
-5968 5967 128 0
-5968 -5967 -128 0
5968 -5967 128 0
5968 5967 -128 0
-5969 5968 130 0
-5969 -5968 -130 0
5969 -5968 130 0
5969 5968 -130 0
-5970 5969 131 0
-5970 -5969 -131 0
5970 -5969 131 0
5970 5969 -131 0
-5971 5970 135 0
-5971 -5970 -135 0
5971 -5970 135 0
5971 5970 -135 0
-5972 5971 136 0
-5972 -5971 -136 0
5972 -5971 136 0
5972 5971 -136 0
-5973 5972 137 0
-5973 -5972 -137 0
5973 -5972 137 0
5973 5972 -137 0
-5974 5973 140 0
-5974 -5973 -140 0
5974 -5973 140 0
5974 5973 -140 0
-5975 5974 141 0
-5975 -5974 -141 0
5975 -5974 141 0
5975 5974 -141 0
-5976 5975 142 0
-5976 -5975 -142 0
5976 -5975 142 0
5976 5975 -142 0
-5976 0
-5977 21 69 0
-5977 -21 -69 0
5977 -21 69 0
5977 21 -69 0
-5978 5977 73 0
-5978 -5977 -73 0
5978 -5977 73 0
5978 5977 -73 0
-5979 5978 74 0
-5979 -5978 -74 0
5979 -5978 74 0
5979 5978 -74 0
-5980 5979 75 0
-5980 -5979 -75 0
5980 -5979 75 0
5980 5979 -75 0
-5981 5980 76 0
-5981 -5980 -76 0
5981 -5980 76 0
5981 5980 -76 0
-5982 5981 77 0
-5982 -5981 -77 0
5982 -5981 77 0
5982 5981 -77 0
-5983 5982 79 0
-5983 -5982 -79 0
5983 -5982 79 0
5983 5982 -79 0
-5984 5983 80 0
-5984 -5983 -80 0
5984 -5983 80 0
5984 5983 -80 0
-5985 5984 81 0
-5985 -5984 -81 0
5985 -5984 81 0
5985 5984 -81 0
-5986 5985 82 0
-5986 -5985 -82 0
5986 -5985 82 0
5986 5985 -82 0
-5987 5986 83 0
-5987 -5986 -83 0
5987 -5986 83 0
5987 5986 -83 0
-5988 5987 84 0
-5988 -5987 -84 0
5988 -5987 84 0
5988 5987 -84 0
-5989 5988 86 0
-5989 -5988 -86 0
5989 -5988 86 0
5989 5988 -86 0
-5990 5989 91 0
-5990 -5989 -91 0
5990 -5989 91 0
5990 5989 -91 0
-5991 5990 96 0
-5991 -5990 -96 0
5991 -5990 96 0
5991 5990 -96 0
-5992 5991 98 0
-5992 -5991 -98 0
5992 -5991 98 0
5992 5991 -98 0
-5993 5992 99 0
-5993 -5992 -99 0
5993 -5992 99 0
5993 5992 -99 0
-5994 5993 102 0
-5994 -5993 -102 0
5994 -5993 102 0
5994 5993 -102 0
-5995 5994 105 0
-5995 -5994 -105 0
5995 -5994 105 0
5995 5994 -105 0
-5996 5995 107 0
-5996 -5995 -107 0
5996 -5995 107 0
5996 5995 -107 0
-5997 5996 108 0
-5997 -5996 -108 0
5997 -5996 108 0
5997 5996 -108 0
-5998 5997 113 0
-5998 -5997 -113 0
5998 -5997 113 0
5998 5997 -113 0
-5999 5998 115 0
-5999 -5998 -115 0
5999 -5998 115 0
5999 5998 -115 0
-6000 5999 116 0
-6000 -5999 -116 0
6000 -5999 116 0
6000 5999 -116 0
-6001 6000 117 0
-6001 -6000 -117 0
6001 -6000 117 0
6001 6000 -117 0
-6002 6001 119 0
-6002 -6001 -119 0
6002 -6001 119 0
6002 6001 -119 0
-6003 6002 121 0
-6003 -6002 -121 0
6003 -6002 121 0
6003 6002 -121 0
-6004 6003 124 0
-6004 -6003 -124 0
6004 -6003 124 0
6004 6003 -124 0
-6005 6004 125 0
-6005 -6004 -125 0
6005 -6004 125 0
6005 6004 -125 0
-6006 6005 126 0
-6006 -6005 -126 0
6006 -6005 126 0
6006 6005 -126 0
-6007 6006 127 0
-6007 -6006 -127 0
6007 -6006 127 0
6007 6006 -127 0
-6008 6007 128 0
-6008 -6007 -128 0
6008 -6007 128 0
6008 6007 -128 0
-6009 6008 130 0
-6009 -6008 -130 0
6009 -6008 130 0
6009 6008 -130 0
-6010 6009 134 0
-6010 -6009 -134 0
6010 -6009 134 0
6010 6009 -134 0
-6011 6010 137 0
-6011 -6010 -137 0
6011 -6010 137 0
6011 6010 -137 0
-6012 6011 140 0
-6012 -6011 -140 0
6012 -6011 140 0
6012 6011 -140 0
-6013 6012 141 0
-6013 -6012 -141 0
6013 -6012 141 0
6013 6012 -141 0
-6014 6013 143 0
-6014 -6013 -143 0
6014 -6013 143 0
6014 6013 -143 0
-6015 6014 144 0
-6015 -6014 -144 0
6015 -6014 144 0
6015 6014 -144 0
-6015 0
-6016 22 70 0
-6016 -22 -70 0
6016 -22 70 0
6016 22 -70 0
-6017 6016 74 0
-6017 -6016 -74 0
6017 -6016 74 0
6017 6016 -74 0
-6018 6017 75 0
-6018 -6017 -75 0
6018 -6017 75 0
6018 6017 -75 0
-6019 6018 76 0
-6019 -6018 -76 0
6019 -6018 76 0
6019 6018 -76 0
-6020 6019 77 0
-6020 -6019 -77 0
6020 -6019 77 0
6020 6019 -77 0
-6021 6020 78 0
-6021 -6020 -78 0
6021 -6020 78 0
6021 6020 -78 0
-6022 6021 79 0
-6022 -6021 -79 0
6022 -6021 79 0
6022 6021 -79 0
-6023 6022 80 0
-6023 -6022 -80 0
6023 -6022 80 0
6023 6022 -80 0
-6024 6023 81 0
-6024 -6023 -81 0
6024 -6023 81 0
6024 6023 -81 0
-6025 6024 82 0
-6025 -6024 -82 0
6025 -6024 82 0
6025 6024 -82 0
-6026 6025 83 0
-6026 -6025 -83 0
6026 -6025 83 0
6026 6025 -83 0
-6027 6026 84 0
-6027 -6026 -84 0
6027 -6026 84 0
6027 6026 -84 0
-6028 6027 87 0
-6028 -6027 -87 0
6028 -6027 87 0
6028 6027 -87 0
-6029 6028 91 0
-6029 -6028 -91 0
6029 -6028 91 0
6029 6028 -91 0
-6030 6029 92 0
-6030 -6029 -92 0
6030 -6029 92 0
6030 6029 -92 0
-6031 6030 97 0
-6031 -6030 -97 0
6031 -6030 97 0
6031 6030 -97 0
-6032 6031 99 0
-6032 -6031 -99 0
6032 -6031 99 0
6032 6031 -99 0
-6033 6032 100 0
-6033 -6032 -100 0
6033 -6032 100 0
6033 6032 -100 0
-6034 6033 103 0
-6034 -6033 -103 0
6034 -6033 103 0
6034 6033 -103 0
-6035 6034 106 0
-6035 -6034 -106 0
6035 -6034 106 0
6035 6034 -106 0
-6036 6035 108 0
-6036 -6035 -108 0
6036 -6035 108 0
6036 6035 -108 0
-6037 6036 114 0
-6037 -6036 -114 0
6037 -6036 114 0
6037 6036 -114 0
-6038 6037 116 0
-6038 -6037 -116 0
6038 -6037 116 0
6038 6037 -116 0
-6039 6038 117 0
-6039 -6038 -117 0
6039 -6038 117 0
6039 6038 -117 0
-6040 6039 118 0
-6040 -6039 -118 0
6040 -6039 118 0
6040 6039 -118 0
-6041 6040 120 0
-6041 -6040 -120 0
6041 -6040 120 0
6041 6040 -120 0
-6042 6041 121 0
-6042 -6041 -121 0
6042 -6041 121 0
6042 6041 -121 0
-6043 6042 122 0
-6043 -6042 -122 0
6043 -6042 122 0
6043 6042 -122 0
-6044 6043 125 0
-6044 -6043 -125 0
6044 -6043 125 0
6044 6043 -125 0
-6045 6044 126 0
-6045 -6044 -126 0
6045 -6044 126 0
6045 6044 -126 0
-6046 6045 128 0
-6046 -6045 -128 0
6046 -6045 128 0
6046 6045 -128 0
-6047 6046 129 0
-6047 -6046 -129 0
6047 -6046 129 0
6047 6046 -129 0
-6048 6047 131 0
-6048 -6047 -131 0
6048 -6047 131 0
6048 6047 -131 0
-6049 6048 135 0
-6049 -6048 -135 0
6049 -6048 135 0
6049 6048 -135 0
-6050 6049 138 0
-6050 -6049 -138 0
6050 -6049 138 0
6050 6049 -138 0
-6051 6050 139 0
-6051 -6050 -139 0
6051 -6050 139 0
6051 6050 -139 0
-6052 6051 141 0
-6052 -6051 -141 0
6052 -6051 141 0
6052 6051 -141 0
-6053 6052 142 0
-6053 -6052 -142 0
6053 -6052 142 0
6053 6052 -142 0
-6054 6053 144 0
-6054 -6053 -144 0
6054 -6053 144 0
6054 6053 -144 0
-6054 0
-6055 23 71 0
-6055 -23 -71 0
6055 -23 71 0
6055 23 -71 0
-6056 6055 73 0
-6056 -6055 -73 0
6056 -6055 73 0
6056 6055 -73 0
-6057 6056 75 0
-6057 -6056 -75 0
6057 -6056 75 0
6057 6056 -75 0
-6058 6057 76 0
-6058 -6057 -76 0
6058 -6057 76 0
6058 6057 -76 0
-6059 6058 77 0
-6059 -6058 -77 0
6059 -6058 77 0
6059 6058 -77 0
-6060 6059 78 0
-6060 -6059 -78 0
6060 -6059 78 0
6060 6059 -78 0
-6061 6060 79 0
-6061 -6060 -79 0
6061 -6060 79 0
6061 6060 -79 0
-6062 6061 80 0
-6062 -6061 -80 0
6062 -6061 80 0
6062 6061 -80 0
-6063 6062 81 0
-6063 -6062 -81 0
6063 -6062 81 0
6063 6062 -81 0
-6064 6063 82 0
-6064 -6063 -82 0
6064 -6063 82 0
6064 6063 -82 0
-6065 6064 83 0
-6065 -6064 -83 0
6065 -6064 83 0
6065 6064 -83 0
-6066 6065 84 0
-6066 -6065 -84 0
6066 -6065 84 0
6066 6065 -84 0
-6067 6066 88 0
-6067 -6066 -88 0
6067 -6066 88 0
6067 6066 -88 0
-6068 6067 92 0
-6068 -6067 -92 0
6068 -6067 92 0
6068 6067 -92 0
-6069 6068 93 0
-6069 -6068 -93 0
6069 -6068 93 0
6069 6068 -93 0
-6070 6069 98 0
-6070 -6069 -98 0
6070 -6069 98 0
6070 6069 -98 0
-6071 6070 100 0
-6071 -6070 -100 0
6071 -6070 100 0
6071 6070 -100 0
-6072 6071 101 0
-6072 -6071 -101 0
6072 -6071 101 0
6072 6071 -101 0
-6073 6072 103 0
-6073 -6072 -103 0
6073 -6072 103 0
6073 6072 -103 0
-6074 6073 104 0
-6074 -6073 -104 0
6074 -6073 104 0
6074 6073 -104 0
-6075 6074 107 0
-6075 -6074 -107 0
6075 -6074 107 0
6075 6074 -107 0
-6076 6075 109 0
-6076 -6075 -109 0
6076 -6075 109 0
6076 6075 -109 0
-6077 6076 115 0
-6077 -6076 -115 0
6077 -6076 115 0
6077 6076 -115 0
-6078 6077 117 0
-6078 -6077 -117 0
6078 -6077 117 0
6078 6077 -117 0
-6079 6078 118 0
-6079 -6078 -118 0
6079 -6078 118 0
6079 6078 -118 0
-6080 6079 119 0
-6080 -6079 -119 0
6080 -6079 119 0
6080 6079 -119 0
-6081 6080 121 0
-6081 -6080 -121 0
6081 -6080 121 0
6081 6080 -121 0
-6082 6081 122 0
-6082 -6081 -122 0
6082 -6081 122 0
6082 6081 -122 0
-6083 6082 123 0
-6083 -6082 -123 0
6083 -6082 123 0
6083 6082 -123 0
-6084 6083 126 0
-6084 -6083 -126 0
6084 -6083 126 0
6084 6083 -126 0
-6085 6084 129 0
-6085 -6084 -129 0
6085 -6084 129 0
6085 6084 -129 0
-6086 6085 130 0
-6086 -6085 -130 0
6086 -6085 130 0
6086 6085 -130 0
-6087 6086 132 0
-6087 -6086 -132 0
6087 -6086 132 0
6087 6086 -132 0
-6088 6087 133 0
-6088 -6087 -133 0
6088 -6087 133 0
6088 6087 -133 0
-6089 6088 136 0
-6089 -6088 -136 0
6089 -6088 136 0
6089 6088 -136 0
-6090 6089 139 0
-6090 -6089 -139 0
6090 -6089 139 0
6090 6089 -139 0
-6091 6090 140 0
-6091 -6090 -140 0
6091 -6090 140 0
6091 6090 -140 0
-6092 6091 142 0
-6092 -6091 -142 0
6092 -6091 142 0
6092 6091 -142 0
-6093 6092 143 0
-6093 -6092 -143 0
6093 -6092 143 0
6093 6092 -143 0
-6093 0
-6094 24 72 0
-6094 -24 -72 0
6094 -24 72 0
6094 24 -72 0
-6095 6094 73 0
-6095 -6094 -73 0
6095 -6094 73 0
6095 6094 -73 0
-6096 6095 74 0
-6096 -6095 -74 0
6096 -6095 74 0
6096 6095 -74 0
-6097 6096 76 0
-6097 -6096 -76 0
6097 -6096 76 0
6097 6096 -76 0
-6098 6097 77 0
-6098 -6097 -77 0
6098 -6097 77 0
6098 6097 -77 0
-6099 6098 78 0
-6099 -6098 -78 0
6099 -6098 78 0
6099 6098 -78 0
-6100 6099 79 0
-6100 -6099 -79 0
6100 -6099 79 0
6100 6099 -79 0
-6101 6100 80 0
-6101 -6100 -80 0
6101 -6100 80 0
6101 6100 -80 0
-6102 6101 81 0
-6102 -6101 -81 0
6102 -6101 81 0
6102 6101 -81 0
-6103 6102 82 0
-6103 -6102 -82 0
6103 -6102 82 0
6103 6102 -82 0
-6104 6103 83 0
-6104 -6103 -83 0
6104 -6103 83 0
6104 6103 -83 0
-6105 6104 84 0
-6105 -6104 -84 0
6105 -6104 84 0
6105 6104 -84 0
-6106 6105 89 0
-6106 -6105 -89 0
6106 -6105 89 0
6106 6105 -89 0
-6107 6106 93 0
-6107 -6106 -93 0
6107 -6106 93 0
6107 6106 -93 0
-6108 6107 94 0
-6108 -6107 -94 0
6108 -6107 94 0
6108 6107 -94 0
-6109 6108 99 0
-6109 -6108 -99 0
6109 -6108 99 0
6109 6108 -99 0
-6110 6109 101 0
-6110 -6109 -101 0
6110 -6109 101 0
6110 6109 -101 0
-6111 6110 102 0
-6111 -6110 -102 0
6111 -6110 102 0
6111 6110 -102 0
-6112 6111 104 0
-6112 -6111 -104 0
6112 -6111 104 0
6112 6111 -104 0
-6113 6112 105 0
-6113 -6112 -105 0
6113 -6112 105 0
6113 6112 -105 0
-6114 6113 108 0
-6114 -6113 -108 0
6114 -6113 108 0
6114 6113 -108 0
-6115 6114 110 0
-6115 -6114 -110 0
6115 -6114 110 0
6115 6114 -110 0
-6116 6115 116 0
-6116 -6115 -116 0
6116 -6115 116 0
6116 6115 -116 0
-6117 6116 118 0
-6117 -6116 -118 0
6117 -6116 118 0
6117 6116 -118 0
-6118 6117 119 0
-6118 -6117 -119 0
6118 -6117 119 0
6118 6117 -119 0
-6119 6118 120 0
-6119 -6118 -120 0
6119 -6118 120 0
6119 6118 -120 0
-6120 6119 121 0
-6120 -6119 -121 0
6120 -6119 121 0
6120 6119 -121 0
-6121 6120 122 0
-6121 -6120 -122 0
6121 -6120 122 0
6121 6120 -122 0
-6122 6121 123 0
-6122 -6121 -123 0
6122 -6121 123 0
6122 6121 -123 0
-6123 6122 124 0
-6123 -6122 -124 0
6123 -6122 124 0
6123 6122 -124 0
-6124 6123 127 0
-6124 -6123 -127 0
6124 -6123 127 0
6124 6123 -127 0
-6125 6124 130 0
-6125 -6124 -130 0
6125 -6124 130 0
6125 6124 -130 0
-6126 6125 131 0
-6126 -6125 -131 0
6126 -6125 131 0
6126 6125 -131 0
-6127 6126 134 0
-6127 -6126 -134 0
6127 -6126 134 0
6127 6126 -134 0
-6128 6127 137 0
-6128 -6127 -137 0
6128 -6127 137 0
6128 6127 -137 0
-6129 6128 140 0
-6129 -6128 -140 0
6129 -6128 140 0
6129 6128 -140 0
-6130 6129 141 0
-6130 -6129 -141 0
6130 -6129 141 0
6130 6129 -141 0
-6131 6130 143 0
-6131 -6130 -143 0
6131 -6130 143 0
6131 6130 -143 0
-6132 6131 144 0
-6132 -6131 -144 0
6132 -6131 144 0
6132 6131 -144 0
-6132 0
-6133 25 71 0
-6133 -25 -71 0
6133 -25 71 0
6133 25 -71 0
-6134 6133 72 0
-6134 -6133 -72 0
6134 -6133 72 0
6134 6133 -72 0
-6135 6134 73 0
-6135 -6134 -73 0
6135 -6134 73 0
6135 6134 -73 0
-6136 6135 75 0
-6136 -6135 -75 0
6136 -6135 75 0
6136 6135 -75 0
-6137 6136 77 0
-6137 -6136 -77 0
6137 -6136 77 0
6137 6136 -77 0
-6138 6137 80 0
-6138 -6137 -80 0
6138 -6137 80 0
6138 6137 -80 0
-6139 6138 83 0
-6139 -6138 -83 0
6139 -6138 83 0
6139 6138 -83 0
-6140 6139 89 0
-6140 -6139 -89 0
6140 -6139 89 0
6140 6139 -89 0
-6141 6140 90 0
-6141 -6140 -90 0
6141 -6140 90 0
6141 6140 -90 0
-6142 6141 91 0
-6142 -6141 -91 0
6142 -6141 91 0
6142 6141 -91 0
-6143 6142 92 0
-6143 -6142 -92 0
6143 -6142 92 0
6143 6142 -92 0
-6144 6143 96 0
-6144 -6143 -96 0
6144 -6143 96 0
6144 6143 -96 0
-6145 6144 98 0
-6145 -6144 -98 0
6145 -6144 98 0
6145 6144 -98 0
-6146 6145 99 0
-6146 -6145 -99 0
6146 -6145 99 0
6146 6145 -99 0
-6147 6146 101 0
-6147 -6146 -101 0
6147 -6146 101 0
6147 6146 -101 0
-6148 6147 107 0
-6148 -6147 -107 0
6148 -6147 107 0
6148 6147 -107 0
-6149 6148 111 0
-6149 -6148 -111 0
6149 -6148 111 0
6149 6148 -111 0
-6150 6149 112 0
-6150 -6149 -112 0
6150 -6149 112 0
6150 6149 -112 0
-6151 6150 117 0
-6151 -6150 -117 0
6151 -6150 117 0
6151 6150 -117 0
-6152 6151 120 0
-6152 -6151 -120 0
6152 -6151 120 0
6152 6151 -120 0
-6153 6152 122 0
-6153 -6152 -122 0
6153 -6152 122 0
6153 6152 -122 0
-6154 6153 123 0
-6154 -6153 -123 0
6154 -6153 123 0
6154 6153 -123 0
-6155 6154 126 0
-6155 -6154 -126 0
6155 -6154 126 0
6155 6154 -126 0
-6156 6155 129 0
-6156 -6155 -129 0
6156 -6155 129 0
6156 6155 -129 0
-6157 6156 130 0
-6157 -6156 -130 0
6157 -6156 130 0
6157 6156 -130 0
-6158 6157 134 0
-6158 -6157 -134 0
6158 -6157 134 0
6158 6157 -134 0
-6159 6158 136 0
-6159 -6158 -136 0
6159 -6158 136 0
6159 6158 -136 0
-6160 6159 137 0
-6160 -6159 -137 0
6160 -6159 137 0
6160 6159 -137 0
-6161 6160 139 0
-6161 -6160 -139 0
6161 -6160 139 0
6161 6160 -139 0
-6162 6161 141 0
-6162 -6161 -141 0
6162 -6161 141 0
6162 6161 -141 0
-6163 6162 142 0
-6163 -6162 -142 0
6163 -6162 142 0
6163 6162 -142 0
-6163 0
-6164 26 69 0
-6164 -26 -69 0
6164 -26 69 0
6164 26 -69 0
-6165 6164 71 0
-6165 -6164 -71 0
6165 -6164 71 0
6165 6164 -71 0
-6166 6165 72 0
-6166 -6165 -72 0
6166 -6165 72 0
6166 6165 -72 0
-6167 6166 81 0
-6167 -6166 -81 0
6167 -6166 81 0
6167 6166 -81 0
-6168 6167 84 0
-6168 -6167 -84 0
6168 -6167 84 0
6168 6167 -84 0
-6169 6168 85 0
-6169 -6168 -85 0
6169 -6168 85 0
6169 6168 -85 0
-6170 6169 90 0
-6170 -6169 -90 0
6170 -6169 90 0
6170 6169 -90 0
-6171 6170 92 0
-6171 -6170 -92 0
6171 -6170 92 0
6171 6170 -92 0
-6172 6171 95 0
-6172 -6171 -95 0
6172 -6171 95 0
6172 6171 -95 0
-6173 6172 97 0
-6173 -6172 -97 0
6173 -6172 97 0
6173 6172 -97 0
-6174 6173 98 0
-6174 -6173 -98 0
6174 -6173 98 0
6174 6173 -98 0
-6175 6174 101 0
-6175 -6174 -101 0
6175 -6174 101 0
6175 6174 -101 0
-6176 6175 104 0
-6176 -6175 -104 0
6176 -6175 104 0
6176 6175 -104 0
-6177 6176 106 0
-6177 -6176 -106 0
6177 -6176 106 0
6177 6176 -106 0
-6178 6177 109 0
-6178 -6177 -109 0
6178 -6177 109 0
6178 6177 -109 0
-6179 6178 111 0
-6179 -6178 -111 0
6179 -6178 111 0
6179 6178 -111 0
-6180 6179 112 0
-6180 -6179 -112 0
6180 -6179 112 0
6180 6179 -112 0
-6181 6180 115 0
-6181 -6180 -115 0
6181 -6180 115 0
6181 6180 -115 0
-6182 6181 116 0
-6182 -6181 -116 0
6182 -6181 116 0
6182 6181 -116 0
-6183 6182 120 0
-6183 -6182 -120 0
6183 -6182 120 0
6183 6182 -120 0
-6184 6183 122 0
-6184 -6183 -122 0
6184 -6183 122 0
6184 6183 -122 0
-6185 6184 125 0
-6185 -6184 -125 0
6185 -6184 125 0
6185 6184 -125 0
-6186 6185 126 0
-6186 -6185 -126 0
6186 -6185 126 0
6186 6185 -126 0
-6187 6186 127 0
-6187 -6186 -127 0
6187 -6186 127 0
6187 6186 -127 0
-6188 6187 128 0
-6188 -6187 -128 0
6188 -6187 128 0
6188 6187 -128 0
-6189 6188 129 0
-6189 -6188 -129 0
6189 -6188 129 0
6189 6188 -129 0
-6190 6189 132 0
-6190 -6189 -132 0
6190 -6189 132 0
6190 6189 -132 0
-6191 6190 134 0
-6191 -6190 -134 0
6191 -6190 134 0
6191 6190 -134 0
-6192 6191 135 0
-6192 -6191 -135 0
6192 -6191 135 0
6192 6191 -135 0
-6193 6192 136 0
-6193 -6192 -136 0
6193 -6192 136 0
6193 6192 -136 0
-6194 6193 137 0
-6194 -6193 -137 0
6194 -6193 137 0
6194 6193 -137 0
-6195 6194 143 0
-6195 -6194 -143 0
6195 -6194 143 0
6195 6194 -143 0
-6196 6195 144 0
-6196 -6195 -144 0
6196 -6195 144 0
6196 6195 -144 0
-6196 0
-6197 27 69 0
-6197 -27 -69 0
6197 -27 69 0
6197 27 -69 0
-6198 6197 70 0
-6198 -6197 -70 0
6198 -6197 70 0
6198 6197 -70 0
-6199 6198 71 0
-6199 -6198 -71 0
6199 -6198 71 0
6199 6198 -71 0
-6200 6199 72 0
-6200 -6199 -72 0
6200 -6199 72 0
6200 6199 -72 0
-6201 6200 74 0
-6201 -6200 -74 0
6201 -6200 74 0
6201 6200 -74 0
-6202 6201 76 0
-6202 -6201 -76 0
6202 -6201 76 0
6202 6201 -76 0
-6203 6202 78 0
-6203 -6202 -78 0
6203 -6202 78 0
6203 6202 -78 0
-6204 6203 79 0
-6204 -6203 -79 0
6204 -6203 79 0
6204 6203 -79 0
-6205 6204 82 0
-6205 -6204 -82 0
6205 -6204 82 0
6205 6204 -82 0
-6206 6205 85 0
-6206 -6205 -85 0
6206 -6205 85 0
6206 6205 -85 0
-6207 6206 86 0
-6207 -6206 -86 0
6207 -6206 86 0
6207 6206 -86 0
-6208 6207 91 0
-6208 -6207 -91 0
6208 -6207 91 0
6208 6207 -91 0
-6209 6208 95 0
-6209 -6208 -95 0
6209 -6208 95 0
6209 6208 -95 0
-6210 6209 96 0
-6210 -6209 -96 0
6210 -6209 96 0
6210 6209 -96 0
-6211 6210 97 0
-6211 -6210 -97 0
6211 -6210 97 0
6211 6210 -97 0
-6212 6211 100 0
-6212 -6211 -100 0
6212 -6211 100 0
6212 6211 -100 0
-6213 6212 101 0
-6213 -6212 -101 0
6213 -6212 101 0
6213 6212 -101 0
-6214 6213 104 0
-6214 -6213 -104 0
6214 -6213 104 0
6214 6213 -104 0
-6215 6214 105 0
-6215 -6214 -105 0
6215 -6214 105 0
6215 6214 -105 0
-6216 6215 106 0
-6216 -6215 -106 0
6216 -6215 106 0
6216 6215 -106 0
-6217 6216 107 0
-6217 -6216 -107 0
6217 -6216 107 0
6217 6216 -107 0
-6218 6217 108 0
-6218 -6217 -108 0
6218 -6217 108 0
6218 6217 -108 0
-6219 6218 109 0
-6219 -6218 -109 0
6219 -6218 109 0
6219 6218 -109 0
-6220 6219 110 0
-6220 -6219 -110 0
6220 -6219 110 0
6220 6219 -110 0
-6221 6220 111 0
-6221 -6220 -111 0
6221 -6220 111 0
6221 6220 -111 0
-6222 6221 112 0
-6222 -6221 -112 0
6222 -6221 112 0
6222 6221 -112 0
-6223 6222 115 0
-6223 -6222 -115 0
6223 -6222 115 0
6223 6222 -115 0
-6224 6223 117 0
-6224 -6223 -117 0
6224 -6223 117 0
6224 6223 -117 0
-6225 6224 118 0
-6225 -6224 -118 0
6225 -6224 118 0
6225 6224 -118 0
-6226 6225 120 0
-6226 -6225 -120 0
6226 -6225 120 0
6226 6225 -120 0
-6227 6226 122 0
-6227 -6226 -122 0
6227 -6226 122 0
6227 6226 -122 0
-6228 6227 124 0
-6228 -6227 -124 0
6228 -6227 124 0
6228 6227 -124 0
-6229 6228 125 0
-6229 -6228 -125 0
6229 -6228 125 0
6229 6228 -125 0
-6230 6229 131 0
-6230 -6229 -131 0
6230 -6229 131 0
6230 6229 -131 0
-6231 6230 132 0
-6231 -6230 -132 0
6231 -6230 132 0
6231 6230 -132 0
-6232 6231 134 0
-6232 -6231 -134 0
6232 -6231 134 0
6232 6231 -134 0
-6233 6232 135 0
-6233 -6232 -135 0
6233 -6232 135 0
6233 6232 -135 0
-6234 6233 137 0
-6234 -6233 -137 0
6234 -6233 137 0
6234 6233 -137 0
-6235 6234 139 0
-6235 -6234 -139 0
6235 -6234 139 0
6235 6234 -139 0
-6236 6235 140 0
-6236 -6235 -140 0
6236 -6235 140 0
6236 6235 -140 0
-6237 6236 142 0
-6237 -6236 -142 0
6237 -6236 142 0
6237 6236 -142 0
-6237 0
-6238 28 69 0
-6238 -28 -69 0
6238 -28 69 0
6238 28 -69 0
-6239 6238 70 0
-6239 -6238 -70 0
6239 -6238 70 0
6239 6238 -70 0
-6240 6239 72 0
-6240 -6239 -72 0
6240 -6239 72 0
6240 6239 -72 0
-6241 6240 73 0
-6241 -6240 -73 0
6241 -6240 73 0
6241 6240 -73 0
-6242 6241 74 0
-6242 -6241 -74 0
6242 -6241 74 0
6242 6241 -74 0
-6243 6242 75 0
-6243 -6242 -75 0
6243 -6242 75 0
6243 6242 -75 0
-6244 6243 76 0
-6244 -6243 -76 0
6244 -6243 76 0
6244 6243 -76 0
-6245 6244 77 0
-6245 -6244 -77 0
6245 -6244 77 0
6245 6244 -77 0
-6246 6245 78 0
-6246 -6245 -78 0
6246 -6245 78 0
6246 6245 -78 0
-6247 6246 80 0
-6247 -6246 -80 0
6247 -6246 80 0
6247 6246 -80 0
-6248 6247 83 0
-6248 -6247 -83 0
6248 -6247 83 0
6248 6247 -83 0
-6249 6248 86 0
-6249 -6248 -86 0
6249 -6248 86 0
6249 6248 -86 0
-6250 6249 87 0
-6250 -6249 -87 0
6250 -6249 87 0
6250 6249 -87 0
-6251 6250 92 0
-6251 -6250 -92 0
6251 -6250 92 0
6251 6250 -92 0
-6252 6251 93 0
-6252 -6251 -93 0
6252 -6251 93 0
6252 6251 -93 0
-6253 6252 95 0
-6253 -6252 -95 0
6253 -6252 95 0
6253 6252 -95 0
-6254 6253 96 0
-6254 -6253 -96 0
6254 -6253 96 0
6254 6253 -96 0
-6255 6254 97 0
-6255 -6254 -97 0
6255 -6254 97 0
6255 6254 -97 0
-6256 6255 99 0
-6256 -6255 -99 0
6256 -6255 99 0
6256 6255 -99 0
-6257 6256 100 0
-6257 -6256 -100 0
6257 -6256 100 0
6257 6256 -100 0
-6258 6257 103 0
-6258 -6257 -103 0
6258 -6257 103 0
6258 6257 -103 0
-6259 6258 104 0
-6259 -6258 -104 0
6259 -6258 104 0
6259 6258 -104 0
-6260 6259 105 0
-6260 -6259 -105 0
6260 -6259 105 0
6260 6259 -105 0
-6261 6260 107 0
-6261 -6260 -107 0
6261 -6260 107 0
6261 6260 -107 0
-6262 6261 109 0
-6262 -6261 -109 0
6262 -6261 109 0
6262 6261 -109 0
-6263 6262 110 0
-6263 -6262 -110 0
6263 -6262 110 0
6263 6262 -110 0
-6264 6263 112 0
-6264 -6263 -112 0
6264 -6263 112 0
6264 6263 -112 0
-6265 6264 115 0
-6265 -6264 -115 0
6265 -6264 115 0
6265 6264 -115 0
-6266 6265 119 0
-6266 -6265 -119 0
6266 -6265 119 0
6266 6265 -119 0
-6267 6266 120 0
-6267 -6266 -120 0
6267 -6266 120 0
6267 6266 -120 0
-6268 6267 121 0
-6268 -6267 -121 0
6268 -6267 121 0
6268 6267 -121 0
-6269 6268 122 0
-6269 -6268 -122 0
6269 -6268 122 0
6269 6268 -122 0
-6270 6269 124 0
-6270 -6269 -124 0
6270 -6269 124 0
6270 6269 -124 0
-6271 6270 128 0
-6271 -6270 -128 0
6271 -6270 128 0
6271 6270 -128 0
-6272 6271 129 0
-6272 -6271 -129 0
6272 -6271 129 0
6272 6271 -129 0
-6273 6272 130 0
-6273 -6272 -130 0
6273 -6272 130 0
6273 6272 -130 0
-6274 6273 131 0
-6274 -6273 -131 0
6274 -6273 131 0
6274 6273 -131 0
-6275 6274 134 0
-6275 -6274 -134 0
6275 -6274 134 0
6275 6274 -134 0
-6276 6275 135 0
-6276 -6275 -135 0
6276 -6275 135 0
6276 6275 -135 0
-6277 6276 141 0
-6277 -6276 -141 0
6277 -6276 141 0
6277 6276 -141 0
-6278 6277 142 0
-6278 -6277 -142 0
6278 -6277 142 0
6278 6277 -142 0
-6279 6278 143 0
-6279 -6278 -143 0
6279 -6278 143 0
6279 6278 -143 0
-6280 6279 144 0
-6280 -6279 -144 0
6280 -6279 144 0
6280 6279 -144 0
-6280 0
-6281 29 69 0
-6281 -29 -69 0
6281 -29 69 0
6281 29 -69 0
-6282 6281 70 0
-6282 -6281 -70 0
6282 -6281 70 0
6282 6281 -70 0
-6283 6282 73 0
-6283 -6282 -73 0
6283 -6282 73 0
6283 6282 -73 0
-6284 6283 75 0
-6284 -6283 -75 0
6284 -6283 75 0
6284 6283 -75 0
-6285 6284 77 0
-6285 -6284 -77 0
6285 -6284 77 0
6285 6284 -77 0
-6286 6285 81 0
-6286 -6285 -81 0
6286 -6285 81 0
6286 6285 -81 0
-6287 6286 84 0
-6287 -6286 -84 0
6287 -6286 84 0
6287 6286 -84 0
-6288 6287 87 0
-6288 -6287 -87 0
6288 -6287 87 0
6288 6287 -87 0
-6289 6288 88 0
-6289 -6288 -88 0
6289 -6288 88 0
6289 6288 -88 0
-6290 6289 94 0
-6290 -6289 -94 0
6290 -6289 94 0
6290 6289 -94 0
-6291 6290 95 0
-6291 -6290 -95 0
6291 -6290 95 0
6291 6290 -95 0
-6292 6291 96 0
-6292 -6291 -96 0
6292 -6291 96 0
6292 6291 -96 0
-6293 6292 97 0
-6293 -6292 -97 0
6293 -6292 97 0
6293 6292 -97 0
-6294 6293 99 0
-6294 -6293 -99 0
6294 -6293 99 0
6294 6293 -99 0
-6295 6294 102 0
-6295 -6294 -102 0
6295 -6294 102 0
6295 6294 -102 0
-6296 6295 105 0
-6296 -6295 -105 0
6296 -6295 105 0
6296 6295 -105 0
-6297 6296 109 0
-6297 -6296 -109 0
6297 -6296 109 0
6297 6296 -109 0
-6298 6297 110 0
-6298 -6297 -110 0
6298 -6297 110 0
6298 6297 -110 0
-6299 6298 115 0
-6299 -6298 -115 0
6299 -6298 115 0
6299 6298 -115 0
-6300 6299 118 0
-6300 -6299 -118 0
6300 -6299 118 0
6300 6299 -118 0
-6301 6300 121 0
-6301 -6300 -121 0
6301 -6300 121 0
6301 6300 -121 0
-6302 6301 124 0
-6302 -6301 -124 0
6302 -6301 124 0
6302 6301 -124 0
-6303 6302 126 0
-6303 -6302 -126 0
6303 -6302 126 0
6303 6302 -126 0
-6304 6303 127 0
-6304 -6303 -127 0
6304 -6303 127 0
6304 6303 -127 0
-6305 6304 128 0
-6305 -6304 -128 0
6305 -6304 128 0
6305 6304 -128 0
-6306 6305 134 0
-6306 -6305 -134 0
6306 -6305 134 0
6306 6305 -134 0
-6307 6306 135 0
-6307 -6306 -135 0
6307 -6306 135 0
6307 6306 -135 0
-6308 6307 138 0
-6308 -6307 -138 0
6308 -6307 138 0
6308 6307 -138 0
-6309 6308 139 0
-6309 -6308 -139 0
6309 -6308 139 0
6309 6308 -139 0
-6310 6309 140 0
-6310 -6309 -140 0
6310 -6309 140 0
6310 6309 -140 0
-6311 6310 143 0
-6311 -6310 -143 0
6311 -6310 143 0
6311 6310 -143 0
-6311 0
-6312 30 70 0
-6312 -30 -70 0
6312 -30 70 0
6312 30 -70 0
-6313 6312 71 0
-6313 -6312 -71 0
6313 -6312 71 0
6313 6312 -71 0
-6314 6313 74 0
-6314 -6313 -74 0
6314 -6313 74 0
6314 6313 -74 0
-6315 6314 76 0
-6315 -6314 -76 0
6315 -6314 76 0
6315 6314 -76 0
-6316 6315 78 0
-6316 -6315 -78 0
6316 -6315 78 0
6316 6315 -78 0
-6317 6316 79 0
-6317 -6316 -79 0
6317 -6316 79 0
6317 6316 -79 0
-6318 6317 82 0
-6318 -6317 -82 0
6318 -6317 82 0
6318 6317 -82 0
-6319 6318 88 0
-6319 -6318 -88 0
6319 -6318 88 0
6319 6318 -88 0
-6320 6319 89 0
-6320 -6319 -89 0
6320 -6319 89 0
6320 6319 -89 0
-6321 6320 91 0
-6321 -6320 -91 0
6321 -6320 91 0
6321 6320 -91 0
-6322 6321 95 0
-6322 -6321 -95 0
6322 -6321 95 0
6322 6321 -95 0
-6323 6322 96 0
-6323 -6322 -96 0
6323 -6322 96 0
6323 6322 -96 0
-6324 6323 97 0
-6324 -6323 -97 0
6324 -6323 97 0
6324 6323 -97 0
-6325 6324 98 0
-6325 -6324 -98 0
6325 -6324 98 0
6325 6324 -98 0
-6326 6325 100 0
-6326 -6325 -100 0
6326 -6325 100 0
6326 6325 -100 0
-6327 6326 106 0
-6327 -6326 -106 0
6327 -6326 106 0
6327 6326 -106 0
-6328 6327 110 0
-6328 -6327 -110 0
6328 -6327 110 0
6328 6327 -110 0
-6329 6328 111 0
-6329 -6328 -111 0
6329 -6328 111 0
6329 6328 -111 0
-6330 6329 116 0
-6330 -6329 -116 0
6330 -6329 116 0
6330 6329 -116 0
-6331 6330 119 0
-6331 -6330 -119 0
6331 -6330 119 0
6331 6330 -119 0
-6332 6331 121 0
-6332 -6331 -121 0
6332 -6331 121 0
6332 6331 -121 0
-6333 6332 122 0
-6333 -6332 -122 0
6333 -6332 122 0
6333 6332 -122 0
-6334 6333 125 0
-6334 -6333 -125 0
6334 -6333 125 0
6334 6333 -125 0
-6335 6334 128 0
-6335 -6334 -128 0
6335 -6334 128 0
6335 6334 -128 0
-6336 6335 129 0
-6336 -6335 -129 0
6336 -6335 129 0
6336 6335 -129 0
-6337 6336 133 0
-6337 -6336 -133 0
6337 -6336 133 0
6337 6336 -133 0
-6338 6337 135 0
-6338 -6337 -135 0
6338 -6337 135 0
6338 6337 -135 0
-6339 6338 136 0
-6339 -6338 -136 0
6339 -6338 136 0
6339 6338 -136 0
-6340 6339 140 0
-6340 -6339 -140 0
6340 -6339 140 0
6340 6339 -140 0
-6341 6340 141 0
-6341 -6340 -141 0
6341 -6340 141 0
6341 6340 -141 0
-6342 6341 144 0
-6342 -6341 -144 0
6342 -6341 144 0
6342 6341 -144 0
-6342 0
-6343 31 69 0
-6343 -31 -69 0
6343 -31 69 0
6343 31 -69 0
-6344 6343 71 0
-6344 -6343 -71 0
6344 -6343 71 0
6344 6343 -71 0
-6345 6344 73 0
-6345 -6344 -73 0
6345 -6344 73 0
6345 6344 -73 0
-6346 6345 74 0
-6346 -6345 -74 0
6346 -6345 74 0
6346 6345 -74 0
-6347 6346 75 0
-6347 -6346 -75 0
6347 -6346 75 0
6347 6346 -75 0
-6348 6347 76 0
-6348 -6347 -76 0
6348 -6347 76 0
6348 6347 -76 0
-6349 6348 77 0
-6349 -6348 -77 0
6349 -6348 77 0
6349 6348 -77 0
-6350 6349 80 0
-6350 -6349 -80 0
6350 -6349 80 0
6350 6349 -80 0
-6351 6350 81 0
-6351 -6350 -81 0
6351 -6350 81 0
6351 6350 -81 0
-6352 6351 82 0
-6352 -6351 -82 0
6352 -6351 82 0
6352 6351 -82 0
-6353 6352 83 0
-6353 -6352 -83 0
6353 -6352 83 0
6353 6352 -83 0
-6354 6353 84 0
-6354 -6353 -84 0
6354 -6353 84 0
6354 6353 -84 0
-6355 6354 86 0
-6355 -6354 -86 0
6355 -6354 86 0
6355 6354 -86 0
-6356 6355 87 0
-6356 -6355 -87 0
6356 -6355 87 0
6356 6355 -87 0
-6357 6356 91 0
-6357 -6356 -91 0
6357 -6356 91 0
6357 6356 -91 0
-6358 6357 96 0
-6358 -6357 -96 0
6358 -6357 96 0
6358 6357 -96 0
-6359 6358 97 0
-6359 -6358 -97 0
6359 -6358 97 0
6359 6358 -97 0
-6360 6359 98 0
-6360 -6359 -98 0
6360 -6359 98 0
6360 6359 -98 0
-6361 6360 99 0
-6361 -6360 -99 0
6361 -6360 99 0
6361 6360 -99 0
-6362 6361 105 0
-6362 -6361 -105 0
6362 -6361 105 0
6362 6361 -105 0
-6363 6362 107 0
-6363 -6362 -107 0
6363 -6362 107 0
6363 6362 -107 0
-6364 6363 108 0
-6364 -6363 -108 0
6364 -6363 108 0
6364 6363 -108 0
-6365 6364 114 0
-6365 -6364 -114 0
6365 -6364 114 0
6365 6364 -114 0
-6366 6365 117 0
-6366 -6365 -117 0
6366 -6365 117 0
6366 6365 -117 0
-6367 6366 119 0
-6367 -6366 -119 0
6367 -6366 119 0
6367 6366 -119 0
-6368 6367 121 0
-6368 -6367 -121 0
6368 -6367 121 0
6368 6367 -121 0
-6369 6368 124 0
-6369 -6368 -124 0
6369 -6368 124 0
6369 6368 -124 0
-6370 6369 125 0
-6370 -6369 -125 0
6370 -6369 125 0
6370 6369 -125 0
-6371 6370 126 0
-6371 -6370 -126 0
6371 -6370 126 0
6371 6370 -126 0
-6372 6371 127 0
-6372 -6371 -127 0
6372 -6371 127 0
6372 6371 -127 0
-6373 6372 128 0
-6373 -6372 -128 0
6373 -6372 128 0
6373 6372 -128 0
-6374 6373 130 0
-6374 -6373 -130 0
6374 -6373 130 0
6374 6373 -130 0
-6375 6374 134 0
-6375 -6374 -134 0
6375 -6374 134 0
6375 6374 -134 0
-6376 6375 137 0
-6376 -6375 -137 0
6376 -6375 137 0
6376 6375 -137 0
-6377 6376 141 0
-6377 -6376 -141 0
6377 -6376 141 0
6377 6376 -141 0
-6378 6377 143 0
-6378 -6377 -143 0
6378 -6377 143 0
6378 6377 -143 0
-6379 6378 144 0
-6379 -6378 -144 0
6379 -6378 144 0
6379 6378 -144 0
-6379 0
-6380 32 70 0
-6380 -32 -70 0
6380 -32 70 0
6380 32 -70 0
-6381 6380 72 0
-6381 -6380 -72 0
6381 -6380 72 0
6381 6380 -72 0
-6382 6381 74 0
-6382 -6381 -74 0
6382 -6381 74 0
6382 6381 -74 0
-6383 6382 75 0
-6383 -6382 -75 0
6383 -6382 75 0
6383 6382 -75 0
-6384 6383 76 0
-6384 -6383 -76 0
6384 -6383 76 0
6384 6383 -76 0
-6385 6384 77 0
-6385 -6384 -77 0
6385 -6384 77 0
6385 6384 -77 0
-6386 6385 78 0
-6386 -6385 -78 0
6386 -6385 78 0
6386 6385 -78 0
-6387 6386 79 0
-6387 -6386 -79 0
6387 -6386 79 0
6387 6386 -79 0
-6388 6387 81 0
-6388 -6387 -81 0
6388 -6387 81 0
6388 6387 -81 0
-6389 6388 82 0
-6389 -6388 -82 0
6389 -6388 82 0
6389 6388 -82 0
-6390 6389 83 0
-6390 -6389 -83 0
6390 -6389 83 0
6390 6389 -83 0
-6391 6390 84 0
-6391 -6390 -84 0
6391 -6390 84 0
6391 6390 -84 0
-6392 6391 87 0
-6392 -6391 -87 0
6392 -6391 87 0
6392 6391 -87 0
-6393 6392 88 0
-6393 -6392 -88 0
6393 -6392 88 0
6393 6392 -88 0
-6394 6393 91 0
-6394 -6393 -91 0
6394 -6393 91 0
6394 6393 -91 0
-6395 6394 92 0
-6395 -6394 -92 0
6395 -6394 92 0
6395 6394 -92 0
-6396 6395 98 0
-6396 -6395 -98 0
6396 -6395 98 0
6396 6395 -98 0
-6397 6396 99 0
-6397 -6396 -99 0
6397 -6396 99 0
6397 6396 -99 0
-6398 6397 100 0
-6398 -6397 -100 0
6398 -6397 100 0
6398 6397 -100 0
-6399 6398 103 0
-6399 -6398 -103 0
6399 -6398 103 0
6399 6398 -103 0
-6400 6399 106 0
-6400 -6399 -106 0
6400 -6399 106 0
6400 6399 -106 0
-6401 6400 108 0
-6401 -6400 -108 0
6401 -6400 108 0
6401 6400 -108 0
-6402 6401 109 0
-6402 -6401 -109 0
6402 -6401 109 0
6402 6401 -109 0
-6403 6402 118 0
-6403 -6402 -118 0
6403 -6402 118 0
6403 6402 -118 0
-6404 6403 120 0
-6404 -6403 -120 0
6404 -6403 120 0
6404 6403 -120 0
-6405 6404 121 0
-6405 -6404 -121 0
6405 -6404 121 0
6405 6404 -121 0
-6406 6405 122 0
-6406 -6405 -122 0
6406 -6405 122 0
6406 6405 -122 0
-6407 6406 125 0
-6407 -6406 -125 0
6407 -6406 125 0
6407 6406 -125 0
-6408 6407 126 0
-6408 -6407 -126 0
6408 -6407 126 0
6408 6407 -126 0
-6409 6408 128 0
-6409 -6408 -128 0
6409 -6408 128 0
6409 6408 -128 0
-6410 6409 129 0
-6410 -6409 -129 0
6410 -6409 129 0
6410 6409 -129 0
-6411 6410 131 0
-6411 -6410 -131 0
6411 -6410 131 0
6411 6410 -131 0
-6412 6411 135 0
-6412 -6411 -135 0
6412 -6411 135 0
6412 6411 -135 0
-6413 6412 138 0
-6413 -6412 -138 0
6413 -6412 138 0
6413 6412 -138 0
-6414 6413 139 0
-6414 -6413 -139 0
6414 -6413 139 0
6414 6413 -139 0
-6415 6414 142 0
-6415 -6414 -142 0
6415 -6414 142 0
6415 6414 -142 0
-6416 6415 144 0
-6416 -6415 -144 0
6416 -6415 144 0
6416 6415 -144 0
-6416 0
-6417 33 69 0
-6417 -33 -69 0
6417 -33 69 0
6417 33 -69 0
-6418 6417 73 0
-6418 -6417 -73 0
6418 -6417 73 0
6418 6417 -73 0
-6419 6418 74 0
-6419 -6418 -74 0
6419 -6418 74 0
6419 6418 -74 0
-6420 6419 75 0
-6420 -6419 -75 0
6420 -6419 75 0
6420 6419 -75 0
-6421 6420 77 0
-6421 -6420 -77 0
6421 -6420 77 0
6421 6420 -77 0
-6422 6421 79 0
-6422 -6421 -79 0
6422 -6421 79 0
6422 6421 -79 0
-6423 6422 80 0
-6423 -6422 -80 0
6423 -6422 80 0
6423 6422 -80 0
-6424 6423 82 0
-6424 -6423 -82 0
6424 -6423 82 0
6424 6423 -82 0
-6425 6424 83 0
-6425 -6424 -83 0
6425 -6424 83 0
6425 6424 -83 0
-6426 6425 84 0
-6426 -6425 -84 0
6426 -6425 84 0
6426 6425 -84 0
-6427 6426 88 0
-6427 -6426 -88 0
6427 -6426 88 0
6427 6426 -88 0
-6428 6427 89 0
-6428 -6427 -89 0
6428 -6427 89 0
6428 6427 -89 0
-6429 6428 91 0
-6429 -6428 -91 0
6429 -6428 91 0
6429 6428 -91 0
-6430 6429 92 0
-6430 -6429 -92 0
6430 -6429 92 0
6430 6429 -92 0
-6431 6430 95 0
-6431 -6430 -95 0
6431 -6430 95 0
6431 6430 -95 0
-6432 6431 97 0
-6432 -6431 -97 0
6432 -6431 97 0
6432 6431 -97 0
-6433 6432 98 0
-6433 -6432 -98 0
6433 -6432 98 0
6433 6432 -98 0
-6434 6433 102 0
-6434 -6433 -102 0
6434 -6433 102 0
6434 6433 -102 0
-6435 6434 103 0
-6435 -6434 -103 0
6435 -6434 103 0
6435 6434 -103 0
-6436 6435 106 0
-6436 -6435 -106 0
6436 -6435 106 0
6436 6435 -106 0
-6437 6436 107 0
-6437 -6436 -107 0
6437 -6436 107 0
6437 6436 -107 0
-6438 6437 108 0
-6438 -6437 -108 0
6438 -6437 108 0
6438 6437 -108 0
-6439 6438 109 0
-6439 -6438 -109 0
6439 -6438 109 0
6439 6438 -109 0
-6440 6439 110 0
-6440 -6439 -110 0
6440 -6439 110 0
6440 6439 -110 0
-6441 6440 111 0
-6441 -6440 -111 0
6441 -6440 111 0
6441 6440 -111 0
-6442 6441 113 0
-6442 -6441 -113 0
6442 -6441 113 0
6442 6441 -113 0
-6443 6442 115 0
-6443 -6442 -115 0
6443 -6442 115 0
6443 6442 -115 0
-6444 6443 116 0
-6444 -6443 -116 0
6444 -6443 116 0
6444 6443 -116 0
-6445 6444 118 0
-6445 -6444 -118 0
6445 -6444 118 0
6445 6444 -118 0
-6446 6445 119 0
-6446 -6445 -119 0
6446 -6445 119 0
6446 6445 -119 0
-6447 6446 120 0
-6447 -6446 -120 0
6447 -6446 120 0
6447 6446 -120 0
-6448 6447 124 0
-6448 -6447 -124 0
6448 -6447 124 0
6448 6447 -124 0
-6449 6448 125 0
-6449 -6448 -125 0
6449 -6448 125 0
6449 6448 -125 0
-6450 6449 127 0
-6450 -6449 -127 0
6450 -6449 127 0
6450 6449 -127 0
-6451 6450 128 0
-6451 -6450 -128 0
6451 -6450 128 0
6451 6450 -128 0
-6452 6451 131 0
-6452 -6451 -131 0
6452 -6451 131 0
6452 6451 -131 0
-6453 6452 133 0
-6453 -6452 -133 0
6453 -6452 133 0
6453 6452 -133 0
-6454 6453 134 0
-6454 -6453 -134 0
6454 -6453 134 0
6454 6453 -134 0
-6455 6454 138 0
-6455 -6454 -138 0
6455 -6454 138 0
6455 6454 -138 0
-6456 6455 139 0
-6456 -6455 -139 0
6456 -6455 139 0
6456 6455 -139 0
-6457 6456 142 0
-6457 -6456 -142 0
6457 -6456 142 0
6457 6456 -142 0
-6458 6457 143 0
-6458 -6457 -143 0
6458 -6457 143 0
6458 6457 -143 0
-6459 6458 144 0
-6459 -6458 -144 0
6459 -6458 144 0
6459 6458 -144 0
-6459 0
-6460 34 70 0
-6460 -34 -70 0
6460 -34 70 0
6460 34 -70 0
-6461 6460 74 0
-6461 -6460 -74 0
6461 -6460 74 0
6461 6460 -74 0
-6462 6461 75 0
-6462 -6461 -75 0
6462 -6461 75 0
6462 6461 -75 0
-6463 6462 76 0
-6463 -6462 -76 0
6463 -6462 76 0
6463 6462 -76 0
-6464 6463 78 0
-6464 -6463 -78 0
6464 -6463 78 0
6464 6463 -78 0
-6465 6464 79 0
-6465 -6464 -79 0
6465 -6464 79 0
6465 6464 -79 0
-6466 6465 80 0
-6466 -6465 -80 0
6466 -6465 80 0
6466 6465 -80 0
-6467 6466 81 0
-6467 -6466 -81 0
6467 -6466 81 0
6467 6466 -81 0
-6468 6467 83 0
-6468 -6467 -83 0
6468 -6467 83 0
6468 6467 -83 0
-6469 6468 84 0
-6469 -6468 -84 0
6469 -6468 84 0
6469 6468 -84 0
-6470 6469 89 0
-6470 -6469 -89 0
6470 -6469 89 0
6470 6469 -89 0
-6471 6470 90 0
-6471 -6470 -90 0
6471 -6470 90 0
6471 6470 -90 0
-6472 6471 92 0
-6472 -6471 -92 0
6472 -6471 92 0
6472 6471 -92 0
-6473 6472 93 0
-6473 -6472 -93 0
6473 -6472 93 0
6473 6472 -93 0
-6474 6473 96 0
-6474 -6473 -96 0
6474 -6473 96 0
6474 6473 -96 0
-6475 6474 97 0
-6475 -6474 -97 0
6475 -6474 97 0
6475 6474 -97 0
-6476 6475 98 0
-6476 -6475 -98 0
6476 -6475 98 0
6476 6475 -98 0
-6477 6476 99 0
-6477 -6476 -99 0
6477 -6476 99 0
6477 6476 -99 0
-6478 6477 103 0
-6478 -6477 -103 0
6478 -6477 103 0
6478 6477 -103 0
-6479 6478 104 0
-6479 -6478 -104 0
6479 -6478 104 0
6479 6478 -104 0
-6480 6479 107 0
-6480 -6479 -107 0
6480 -6479 107 0
6480 6479 -107 0
-6481 6480 108 0
-6481 -6480 -108 0
6481 -6480 108 0
6481 6480 -108 0
-6482 6481 110 0
-6482 -6481 -110 0
6482 -6481 110 0
6482 6481 -110 0
-6483 6482 111 0
-6483 -6482 -111 0
6483 -6482 111 0
6483 6482 -111 0
-6484 6483 112 0
-6484 -6483 -112 0
6484 -6483 112 0
6484 6483 -112 0
-6485 6484 114 0
-6485 -6484 -114 0
6485 -6484 114 0
6485 6484 -114 0
-6486 6485 115 0
-6486 -6485 -115 0
6486 -6485 115 0
6486 6485 -115 0
-6487 6486 116 0
-6487 -6486 -116 0
6487 -6486 116 0
6487 6486 -116 0
-6488 6487 117 0
-6488 -6487 -117 0
6488 -6487 117 0
6488 6487 -117 0
-6489 6488 119 0
-6489 -6488 -119 0
6489 -6488 119 0
6489 6488 -119 0
-6490 6489 120 0
-6490 -6489 -120 0
6490 -6489 120 0
6490 6489 -120 0
-6491 6490 125 0
-6491 -6490 -125 0
6491 -6490 125 0
6491 6490 -125 0
-6492 6491 126 0
-6492 -6491 -126 0
6492 -6491 126 0
6492 6491 -126 0
-6493 6492 128 0
-6493 -6492 -128 0
6493 -6492 128 0
6493 6492 -128 0
-6494 6493 129 0
-6494 -6493 -129 0
6494 -6493 129 0
6494 6493 -129 0
-6495 6494 132 0
-6495 -6494 -132 0
6495 -6494 132 0
6495 6494 -132 0
-6496 6495 133 0
-6496 -6495 -133 0
6496 -6495 133 0
6496 6495 -133 0
-6497 6496 134 0
-6497 -6496 -134 0
6497 -6496 134 0
6497 6496 -134 0
-6498 6497 135 0
-6498 -6497 -135 0
6498 -6497 135 0
6498 6497 -135 0
-6499 6498 139 0
-6499 -6498 -139 0
6499 -6498 139 0
6499 6498 -139 0
-6500 6499 140 0
-6500 -6499 -140 0
6500 -6499 140 0
6500 6499 -140 0
-6501 6500 143 0
-6501 -6500 -143 0
6501 -6500 143 0
6501 6500 -143 0
-6502 6501 144 0
-6502 -6501 -144 0
6502 -6501 144 0
6502 6501 -144 0
-6502 0
-6503 35 71 0
-6503 -35 -71 0
6503 -35 71 0
6503 35 -71 0
-6504 6503 73 0
-6504 -6503 -73 0
6504 -6503 73 0
6504 6503 -73 0
-6505 6504 75 0
-6505 -6504 -75 0
6505 -6504 75 0
6505 6504 -75 0
-6506 6505 76 0
-6506 -6505 -76 0
6506 -6505 76 0
6506 6505 -76 0
-6507 6506 77 0
-6507 -6506 -77 0
6507 -6506 77 0
6507 6506 -77 0
-6508 6507 79 0
-6508 -6507 -79 0
6508 -6507 79 0
6508 6507 -79 0
-6509 6508 80 0
-6509 -6508 -80 0
6509 -6508 80 0
6509 6508 -80 0
-6510 6509 81 0
-6510 -6509 -81 0
6510 -6509 81 0
6510 6509 -81 0
-6511 6510 82 0
-6511 -6510 -82 0
6511 -6510 82 0
6511 6510 -82 0
-6512 6511 84 0
-6512 -6511 -84 0
6512 -6511 84 0
6512 6511 -84 0
-6513 6512 85 0
-6513 -6512 -85 0
6513 -6512 85 0
6513 6512 -85 0
-6514 6513 90 0
-6514 -6513 -90 0
6514 -6513 90 0
6514 6513 -90 0
-6515 6514 91 0
-6515 -6514 -91 0
6515 -6514 91 0
6515 6514 -91 0
-6516 6515 93 0
-6516 -6515 -93 0
6516 -6515 93 0
6516 6515 -93 0
-6517 6516 94 0
-6517 -6516 -94 0
6517 -6516 94 0
6517 6516 -94 0
-6518 6517 98 0
-6518 -6517 -98 0
6518 -6517 98 0
6518 6517 -98 0
-6519 6518 99 0
-6519 -6518 -99 0
6519 -6518 99 0
6519 6518 -99 0
-6520 6519 100 0
-6520 -6519 -100 0
6520 -6519 100 0
6520 6519 -100 0
-6521 6520 103 0
-6521 -6520 -103 0
6521 -6520 103 0
6521 6520 -103 0
-6522 6521 104 0
-6522 -6521 -104 0
6522 -6521 104 0
6522 6521 -104 0
-6523 6522 105 0
-6523 -6522 -105 0
6523 -6522 105 0
6523 6522 -105 0
-6524 6523 108 0
-6524 -6523 -108 0
6524 -6523 108 0
6524 6523 -108 0
-6525 6524 109 0
-6525 -6524 -109 0
6525 -6524 109 0
6525 6524 -109 0
-6526 6525 111 0
-6526 -6525 -111 0
6526 -6525 111 0
6526 6525 -111 0
-6527 6526 112 0
-6527 -6526 -112 0
6527 -6526 112 0
6527 6526 -112 0
-6528 6527 113 0
-6528 -6527 -113 0
6528 -6527 113 0
6528 6527 -113 0
-6529 6528 115 0
-6529 -6528 -115 0
6529 -6528 115 0
6529 6528 -115 0
-6530 6529 116 0
-6530 -6529 -116 0
6530 -6529 116 0
6530 6529 -116 0
-6531 6530 117 0
-6531 -6530 -117 0
6531 -6530 117 0
6531 6530 -117 0
-6532 6531 118 0
-6532 -6531 -118 0
6532 -6531 118 0
6532 6531 -118 0
-6533 6532 120 0
-6533 -6532 -120 0
6533 -6532 120 0
6533 6532 -120 0
-6534 6533 121 0
-6534 -6533 -121 0
6534 -6533 121 0
6534 6533 -121 0
-6535 6534 126 0
-6535 -6534 -126 0
6535 -6534 126 0
6535 6534 -126 0
-6536 6535 127 0
-6536 -6535 -127 0
6536 -6535 127 0
6536 6535 -127 0
-6537 6536 129 0
-6537 -6536 -129 0
6537 -6536 129 0
6537 6536 -129 0
-6538 6537 130 0
-6538 -6537 -130 0
6538 -6537 130 0
6538 6537 -130 0
-6539 6538 134 0
-6539 -6538 -134 0
6539 -6538 134 0
6539 6538 -134 0
-6540 6539 135 0
-6540 -6539 -135 0
6540 -6539 135 0
6540 6539 -135 0
-6541 6540 136 0
-6541 -6540 -136 0
6541 -6540 136 0
6541 6540 -136 0
-6542 6541 139 0
-6542 -6541 -139 0
6542 -6541 139 0
6542 6541 -139 0
-6543 6542 140 0
-6543 -6542 -140 0
6543 -6542 140 0
6543 6542 -140 0
-6544 6543 141 0
-6544 -6543 -141 0
6544 -6543 141 0
6544 6543 -141 0
-6545 6544 144 0
-6545 -6544 -144 0
6545 -6544 144 0
6545 6544 -144 0
-6545 0
-6546 36 72 0
-6546 -36 -72 0
6546 -36 72 0
6546 36 -72 0
-6547 6546 74 0
-6547 -6546 -74 0
6547 -6546 74 0
6547 6546 -74 0
-6548 6547 76 0
-6548 -6547 -76 0
6548 -6547 76 0
6548 6547 -76 0
-6549 6548 77 0
-6549 -6548 -77 0
6549 -6548 77 0
6549 6548 -77 0
-6550 6549 78 0
-6550 -6549 -78 0
6550 -6549 78 0
6550 6549 -78 0
-6551 6550 79 0
-6551 -6550 -79 0
6551 -6550 79 0
6551 6550 -79 0
-6552 6551 80 0
-6552 -6551 -80 0
6552 -6551 80 0
6552 6551 -80 0
-6553 6552 81 0
-6553 -6552 -81 0
6553 -6552 81 0
6553 6552 -81 0
-6554 6553 82 0
-6554 -6553 -82 0
6554 -6553 82 0
6554 6553 -82 0
-6555 6554 83 0
-6555 -6554 -83 0
6555 -6554 83 0
6555 6554 -83 0
-6556 6555 85 0
-6556 -6555 -85 0
6556 -6555 85 0
6556 6555 -85 0
-6557 6556 86 0
-6557 -6556 -86 0
6557 -6556 86 0
6557 6556 -86 0
-6558 6557 92 0
-6558 -6557 -92 0
6558 -6557 92 0
6558 6557 -92 0
-6559 6558 94 0
-6559 -6558 -94 0
6559 -6558 94 0
6559 6558 -94 0
-6560 6559 95 0
-6560 -6559 -95 0
6560 -6559 95 0
6560 6559 -95 0
-6561 6560 99 0
-6561 -6560 -99 0
6561 -6560 99 0
6561 6560 -99 0
-6562 6561 100 0
-6562 -6561 -100 0
6562 -6561 100 0
6562 6561 -100 0
-6563 6562 101 0
-6563 -6562 -101 0
6563 -6562 101 0
6563 6562 -101 0
-6564 6563 103 0
-6564 -6563 -103 0
6564 -6563 103 0
6564 6563 -103 0
-6565 6564 104 0
-6565 -6564 -104 0
6565 -6564 104 0
6565 6564 -104 0
-6566 6565 105 0
-6566 -6565 -105 0
6566 -6565 105 0
6566 6565 -105 0
-6567 6566 106 0
-6567 -6566 -106 0
6567 -6566 106 0
6567 6566 -106 0
-6568 6567 110 0
-6568 -6567 -110 0
6568 -6567 110 0
6568 6567 -110 0
-6569 6568 112 0
-6569 -6568 -112 0
6569 -6568 112 0
6569 6568 -112 0
-6570 6569 113 0
-6570 -6569 -113 0
6570 -6569 113 0
6570 6569 -113 0
-6571 6570 114 0
-6571 -6570 -114 0
6571 -6570 114 0
6571 6570 -114 0
-6572 6571 115 0
-6572 -6571 -115 0
6572 -6571 115 0
6572 6571 -115 0
-6573 6572 116 0
-6573 -6572 -116 0
6573 -6572 116 0
6573 6572 -116 0
-6574 6573 117 0
-6574 -6573 -117 0
6574 -6573 117 0
6574 6573 -117 0
-6575 6574 118 0
-6575 -6574 -118 0
6575 -6574 118 0
6575 6574 -118 0
-6576 6575 119 0
-6576 -6575 -119 0
6576 -6575 119 0
6576 6575 -119 0
-6577 6576 121 0
-6577 -6576 -121 0
6577 -6576 121 0
6577 6576 -121 0
-6578 6577 122 0
-6578 -6577 -122 0
6578 -6577 122 0
6578 6577 -122 0
-6579 6578 128 0
-6579 -6578 -128 0
6579 -6578 128 0
6579 6578 -128 0
-6580 6579 130 0
-6580 -6579 -130 0
6580 -6579 130 0
6580 6579 -130 0
-6581 6580 131 0
-6581 -6580 -131 0
6581 -6580 131 0
6581 6580 -131 0
-6582 6581 135 0
-6582 -6581 -135 0
6582 -6581 135 0
6582 6581 -135 0
-6583 6582 136 0
-6583 -6582 -136 0
6583 -6582 136 0
6583 6582 -136 0
-6584 6583 137 0
-6584 -6583 -137 0
6584 -6583 137 0
6584 6583 -137 0
-6585 6584 139 0
-6585 -6584 -139 0
6585 -6584 139 0
6585 6584 -139 0
-6586 6585 140 0
-6586 -6585 -140 0
6586 -6585 140 0
6586 6585 -140 0
-6587 6586 141 0
-6587 -6586 -141 0
6587 -6586 141 0
6587 6586 -141 0
-6588 6587 142 0
-6588 -6587 -142 0
6588 -6587 142 0
6588 6587 -142 0
-6588 0
-6589 37 71 0
-6589 -37 -71 0
6589 -37 71 0
6589 37 -71 0
-6590 6589 72 0
-6590 -6589 -72 0
6590 -6589 72 0
6590 6589 -72 0
-6591 6590 74 0
-6591 -6590 -74 0
6591 -6590 74 0
6591 6590 -74 0
-6592 6591 75 0
-6592 -6591 -75 0
6592 -6591 75 0
6592 6591 -75 0
-6593 6592 78 0
-6593 -6592 -78 0
6593 -6592 78 0
6593 6592 -78 0
-6594 6593 83 0
-6594 -6593 -83 0
6594 -6593 83 0
6594 6593 -83 0
-6595 6594 85 0
-6595 -6594 -85 0
6595 -6594 85 0
6595 6594 -85 0
-6596 6595 89 0
-6596 -6595 -89 0
6596 -6595 89 0
6596 6595 -89 0
-6597 6596 90 0
-6597 -6596 -90 0
6597 -6596 90 0
6597 6596 -90 0
-6598 6597 91 0
-6598 -6597 -91 0
6598 -6597 91 0
6598 6597 -91 0
-6599 6598 93 0
-6599 -6598 -93 0
6599 -6598 93 0
6599 6598 -93 0
-6600 6599 98 0
-6600 -6599 -98 0
6600 -6599 98 0
6600 6599 -98 0
-6601 6600 100 0
-6601 -6600 -100 0
6601 -6600 100 0
6601 6600 -100 0
-6602 6601 101 0
-6602 -6601 -101 0
6602 -6601 101 0
6602 6601 -101 0
-6603 6602 102 0
-6603 -6602 -102 0
6603 -6602 102 0
6603 6602 -102 0
-6604 6603 103 0
-6604 -6603 -103 0
6604 -6603 103 0
6604 6603 -103 0
-6605 6604 109 0
-6605 -6604 -109 0
6605 -6604 109 0
6605 6604 -109 0
-6606 6605 110 0
-6606 -6605 -110 0
6606 -6605 110 0
6606 6605 -110 0
-6607 6606 111 0
-6607 -6606 -111 0
6607 -6606 111 0
6607 6606 -111 0
-6608 6607 112 0
-6608 -6607 -112 0
6608 -6607 112 0
6608 6607 -112 0
-6609 6608 113 0
-6609 -6608 -113 0
6609 -6608 113 0
6609 6608 -113 0
-6610 6609 115 0
-6610 -6609 -115 0
6610 -6609 115 0
6610 6609 -115 0
-6611 6610 117 0
-6611 -6610 -117 0
6611 -6610 117 0
6611 6610 -117 0
-6612 6611 119 0
-6612 -6611 -119 0
6612 -6611 119 0
6612 6611 -119 0
-6613 6612 121 0
-6613 -6612 -121 0
6613 -6612 121 0
6613 6612 -121 0
-6614 6613 123 0
-6614 -6613 -123 0
6614 -6613 123 0
6614 6613 -123 0
-6615 6614 124 0
-6615 -6614 -124 0
6615 -6614 124 0
6615 6614 -124 0
-6616 6615 126 0
-6616 -6615 -126 0
6616 -6615 126 0
6616 6615 -126 0
-6617 6616 129 0
-6617 -6616 -129 0
6617 -6616 129 0
6617 6616 -129 0
-6618 6617 131 0
-6618 -6617 -131 0
6618 -6617 131 0
6618 6617 -131 0
-6619 6618 135 0
-6619 -6618 -135 0
6619 -6618 135 0
6619 6618 -135 0
-6620 6619 136 0
-6620 -6619 -136 0
6620 -6619 136 0
6620 6619 -136 0
-6621 6620 137 0
-6621 -6620 -137 0
6621 -6620 137 0
6621 6620 -137 0
-6622 6621 139 0
-6622 -6621 -139 0
6622 -6621 139 0
6622 6621 -139 0
-6623 6622 143 0
-6623 -6622 -143 0
6623 -6622 143 0
6623 6622 -143 0
-6623 0
-6624 38 69 0
-6624 -38 -69 0
6624 -38 69 0
6624 38 -69 0
-6625 6624 71 0
-6625 -6624 -71 0
6625 -6624 71 0
6625 6624 -71 0
-6626 6625 72 0
-6626 -6625 -72 0
6626 -6625 72 0
6626 6625 -72 0
-6627 6626 73 0
-6627 -6626 -73 0
6627 -6626 73 0
6627 6626 -73 0
-6628 6627 74 0
-6628 -6627 -74 0
6628 -6627 74 0
6628 6627 -74 0
-6629 6628 75 0
-6629 -6628 -75 0
6629 -6628 75 0
6629 6628 -75 0
-6630 6629 78 0
-6630 -6629 -78 0
6630 -6629 78 0
6630 6629 -78 0
-6631 6630 84 0
-6631 -6630 -84 0
6631 -6630 84 0
6631 6630 -84 0
-6632 6631 85 0
-6632 -6631 -85 0
6632 -6631 85 0
6632 6631 -85 0
-6633 6632 86 0
-6633 -6632 -86 0
6633 -6632 86 0
6633 6632 -86 0
-6634 6633 90 0
-6634 -6633 -90 0
6634 -6633 90 0
6634 6633 -90 0
-6635 6634 91 0
-6635 -6634 -91 0
6635 -6634 91 0
6635 6634 -91 0
-6636 6635 92 0
-6636 -6635 -92 0
6636 -6635 92 0
6636 6635 -92 0
-6637 6636 93 0
-6637 -6636 -93 0
6637 -6636 93 0
6637 6636 -93 0
-6638 6637 94 0
-6638 -6637 -94 0
6638 -6637 94 0
6638 6637 -94 0
-6639 6638 95 0
-6639 -6638 -95 0
6639 -6638 95 0
6639 6638 -95 0
-6640 6639 98 0
-6640 -6639 -98 0
6640 -6639 98 0
6640 6639 -98 0
-6641 6640 100 0
-6641 -6640 -100 0
6641 -6640 100 0
6641 6640 -100 0
-6642 6641 106 0
-6642 -6641 -106 0
6642 -6641 106 0
6642 6641 -106 0
-6643 6642 108 0
-6643 -6642 -108 0
6643 -6642 108 0
6643 6642 -108 0
-6644 6643 109 0
-6644 -6643 -109 0
6644 -6643 109 0
6644 6643 -109 0
-6645 6644 110 0
-6645 -6644 -110 0
6645 -6644 110 0
6645 6644 -110 0
-6646 6645 112 0
-6646 -6645 -112 0
6646 -6645 112 0
6646 6645 -112 0
-6647 6646 114 0
-6647 -6646 -114 0
6647 -6646 114 0
6647 6646 -114 0
-6648 6647 123 0
-6648 -6647 -123 0
6648 -6647 123 0
6648 6647 -123 0
-6649 6648 126 0
-6649 -6648 -126 0
6649 -6648 126 0
6649 6648 -126 0
-6650 6649 127 0
-6650 -6649 -127 0
6650 -6649 127 0
6650 6649 -127 0
-6651 6650 128 0
-6651 -6650 -128 0
6651 -6650 128 0
6651 6650 -128 0
-6652 6651 129 0
-6652 -6651 -129 0
6652 -6651 129 0
6652 6651 -129 0
-6653 6652 131 0
-6653 -6652 -131 0
6653 -6652 131 0
6653 6652 -131 0
-6654 6653 134 0
-6654 -6653 -134 0
6654 -6653 134 0
6654 6653 -134 0
-6655 6654 137 0
-6655 -6654 -137 0
6655 -6654 137 0
6655 6654 -137 0
-6656 6655 142 0
-6656 -6655 -142 0
6656 -6655 142 0
6656 6655 -142 0
-6656 0
-6657 39 69 0
-6657 -39 -69 0
6657 -39 69 0
6657 39 -69 0
-6658 6657 70 0
-6658 -6657 -70 0
6658 -6657 70 0
6658 6657 -70 0
-6659 6658 71 0
-6659 -6658 -71 0
6659 -6658 71 0
6659 6658 -71 0
-6660 6659 72 0
-6660 -6659 -72 0
6660 -6659 72 0
6660 6659 -72 0
-6661 6660 73 0
-6661 -6660 -73 0
6661 -6660 73 0
6661 6660 -73 0
-6662 6661 75 0
-6662 -6661 -75 0
6662 -6661 75 0
6662 6661 -75 0
-6663 6662 78 0
-6663 -6662 -78 0
6663 -6662 78 0
6663 6662 -78 0
-6664 6663 79 0
-6664 -6663 -79 0
6664 -6663 79 0
6664 6663 -79 0
-6665 6664 85 0
-6665 -6664 -85 0
6665 -6664 85 0
6665 6664 -85 0
-6666 6665 86 0
-6666 -6665 -86 0
6666 -6665 86 0
6666 6665 -86 0
-6667 6666 87 0
-6667 -6666 -87 0
6667 -6666 87 0
6667 6666 -87 0
-6668 6667 91 0
-6668 -6667 -91 0
6668 -6667 91 0
6668 6667 -91 0
-6669 6668 92 0
-6669 -6668 -92 0
6669 -6668 92 0
6669 6668 -92 0
-6670 6669 94 0
-6670 -6669 -94 0
6670 -6669 94 0
6670 6669 -94 0
-6671 6670 96 0
-6671 -6670 -96 0
6671 -6670 96 0
6671 6670 -96 0
-6672 6671 97 0
-6672 -6671 -97 0
6672 -6671 97 0
6672 6671 -97 0
-6673 6672 98 0
-6673 -6672 -98 0
6673 -6672 98 0
6673 6672 -98 0
-6674 6673 100 0
-6674 -6673 -100 0
6674 -6673 100 0
6674 6673 -100 0
-6675 6674 102 0
-6675 -6674 -102 0
6675 -6674 102 0
6675 6674 -102 0
-6676 6675 103 0
-6676 -6675 -103 0
6676 -6675 103 0
6676 6675 -103 0
-6677 6676 104 0
-6677 -6676 -104 0
6677 -6676 104 0
6677 6676 -104 0
-6678 6677 106 0
-6678 -6677 -106 0
6678 -6677 106 0
6678 6677 -106 0
-6679 6678 107 0
-6679 -6678 -107 0
6679 -6678 107 0
6679 6678 -107 0
-6680 6679 108 0
-6680 -6679 -108 0
6680 -6679 108 0
6680 6679 -108 0
-6681 6680 110 0
-6681 -6680 -110 0
6681 -6680 110 0
6681 6680 -110 0
-6682 6681 116 0
-6682 -6681 -116 0
6682 -6681 116 0
6682 6681 -116 0
-6683 6682 118 0
-6683 -6682 -118 0
6683 -6682 118 0
6683 6682 -118 0
-6684 6683 120 0
-6684 -6683 -120 0
6684 -6683 120 0
6684 6683 -120 0
-6685 6684 122 0
-6685 -6684 -122 0
6685 -6684 122 0
6685 6684 -122 0
-6686 6685 123 0
-6686 -6685 -123 0
6686 -6685 123 0
6686 6685 -123 0
-6687 6686 125 0
-6687 -6686 -125 0
6687 -6686 125 0
6687 6686 -125 0
-6688 6687 126 0
-6688 -6687 -126 0
6688 -6687 126 0
6688 6687 -126 0
-6689 6688 127 0
-6689 -6688 -127 0
6689 -6688 127 0
6689 6688 -127 0
-6690 6689 131 0
-6690 -6689 -131 0
6690 -6689 131 0
6690 6689 -131 0
-6691 6690 134 0
-6691 -6690 -134 0
6691 -6690 134 0
6691 6690 -134 0
-6692 6691 135 0
-6692 -6691 -135 0
6692 -6691 135 0
6692 6691 -135 0
-6693 6692 136 0
-6693 -6692 -136 0
6693 -6692 136 0
6693 6692 -136 0
-6694 6693 140 0
-6694 -6693 -140 0
6694 -6693 140 0
6694 6693 -140 0
-6695 6694 142 0
-6695 -6694 -142 0
6695 -6694 142 0
6695 6694 -142 0
-6696 6695 143 0
-6696 -6695 -143 0
6696 -6695 143 0
6696 6695 -143 0
-6697 6696 144 0
-6697 -6696 -144 0
6697 -6696 144 0
6697 6696 -144 0
-6697 0
-6698 40 69 0
-6698 -40 -69 0
6698 -40 69 0
6698 40 -69 0
-6699 6698 70 0
-6699 -6698 -70 0
6699 -6698 70 0
6699 6698 -70 0
-6700 6699 72 0
-6700 -6699 -72 0
6700 -6699 72 0
6700 6699 -72 0
-6701 6700 73 0
-6701 -6700 -73 0
6701 -6700 73 0
6701 6700 -73 0
-6702 6701 78 0
-6702 -6701 -78 0
6702 -6701 78 0
6702 6701 -78 0
-6703 6702 80 0
-6703 -6702 -80 0
6703 -6702 80 0
6703 6702 -80 0
-6704 6703 86 0
-6704 -6703 -86 0
6704 -6703 86 0
6704 6703 -86 0
-6705 6704 87 0
-6705 -6704 -87 0
6705 -6704 87 0
6705 6704 -87 0
-6706 6705 88 0
-6706 -6705 -88 0
6706 -6705 88 0
6706 6705 -88 0
-6707 6706 92 0
-6707 -6706 -92 0
6707 -6706 92 0
6707 6706 -92 0
-6708 6707 100 0
-6708 -6707 -100 0
6708 -6707 100 0
6708 6707 -100 0
-6709 6708 102 0
-6709 -6708 -102 0
6709 -6708 102 0
6709 6708 -102 0
-6710 6709 103 0
-6710 -6709 -103 0
6710 -6709 103 0
6710 6709 -103 0
-6711 6710 105 0
-6711 -6710 -105 0
6711 -6710 105 0
6711 6710 -105 0
-6712 6711 106 0
-6712 -6711 -106 0
6712 -6711 106 0
6712 6711 -106 0
-6713 6712 107 0
-6713 -6712 -107 0
6713 -6712 107 0
6713 6712 -107 0
-6714 6713 109 0
-6714 -6713 -109 0
6714 -6713 109 0
6714 6713 -109 0
-6715 6714 113 0
-6715 -6714 -113 0
6715 -6714 113 0
6715 6714 -113 0
-6716 6715 115 0
-6716 -6715 -115 0
6716 -6715 115 0
6716 6715 -115 0
-6717 6716 116 0
-6717 -6716 -116 0
6717 -6716 116 0
6717 6716 -116 0
-6718 6717 117 0
-6718 -6717 -117 0
6718 -6717 117 0
6718 6717 -117 0
-6719 6718 118 0
-6719 -6718 -118 0
6719 -6718 118 0
6719 6718 -118 0
-6720 6719 119 0
-6720 -6719 -119 0
6720 -6719 119 0
6720 6719 -119 0
-6721 6720 120 0
-6721 -6720 -120 0
6721 -6720 120 0
6721 6720 -120 0
-6722 6721 122 0
-6722 -6721 -122 0
6722 -6721 122 0
6722 6721 -122 0
-6723 6722 125 0
-6723 -6722 -125 0
6723 -6722 125 0
6723 6722 -125 0
-6724 6723 127 0
-6724 -6723 -127 0
6724 -6723 127 0
6724 6723 -127 0
-6725 6724 129 0
-6725 -6724 -129 0
6725 -6724 129 0
6725 6724 -129 0
-6726 6725 130 0
-6726 -6725 -130 0
6726 -6725 130 0
6726 6725 -130 0
-6727 6726 131 0
-6727 -6726 -131 0
6727 -6726 131 0
6727 6726 -131 0
-6728 6727 134 0
-6728 -6727 -134 0
6728 -6727 134 0
6728 6727 -134 0
-6729 6728 135 0
-6729 -6728 -135 0
6729 -6728 135 0
6729 6728 -135 0
-6730 6729 137 0
-6730 -6729 -137 0
6730 -6729 137 0
6730 6729 -137 0
-6731 6730 138 0
-6731 -6730 -138 0
6731 -6730 138 0
6731 6730 -138 0
-6732 6731 139 0
-6732 -6731 -139 0
6732 -6731 139 0
6732 6731 -139 0
-6733 6732 140 0
-6733 -6732 -140 0
6733 -6732 140 0
6733 6732 -140 0
-6734 6733 141 0
-6734 -6733 -141 0
6734 -6733 141 0
6734 6733 -141 0
-6735 6734 142 0
-6735 -6734 -142 0
6735 -6734 142 0
6735 6734 -142 0
-6736 6735 143 0
-6736 -6735 -143 0
6736 -6735 143 0
6736 6735 -143 0
-6736 0
-6737 41 69 0
-6737 -41 -69 0
6737 -41 69 0
6737 41 -69 0
-6738 6737 70 0
-6738 -6737 -70 0
6738 -6737 70 0
6738 6737 -70 0
-6739 6738 73 0
-6739 -6738 -73 0
6739 -6738 73 0
6739 6738 -73 0
-6740 6739 76 0
-6740 -6739 -76 0
6740 -6739 76 0
6740 6739 -76 0
-6741 6740 78 0
-6741 -6740 -78 0
6741 -6740 78 0
6741 6740 -78 0
-6742 6741 81 0
-6742 -6741 -81 0
6742 -6741 81 0
6742 6741 -81 0
-6743 6742 87 0
-6743 -6742 -87 0
6743 -6742 87 0
6743 6742 -87 0
-6744 6743 88 0
-6744 -6743 -88 0
6744 -6743 88 0
6744 6743 -88 0
-6745 6744 89 0
-6745 -6744 -89 0
6745 -6744 89 0
6745 6744 -89 0
-6746 6745 91 0
-6746 -6745 -91 0
6746 -6745 91 0
6746 6745 -91 0
-6747 6746 95 0
-6747 -6746 -95 0
6747 -6746 95 0
6747 6746 -95 0
-6748 6747 98 0
-6748 -6747 -98 0
6748 -6747 98 0
6748 6747 -98 0
-6749 6748 99 0
-6749 -6748 -99 0
6749 -6748 99 0
6749 6748 -99 0
-6750 6749 100 0
-6750 -6749 -100 0
6750 -6749 100 0
6750 6749 -100 0
-6751 6750 102 0
-6751 -6750 -102 0
6751 -6750 102 0
6751 6750 -102 0
-6752 6751 107 0
-6752 -6751 -107 0
6752 -6751 107 0
6752 6751 -107 0
-6753 6752 109 0
-6753 -6752 -109 0
6753 -6752 109 0
6753 6752 -109 0
-6754 6753 110 0
-6754 -6753 -110 0
6754 -6753 110 0
6754 6753 -110 0
-6755 6754 111 0
-6755 -6754 -111 0
6755 -6754 111 0
6755 6754 -111 0
-6756 6755 113 0
-6756 -6755 -113 0
6756 -6755 113 0
6756 6755 -113 0
-6757 6756 114 0
-6757 -6756 -114 0
6757 -6756 114 0
6757 6756 -114 0
-6758 6757 115 0
-6758 -6757 -115 0
6758 -6757 115 0
6758 6757 -115 0
-6759 6758 117 0
-6759 -6758 -117 0
6759 -6758 117 0
6759 6758 -117 0
-6760 6759 119 0
-6760 -6759 -119 0
6760 -6759 119 0
6760 6759 -119 0
-6761 6760 121 0
-6761 -6760 -121 0
6761 -6760 121 0
6761 6760 -121 0
-6762 6761 122 0
-6762 -6761 -122 0
6762 -6761 122 0
6762 6761 -122 0
-6763 6762 124 0
-6763 -6762 -124 0
6763 -6762 124 0
6763 6762 -124 0
-6764 6763 125 0
-6764 -6763 -125 0
6764 -6763 125 0
6764 6763 -125 0
-6765 6764 127 0
-6765 -6764 -127 0
6765 -6764 127 0
6765 6764 -127 0
-6766 6765 129 0
-6766 -6765 -129 0
6766 -6765 129 0
6766 6765 -129 0
-6767 6766 133 0
-6767 -6766 -133 0
6767 -6766 133 0
6767 6766 -133 0
-6768 6767 134 0
-6768 -6767 -134 0
6768 -6767 134 0
6768 6767 -134 0
-6769 6768 135 0
-6769 -6768 -135 0
6769 -6768 135 0
6769 6768 -135 0
-6770 6769 141 0
-6770 -6769 -141 0
6770 -6769 141 0
6770 6769 -141 0
-6771 6770 143 0
-6771 -6770 -143 0
6771 -6770 143 0
6771 6770 -143 0
-6771 0
-6772 42 70 0
-6772 -42 -70 0
6772 -42 70 0
6772 42 -70 0
-6773 6772 71 0
-6773 -6772 -71 0
6773 -6772 71 0
6773 6772 -71 0
-6774 6773 73 0
-6774 -6773 -73 0
6774 -6773 73 0
6774 6773 -73 0
-6775 6774 74 0
-6775 -6774 -74 0
6775 -6774 74 0
6775 6774 -74 0
-6776 6775 77 0
-6776 -6775 -77 0
6776 -6775 77 0
6776 6775 -77 0
-6777 6776 82 0
-6777 -6776 -82 0
6777 -6776 82 0
6777 6776 -82 0
-6778 6777 88 0
-6778 -6777 -88 0
6778 -6777 88 0
6778 6777 -88 0
-6779 6778 89 0
-6779 -6778 -89 0
6779 -6778 89 0
6779 6778 -89 0
-6780 6779 90 0
-6780 -6779 -90 0
6780 -6779 90 0
6780 6779 -90 0
-6781 6780 92 0
-6781 -6780 -92 0
6781 -6780 92 0
6781 6780 -92 0
-6782 6781 96 0
-6782 -6781 -96 0
6782 -6781 96 0
6782 6781 -96 0
-6783 6782 97 0
-6783 -6782 -97 0
6783 -6782 97 0
6783 6782 -97 0
-6784 6783 99 0
-6784 -6783 -99 0
6784 -6783 99 0
6784 6783 -99 0
-6785 6784 100 0
-6785 -6784 -100 0
6785 -6784 100 0
6785 6784 -100 0
-6786 6785 101 0
-6786 -6785 -101 0
6786 -6785 101 0
6786 6785 -101 0
-6787 6786 108 0
-6787 -6786 -108 0
6787 -6786 108 0
6787 6786 -108 0
-6788 6787 109 0
-6788 -6787 -109 0
6788 -6787 109 0
6788 6787 -109 0
-6789 6788 110 0
-6789 -6788 -110 0
6789 -6788 110 0
6789 6788 -110 0
-6790 6789 111 0
-6790 -6789 -111 0
6790 -6789 111 0
6790 6789 -111 0
-6791 6790 112 0
-6791 -6790 -112 0
6791 -6790 112 0
6791 6790 -112 0
-6792 6791 114 0
-6792 -6791 -114 0
6792 -6791 114 0
6792 6791 -114 0
-6793 6792 116 0
-6793 -6792 -116 0
6793 -6792 116 0
6793 6792 -116 0
-6794 6793 118 0
-6794 -6793 -118 0
6794 -6793 118 0
6794 6793 -118 0
-6795 6794 120 0
-6795 -6794 -120 0
6795 -6794 120 0
6795 6794 -120 0
-6796 6795 122 0
-6796 -6795 -122 0
6796 -6795 122 0
6796 6795 -122 0
-6797 6796 123 0
-6797 -6796 -123 0
6797 -6796 123 0
6797 6796 -123 0
-6798 6797 125 0
-6798 -6797 -125 0
6798 -6797 125 0
6798 6797 -125 0
-6799 6798 126 0
-6799 -6798 -126 0
6799 -6798 126 0
6799 6798 -126 0
-6800 6799 128 0
-6800 -6799 -128 0
6800 -6799 128 0
6800 6799 -128 0
-6801 6800 130 0
-6801 -6800 -130 0
6801 -6800 130 0
6801 6800 -130 0
-6802 6801 134 0
-6802 -6801 -134 0
6802 -6801 134 0
6802 6801 -134 0
-6803 6802 135 0
-6803 -6802 -135 0
6803 -6802 135 0
6803 6802 -135 0
-6804 6803 136 0
-6804 -6803 -136 0
6804 -6803 136 0
6804 6803 -136 0
-6805 6804 142 0
-6805 -6804 -142 0
6805 -6804 142 0
6805 6804 -142 0
-6806 6805 144 0
-6806 -6805 -144 0
6806 -6805 144 0
6806 6805 -144 0
-6806 0
-6807 43 69 0
-6807 -43 -69 0
6807 -43 69 0
6807 43 -69 0
-6808 6807 71 0
-6808 -6807 -71 0
6808 -6807 71 0
6808 6807 -71 0
-6809 6808 73 0
-6809 -6808 -73 0
6809 -6808 73 0
6809 6808 -73 0
-6810 6809 74 0
-6810 -6809 -74 0
6810 -6809 74 0
6810 6809 -74 0
-6811 6810 79 0
-6811 -6810 -79 0
6811 -6810 79 0
6811 6810 -79 0
-6812 6811 81 0
-6812 -6811 -81 0
6812 -6811 81 0
6812 6811 -81 0
-6813 6812 82 0
-6813 -6812 -82 0
6813 -6812 82 0
6813 6812 -82 0
-6814 6813 87 0
-6814 -6813 -87 0
6814 -6813 87 0
6814 6813 -87 0
-6815 6814 96 0
-6815 -6814 -96 0
6815 -6814 96 0
6815 6814 -96 0
-6816 6815 97 0
-6816 -6815 -97 0
6816 -6815 97 0
6816 6815 -97 0
-6817 6816 102 0
-6817 -6816 -102 0
6817 -6816 102 0
6817 6816 -102 0
-6818 6817 106 0
-6818 -6817 -106 0
6818 -6817 106 0
6818 6817 -106 0
-6819 6818 107 0
-6819 -6818 -107 0
6819 -6818 107 0
6819 6818 -107 0
-6820 6819 109 0
-6820 -6819 -109 0
6820 -6819 109 0
6820 6819 -109 0
-6821 6820 113 0
-6821 -6820 -113 0
6821 -6820 113 0
6821 6820 -113 0
-6822 6821 114 0
-6822 -6821 -114 0
6822 -6821 114 0
6822 6821 -114 0
-6823 6822 115 0
-6823 -6822 -115 0
6823 -6822 115 0
6823 6822 -115 0
-6824 6823 116 0
-6824 -6823 -116 0
6824 -6823 116 0
6824 6823 -116 0
-6825 6824 117 0
-6825 -6824 -117 0
6825 -6824 117 0
6825 6824 -117 0
-6826 6825 124 0
-6826 -6825 -124 0
6826 -6825 124 0
6826 6825 -124 0
-6827 6826 134 0
-6827 -6826 -134 0
6827 -6826 134 0
6827 6826 -134 0
-6828 6827 136 0
-6828 -6827 -136 0
6828 -6827 136 0
6828 6827 -136 0
-6829 6828 140 0
-6829 -6828 -140 0
6829 -6828 140 0
6829 6828 -140 0
-6830 6829 143 0
-6830 -6829 -143 0
6830 -6829 143 0
6830 6829 -143 0
-6831 6830 144 0
-6831 -6830 -144 0
6831 -6830 144 0
6831 6830 -144 0
-6831 0
-6832 44 70 0
-6832 -44 -70 0
6832 -44 70 0
6832 44 -70 0
-6833 6832 72 0
-6833 -6832 -72 0
6833 -6832 72 0
6833 6832 -72 0
-6834 6833 74 0
-6834 -6833 -74 0
6834 -6833 74 0
6834 6833 -74 0
-6835 6834 75 0
-6835 -6834 -75 0
6835 -6834 75 0
6835 6834 -75 0
-6836 6835 80 0
-6836 -6835 -80 0
6836 -6835 80 0
6836 6835 -80 0
-6837 6836 82 0
-6837 -6836 -82 0
6837 -6836 82 0
6837 6836 -82 0
-6838 6837 83 0
-6838 -6837 -83 0
6838 -6837 83 0
6838 6837 -83 0
-6839 6838 88 0
-6839 -6838 -88 0
6839 -6838 88 0
6839 6838 -88 0
-6840 6839 91 0
-6840 -6839 -91 0
6840 -6839 91 0
6840 6839 -91 0
-6841 6840 97 0
-6841 -6840 -97 0
6841 -6840 97 0
6841 6840 -97 0
-6842 6841 98 0
-6842 -6841 -98 0
6842 -6841 98 0
6842 6841 -98 0
-6843 6842 107 0
-6843 -6842 -107 0
6843 -6842 107 0
6843 6842 -107 0
-6844 6843 108 0
-6844 -6843 -108 0
6844 -6843 108 0
6844 6843 -108 0
-6845 6844 109 0
-6845 -6844 -109 0
6845 -6844 109 0
6845 6844 -109 0
-6846 6845 110 0
-6846 -6845 -110 0
6846 -6845 110 0
6846 6845 -110 0
-6847 6846 114 0
-6847 -6846 -114 0
6847 -6846 114 0
6847 6846 -114 0
-6848 6847 116 0
-6848 -6847 -116 0
6848 -6847 116 0
6848 6847 -116 0
-6849 6848 117 0
-6849 -6848 -117 0
6849 -6848 117 0
6849 6848 -117 0
-6850 6849 118 0
-6850 -6849 -118 0
6850 -6849 118 0
6850 6849 -118 0
-6851 6850 125 0
-6851 -6850 -125 0
6851 -6850 125 0
6851 6850 -125 0
-6852 6851 135 0
-6852 -6851 -135 0
6852 -6851 135 0
6852 6851 -135 0
-6853 6852 137 0
-6853 -6852 -137 0
6853 -6852 137 0
6853 6852 -137 0
-6854 6853 139 0
-6854 -6853 -139 0
6854 -6853 139 0
6854 6853 -139 0
-6855 6854 141 0
-6855 -6854 -141 0
6855 -6854 141 0
6855 6854 -141 0
-6856 6855 144 0
-6856 -6855 -144 0
6856 -6855 144 0
6856 6855 -144 0
-6856 0
-6857 45 69 0
-6857 -45 -69 0
6857 -45 69 0
6857 45 -69 0
-6858 6857 74 0
-6858 -6857 -74 0
6858 -6857 74 0
6858 6857 -74 0
-6859 6858 75 0
-6859 -6858 -75 0
6859 -6858 75 0
6859 6858 -75 0
-6860 6859 78 0
-6860 -6859 -78 0
6860 -6859 78 0
6860 6859 -78 0
-6861 6860 81 0
-6861 -6860 -81 0
6861 -6860 81 0
6861 6860 -81 0
-6862 6861 83 0
-6862 -6861 -83 0
6862 -6861 83 0
6862 6861 -83 0
-6863 6862 84 0
-6863 -6862 -84 0
6863 -6862 84 0
6863 6862 -84 0
-6864 6863 89 0
-6864 -6863 -89 0
6864 -6863 89 0
6864 6863 -89 0
-6865 6864 91 0
-6865 -6864 -91 0
6865 -6864 91 0
6865 6864 -91 0
-6866 6865 92 0
-6866 -6865 -92 0
6866 -6865 92 0
6866 6865 -92 0
-6867 6866 93 0
-6867 -6866 -93 0
6867 -6866 93 0
6867 6866 -93 0
-6868 6867 95 0
-6868 -6867 -95 0
6868 -6867 95 0
6868 6867 -95 0
-6869 6868 97 0
-6869 -6868 -97 0
6869 -6868 97 0
6869 6868 -97 0
-6870 6869 100 0
-6870 -6869 -100 0
6870 -6869 100 0
6870 6869 -100 0
-6871 6870 101 0
-6871 -6870 -101 0
6871 -6870 101 0
6871 6870 -101 0
-6872 6871 102 0
-6872 -6871 -102 0
6872 -6871 102 0
6872 6871 -102 0
-6873 6872 103 0
-6873 -6872 -103 0
6873 -6872 103 0
6873 6872 -103 0
-6874 6873 104 0
-6874 -6873 -104 0
6874 -6873 104 0
6874 6873 -104 0
-6875 6874 106 0
-6875 -6874 -106 0
6875 -6874 106 0
6875 6874 -106 0
-6876 6875 110 0
-6876 -6875 -110 0
6876 -6875 110 0
6876 6875 -110 0
-6877 6876 113 0
-6877 -6876 -113 0
6877 -6876 113 0
6877 6876 -113 0
-6878 6877 116 0
-6878 -6877 -116 0
6878 -6877 116 0
6878 6877 -116 0
-6879 6878 117 0
-6879 -6878 -117 0
6879 -6878 117 0
6879 6878 -117 0
-6880 6879 119 0
-6880 -6879 -119 0
6880 -6879 119 0
6880 6879 -119 0
-6881 6880 120 0
-6881 -6880 -120 0
6881 -6880 120 0
6881 6880 -120 0
-6882 6881 121 0
-6882 -6881 -121 0
6882 -6881 121 0
6882 6881 -121 0
-6883 6882 122 0
-6883 -6882 -122 0
6883 -6882 122 0
6883 6882 -122 0
-6884 6883 123 0
-6884 -6883 -123 0
6884 -6883 123 0
6884 6883 -123 0
-6885 6884 124 0
-6885 -6884 -124 0
6885 -6884 124 0
6885 6884 -124 0
-6886 6885 125 0
-6886 -6885 -125 0
6886 -6885 125 0
6886 6885 -125 0
-6887 6886 127 0
-6887 -6886 -127 0
6887 -6886 127 0
6887 6886 -127 0
-6888 6887 128 0
-6888 -6887 -128 0
6888 -6887 128 0
6888 6887 -128 0
-6889 6888 129 0
-6889 -6888 -129 0
6889 -6888 129 0
6889 6888 -129 0
-6890 6889 130 0
-6890 -6889 -130 0
6890 -6889 130 0
6890 6889 -130 0
-6891 6890 131 0
-6891 -6890 -131 0
6891 -6890 131 0
6891 6890 -131 0
-6892 6891 132 0
-6892 -6891 -132 0
6892 -6891 132 0
6892 6891 -132 0
-6893 6892 134 0
-6893 -6892 -134 0
6893 -6892 134 0
6893 6892 -134 0
-6894 6893 139 0
-6894 -6893 -139 0
6894 -6893 139 0
6894 6893 -139 0
-6895 6894 144 0
-6895 -6894 -144 0
6895 -6894 144 0
6895 6894 -144 0
-6895 0
-6896 46 70 0
-6896 -46 -70 0
6896 -46 70 0
6896 46 -70 0
-6897 6896 73 0
-6897 -6896 -73 0
6897 -6896 73 0
6897 6896 -73 0
-6898 6897 75 0
-6898 -6897 -75 0
6898 -6897 75 0
6898 6897 -75 0
-6899 6898 76 0
-6899 -6898 -76 0
6899 -6898 76 0
6899 6898 -76 0
-6900 6899 79 0
-6900 -6899 -79 0
6900 -6899 79 0
6900 6899 -79 0
-6901 6900 82 0
-6901 -6900 -82 0
6901 -6900 82 0
6901 6900 -82 0
-6902 6901 84 0
-6902 -6901 -84 0
6902 -6901 84 0
6902 6901 -84 0
-6903 6902 90 0
-6903 -6902 -90 0
6903 -6902 90 0
6903 6902 -90 0
-6904 6903 92 0
-6904 -6903 -92 0
6904 -6903 92 0
6904 6903 -92 0
-6905 6904 93 0
-6905 -6904 -93 0
6905 -6904 93 0
6905 6904 -93 0
-6906 6905 94 0
-6906 -6905 -94 0
6906 -6905 94 0
6906 6905 -94 0
-6907 6906 96 0
-6907 -6906 -96 0
6907 -6906 96 0
6907 6906 -96 0
-6908 6907 97 0
-6908 -6907 -97 0
6908 -6907 97 0
6908 6907 -97 0
-6909 6908 98 0
-6909 -6908 -98 0
6909 -6908 98 0
6909 6908 -98 0
-6910 6909 101 0
-6910 -6909 -101 0
6910 -6909 101 0
6910 6909 -101 0
-6911 6910 102 0
-6911 -6910 -102 0
6911 -6910 102 0
6911 6910 -102 0
-6912 6911 104 0
-6912 -6911 -104 0
6912 -6911 104 0
6912 6911 -104 0
-6913 6912 105 0
-6913 -6912 -105 0
6913 -6912 105 0
6913 6912 -105 0
-6914 6913 107 0
-6914 -6913 -107 0
6914 -6913 107 0
6914 6913 -107 0
-6915 6914 111 0
-6915 -6914 -111 0
6915 -6914 111 0
6915 6914 -111 0
-6916 6915 114 0
-6916 -6915 -114 0
6916 -6915 114 0
6916 6915 -114 0
-6917 6916 115 0
-6917 -6916 -115 0
6917 -6916 115 0
6917 6916 -115 0
-6918 6917 117 0
-6918 -6917 -117 0
6918 -6917 117 0
6918 6917 -117 0
-6919 6918 118 0
-6919 -6918 -118 0
6919 -6918 118 0
6919 6918 -118 0
-6920 6919 120 0
-6920 -6919 -120 0
6920 -6919 120 0
6920 6919 -120 0
-6921 6920 122 0
-6921 -6920 -122 0
6921 -6920 122 0
6921 6920 -122 0
-6922 6921 123 0
-6922 -6921 -123 0
6922 -6921 123 0
6922 6921 -123 0
-6923 6922 124 0
-6923 -6922 -124 0
6923 -6922 124 0
6923 6922 -124 0
-6924 6923 125 0
-6924 -6923 -125 0
6924 -6923 125 0
6924 6923 -125 0
-6925 6924 126 0
-6925 -6924 -126 0
6925 -6924 126 0
6925 6924 -126 0
-6926 6925 127 0
-6926 -6925 -127 0
6926 -6925 127 0
6926 6925 -127 0
-6927 6926 128 0
-6927 -6926 -128 0
6927 -6926 128 0
6927 6926 -128 0
-6928 6927 129 0
-6928 -6927 -129 0
6928 -6927 129 0
6928 6927 -129 0
-6929 6928 130 0
-6929 -6928 -130 0
6929 -6928 130 0
6929 6928 -130 0
-6930 6929 131 0
-6930 -6929 -131 0
6930 -6929 131 0
6930 6929 -131 0
-6931 6930 132 0
-6931 -6930 -132 0
6931 -6930 132 0
6931 6930 -132 0
-6932 6931 135 0
-6932 -6931 -135 0
6932 -6931 135 0
6932 6931 -135 0
-6933 6932 139 0
-6933 -6932 -139 0
6933 -6932 139 0
6933 6932 -139 0
-6934 6933 140 0
-6934 -6933 -140 0
6934 -6933 140 0
6934 6933 -140 0
-6934 0
-6935 47 71 0
-6935 -47 -71 0
6935 -47 71 0
6935 47 -71 0
-6936 6935 74 0
-6936 -6935 -74 0
6936 -6935 74 0
6936 6935 -74 0
-6937 6936 76 0
-6937 -6936 -76 0
6937 -6936 76 0
6937 6936 -76 0
-6938 6937 77 0
-6938 -6937 -77 0
6938 -6937 77 0
6938 6937 -77 0
-6939 6938 79 0
-6939 -6938 -79 0
6939 -6938 79 0
6939 6938 -79 0
-6940 6939 80 0
-6940 -6939 -80 0
6940 -6939 80 0
6940 6939 -80 0
-6941 6940 83 0
-6941 -6940 -83 0
6941 -6940 83 0
6941 6940 -83 0
-6942 6941 85 0
-6942 -6941 -85 0
6942 -6941 85 0
6942 6941 -85 0
-6943 6942 91 0
-6943 -6942 -91 0
6943 -6942 91 0
6943 6942 -91 0
-6944 6943 93 0
-6944 -6943 -93 0
6944 -6943 93 0
6944 6943 -93 0
-6945 6944 94 0
-6945 -6944 -94 0
6945 -6944 94 0
6945 6944 -94 0
-6946 6945 95 0
-6946 -6945 -95 0
6946 -6945 95 0
6946 6945 -95 0
-6947 6946 97 0
-6947 -6946 -97 0
6947 -6946 97 0
6947 6946 -97 0
-6948 6947 98 0
-6948 -6947 -98 0
6948 -6947 98 0
6948 6947 -98 0
-6949 6948 99 0
-6949 -6948 -99 0
6949 -6948 99 0
6949 6948 -99 0
-6950 6949 102 0
-6950 -6949 -102 0
6950 -6949 102 0
6950 6949 -102 0
-6951 6950 105 0
-6951 -6950 -105 0
6951 -6950 105 0
6951 6950 -105 0
-6952 6951 106 0
-6952 -6951 -106 0
6952 -6951 106 0
6952 6951 -106 0
-6953 6952 108 0
-6953 -6952 -108 0
6953 -6952 108 0
6953 6952 -108 0
-6954 6953 109 0
-6954 -6953 -109 0
6954 -6953 109 0
6954 6953 -109 0
-6955 6954 112 0
-6955 -6954 -112 0
6955 -6954 112 0
6955 6954 -112 0
-6956 6955 115 0
-6956 -6955 -115 0
6956 -6955 115 0
6956 6955 -115 0
-6957 6956 116 0
-6957 -6956 -116 0
6957 -6956 116 0
6957 6956 -116 0
-6958 6957 118 0
-6958 -6957 -118 0
6958 -6957 118 0
6958 6957 -118 0
-6959 6958 119 0
-6959 -6958 -119 0
6959 -6958 119 0
6959 6958 -119 0
-6960 6959 121 0
-6960 -6959 -121 0
6960 -6959 121 0
6960 6959 -121 0
-6961 6960 123 0
-6961 -6960 -123 0
6961 -6960 123 0
6961 6960 -123 0
-6962 6961 124 0
-6962 -6961 -124 0
6962 -6961 124 0
6962 6961 -124 0
-6963 6962 125 0
-6963 -6962 -125 0
6963 -6962 125 0
6963 6962 -125 0
-6964 6963 126 0
-6964 -6963 -126 0
6964 -6963 126 0
6964 6963 -126 0
-6965 6964 127 0
-6965 -6964 -127 0
6965 -6964 127 0
6965 6964 -127 0
-6966 6965 128 0
-6966 -6965 -128 0
6966 -6965 128 0
6966 6965 -128 0
-6967 6966 129 0
-6967 -6966 -129 0
6967 -6966 129 0
6967 6966 -129 0
-6968 6967 130 0
-6968 -6967 -130 0
6968 -6967 130 0
6968 6967 -130 0
-6969 6968 131 0
-6969 -6968 -131 0
6969 -6968 131 0
6969 6968 -131 0
-6970 6969 132 0
-6970 -6969 -132 0
6970 -6969 132 0
6970 6969 -132 0
-6971 6970 136 0
-6971 -6970 -136 0
6971 -6970 136 0
6971 6970 -136 0
-6972 6971 140 0
-6972 -6971 -140 0
6972 -6971 140 0
6972 6971 -140 0
-6973 6972 141 0
-6973 -6972 -141 0
6973 -6972 141 0
6973 6972 -141 0
-6973 0
-6974 48 72 0
-6974 -48 -72 0
6974 -48 72 0
6974 48 -72 0
-6975 6974 75 0
-6975 -6974 -75 0
6975 -6974 75 0
6975 6974 -75 0
-6976 6975 77 0
-6976 -6975 -77 0
6976 -6975 77 0
6976 6975 -77 0
-6977 6976 78 0
-6977 -6976 -78 0
6977 -6976 78 0
6977 6976 -78 0
-6978 6977 80 0
-6978 -6977 -80 0
6978 -6977 80 0
6978 6977 -80 0
-6979 6978 81 0
-6979 -6978 -81 0
6979 -6978 81 0
6979 6978 -81 0
-6980 6979 84 0
-6980 -6979 -84 0
6980 -6979 84 0
6980 6979 -84 0
-6981 6980 86 0
-6981 -6980 -86 0
6981 -6980 86 0
6981 6980 -86 0
-6982 6981 92 0
-6982 -6981 -92 0
6982 -6981 92 0
6982 6981 -92 0
-6983 6982 94 0
-6983 -6982 -94 0
6983 -6982 94 0
6983 6982 -94 0
-6984 6983 95 0
-6984 -6983 -95 0
6984 -6983 95 0
6984 6983 -95 0
-6985 6984 96 0
-6985 -6984 -96 0
6985 -6984 96 0
6985 6984 -96 0
-6986 6985 97 0
-6986 -6985 -97 0
6986 -6985 97 0
6986 6985 -97 0
-6987 6986 98 0
-6987 -6986 -98 0
6987 -6986 98 0
6987 6986 -98 0
-6988 6987 99 0
-6988 -6987 -99 0
6988 -6987 99 0
6988 6987 -99 0
-6989 6988 100 0
-6989 -6988 -100 0
6989 -6988 100 0
6989 6988 -100 0
-6990 6989 103 0
-6990 -6989 -103 0
6990 -6989 103 0
6990 6989 -103 0
-6991 6990 106 0
-6991 -6990 -106 0
6991 -6990 106 0
6991 6990 -106 0
-6992 6991 107 0
-6992 -6991 -107 0
6992 -6991 107 0
6992 6991 -107 0
-6993 6992 110 0
-6993 -6992 -110 0
6993 -6992 110 0
6993 6992 -110 0
-6994 6993 113 0
-6994 -6993 -113 0
6994 -6993 113 0
6994 6993 -113 0
-6995 6994 116 0
-6995 -6994 -116 0
6995 -6994 116 0
6995 6994 -116 0
-6996 6995 117 0
-6996 -6995 -117 0
6996 -6995 117 0
6996 6995 -117 0
-6997 6996 119 0
-6997 -6996 -119 0
6997 -6996 119 0
6997 6996 -119 0
-6998 6997 120 0
-6998 -6997 -120 0
6998 -6997 120 0
6998 6997 -120 0
-6999 6998 121 0
-6999 -6998 -121 0
6999 -6998 121 0
6999 6998 -121 0
-7000 6999 122 0
-7000 -6999 -122 0
7000 -6999 122 0
7000 6999 -122 0
-7001 7000 124 0
-7001 -7000 -124 0
7001 -7000 124 0
7001 7000 -124 0
-7002 7001 125 0
-7002 -7001 -125 0
7002 -7001 125 0
7002 7001 -125 0
-7003 7002 126 0
-7003 -7002 -126 0
7003 -7002 126 0
7003 7002 -126 0
-7004 7003 127 0
-7004 -7003 -127 0
7004 -7003 127 0
7004 7003 -127 0
-7005 7004 128 0
-7005 -7004 -128 0
7005 -7004 128 0
7005 7004 -128 0
-7006 7005 129 0
-7006 -7005 -129 0
7006 -7005 129 0
7006 7005 -129 0
-7007 7006 130 0
-7007 -7006 -130 0
7007 -7006 130 0
7007 7006 -130 0
-7008 7007 131 0
-7008 -7007 -131 0
7008 -7007 131 0
7008 7007 -131 0
-7009 7008 132 0
-7009 -7008 -132 0
7009 -7008 132 0
7009 7008 -132 0
-7010 7009 137 0
-7010 -7009 -137 0
7010 -7009 137 0
7010 7009 -137 0
-7011 7010 141 0
-7011 -7010 -141 0
7011 -7010 141 0
7011 7010 -141 0
-7012 7011 142 0
-7012 -7011 -142 0
7012 -7011 142 0
7012 7011 -142 0
-7012 0
-7013 49 71 0
-7013 -49 -71 0
7013 -49 71 0
7013 49 -71 0
-7014 7013 72 0
-7014 -7013 -72 0
7014 -7013 72 0
7014 7013 -72 0
-7015 7014 78 0
-7015 -7014 -78 0
7015 -7014 78 0
7015 7014 -78 0
-7016 7015 81 0
-7016 -7015 -81 0
7016 -7015 81 0
7016 7015 -81 0
-7017 7016 82 0
-7017 -7016 -82 0
7017 -7016 82 0
7017 7016 -82 0
-7018 7017 86 0
-7018 -7017 -86 0
7018 -7017 86 0
7018 7017 -86 0
-7019 7018 91 0
-7019 -7018 -91 0
7019 -7018 91 0
7019 7018 -91 0
-7020 7019 92 0
-7020 -7019 -92 0
7020 -7019 92 0
7020 7019 -92 0
-7021 7020 93 0
-7021 -7020 -93 0
7021 -7020 93 0
7021 7020 -93 0
-7022 7021 97 0
-7022 -7021 -97 0
7022 -7021 97 0
7022 7021 -97 0
-7023 7022 98 0
-7023 -7022 -98 0
7023 -7022 98 0
7023 7022 -98 0
-7024 7023 100 0
-7024 -7023 -100 0
7024 -7023 100 0
7024 7023 -100 0
-7025 7024 101 0
-7025 -7024 -101 0
7025 -7024 101 0
7025 7024 -101 0
-7026 7025 102 0
-7026 -7025 -102 0
7026 -7025 102 0
7026 7025 -102 0
-7027 7026 103 0
-7027 -7026 -103 0
7027 -7026 103 0
7027 7026 -103 0
-7028 7027 104 0
-7028 -7027 -104 0
7028 -7027 104 0
7028 7027 -104 0
-7029 7028 105 0
-7029 -7028 -105 0
7029 -7028 105 0
7029 7028 -105 0
-7030 7029 108 0
-7030 -7029 -108 0
7030 -7029 108 0
7030 7029 -108 0
-7031 7030 109 0
-7031 -7030 -109 0
7031 -7030 109 0
7031 7030 -109 0
-7032 7031 110 0
-7032 -7031 -110 0
7032 -7031 110 0
7032 7031 -110 0
-7033 7032 113 0
-7033 -7032 -113 0
7033 -7032 113 0
7033 7032 -113 0
-7034 7033 114 0
-7034 -7033 -114 0
7034 -7033 114 0
7034 7033 -114 0
-7035 7034 117 0
-7035 -7034 -117 0
7035 -7034 117 0
7035 7034 -117 0
-7036 7035 122 0
-7036 -7035 -122 0
7036 -7035 122 0
7036 7035 -122 0
-7037 7036 123 0
-7037 -7036 -123 0
7037 -7036 123 0
7037 7036 -123 0
-7038 7037 124 0
-7038 -7037 -124 0
7038 -7037 124 0
7038 7037 -124 0
-7039 7038 125 0
-7039 -7038 -125 0
7039 -7038 125 0
7039 7038 -125 0
-7040 7039 126 0
-7040 -7039 -126 0
7040 -7039 126 0
7040 7039 -126 0
-7041 7040 127 0
-7041 -7040 -127 0
7041 -7040 127 0
7041 7040 -127 0
-7042 7041 129 0
-7042 -7041 -129 0
7042 -7041 129 0
7042 7041 -129 0
-7043 7042 132 0
-7043 -7042 -132 0
7043 -7042 132 0
7043 7042 -132 0
-7044 7043 133 0
-7044 -7043 -133 0
7044 -7043 133 0
7044 7043 -133 0
-7045 7044 134 0
-7045 -7044 -134 0
7045 -7044 134 0
7045 7044 -134 0
-7046 7045 135 0
-7046 -7045 -135 0
7046 -7045 135 0
7046 7045 -135 0
-7047 7046 137 0
-7047 -7046 -137 0
7047 -7046 137 0
7047 7046 -137 0
-7048 7047 139 0
-7048 -7047 -139 0
7048 -7047 139 0
7048 7047 -139 0
-7049 7048 142 0
-7049 -7048 -142 0
7049 -7048 142 0
7049 7048 -142 0
-7049 0
-7050 50 69 0
-7050 -50 -69 0
7050 -50 69 0
7050 50 -69 0
-7051 7050 71 0
-7051 -7050 -71 0
7051 -7050 71 0
7051 7050 -71 0
-7052 7051 72 0
-7052 -7051 -72 0
7052 -7051 72 0
7052 7051 -72 0
-7053 7052 73 0
-7053 -7052 -73 0
7053 -7052 73 0
7053 7052 -73 0
-7054 7053 74 0
-7054 -7053 -74 0
7054 -7053 74 0
7054 7053 -74 0
-7055 7054 76 0
-7055 -7054 -76 0
7055 -7054 76 0
7055 7054 -76 0
-7056 7055 78 0
-7056 -7055 -78 0
7056 -7055 78 0
7056 7055 -78 0
-7057 7056 82 0
-7057 -7056 -82 0
7057 -7056 82 0
7057 7056 -82 0
-7058 7057 83 0
-7058 -7057 -83 0
7058 -7057 83 0
7058 7057 -83 0
-7059 7058 87 0
-7059 -7058 -87 0
7059 -7058 87 0
7059 7058 -87 0
-7060 7059 91 0
-7060 -7059 -91 0
7060 -7059 91 0
7060 7059 -91 0
-7061 7060 92 0
-7061 -7060 -92 0
7061 -7060 92 0
7061 7060 -92 0
-7062 7061 94 0
-7062 -7061 -94 0
7062 -7061 94 0
7062 7061 -94 0
-7063 7062 95 0
-7063 -7062 -95 0
7063 -7062 95 0
7063 7062 -95 0
-7064 7063 100 0
-7064 -7063 -100 0
7064 -7063 100 0
7064 7063 -100 0
-7065 7064 103 0
-7065 -7064 -103 0
7065 -7064 103 0
7065 7064 -103 0
-7066 7065 105 0
-7066 -7065 -105 0
7066 -7065 105 0
7066 7065 -105 0
-7067 7066 108 0
-7067 -7066 -108 0
7067 -7066 108 0
7067 7066 -108 0
-7068 7067 110 0
-7068 -7067 -110 0
7068 -7067 110 0
7068 7067 -110 0
-7069 7068 113 0
-7069 -7068 -113 0
7069 -7068 113 0
7069 7068 -113 0
-7070 7069 114 0
-7070 -7069 -114 0
7070 -7069 114 0
7070 7069 -114 0
-7071 7070 116 0
-7071 -7070 -116 0
7071 -7070 116 0
7071 7070 -116 0
-7072 7071 120 0
-7072 -7071 -120 0
7072 -7071 120 0
7072 7071 -120 0
-7073 7072 122 0
-7073 -7072 -122 0
7073 -7072 122 0
7073 7072 -122 0
-7074 7073 129 0
-7074 -7073 -129 0
7074 -7073 129 0
7074 7073 -129 0
-7075 7074 131 0
-7075 -7074 -131 0
7075 -7074 131 0
7075 7074 -131 0
-7076 7075 132 0
-7076 -7075 -132 0
7076 -7075 132 0
7076 7075 -132 0
-7077 7076 135 0
-7077 -7076 -135 0
7077 -7076 135 0
7077 7076 -135 0
-7078 7077 142 0
-7078 -7077 -142 0
7078 -7077 142 0
7078 7077 -142 0
-7079 7078 143 0
-7079 -7078 -143 0
7079 -7078 143 0
7079 7078 -143 0
-7080 7079 144 0
-7080 -7079 -144 0
7080 -7079 144 0
7080 7079 -144 0
-7080 0
-7081 51 69 0
-7081 -51 -69 0
7081 -51 69 0
7081 51 -69 0
-7082 7081 70 0
-7082 -7081 -70 0
7082 -7081 70 0
7082 7081 -70 0
-7083 7082 71 0
-7083 -7082 -71 0
7083 -7082 71 0
7083 7082 -71 0
-7084 7083 72 0
-7084 -7083 -72 0
7084 -7083 72 0
7084 7083 -72 0
-7085 7084 73 0
-7085 -7084 -73 0
7085 -7084 73 0
7085 7084 -73 0
-7086 7085 75 0
-7086 -7085 -75 0
7086 -7085 75 0
7086 7085 -75 0
-7087 7086 76 0
-7087 -7086 -76 0
7087 -7086 76 0
7087 7086 -76 0
-7088 7087 77 0
-7088 -7087 -77 0
7088 -7087 77 0
7088 7087 -77 0
-7089 7088 78 0
-7089 -7088 -78 0
7089 -7088 78 0
7089 7088 -78 0
-7090 7089 83 0
-7090 -7089 -83 0
7090 -7089 83 0
7090 7089 -83 0
-7091 7090 84 0
-7091 -7090 -84 0
7091 -7090 84 0
7091 7090 -84 0
-7092 7091 88 0
-7092 -7091 -88 0
7092 -7091 88 0
7092 7091 -88 0
-7093 7092 91 0
-7093 -7092 -91 0
7093 -7092 91 0
7093 7092 -91 0
-7094 7093 92 0
-7094 -7093 -92 0
7094 -7093 92 0
7094 7093 -92 0
-7095 7094 96 0
-7095 -7094 -96 0
7095 -7094 96 0
7095 7094 -96 0
-7096 7095 97 0
-7096 -7095 -97 0
7096 -7095 97 0
7096 7095 -97 0
-7097 7096 98 0
-7097 -7096 -98 0
7097 -7096 98 0
7097 7096 -98 0
-7098 7097 99 0
-7098 -7097 -99 0
7098 -7097 99 0
7098 7097 -99 0
-7099 7098 100 0
-7099 -7098 -100 0
7099 -7098 100 0
7099 7098 -100 0
-7100 7099 102 0
-7100 -7099 -102 0
7100 -7099 102 0
7100 7099 -102 0
-7101 7100 103 0
-7101 -7100 -103 0
7101 -7100 103 0
7101 7100 -103 0
-7102 7101 108 0
-7102 -7101 -108 0
7102 -7101 108 0
7102 7101 -108 0
-7103 7102 113 0
-7103 -7102 -113 0
7103 -7102 113 0
7103 7102 -113 0
-7104 7103 114 0
-7104 -7103 -114 0
7104 -7103 114 0
7104 7103 -114 0
-7105 7104 115 0
-7105 -7104 -115 0
7105 -7104 115 0
7105 7104 -115 0
-7106 7105 116 0
-7106 -7105 -116 0
7106 -7105 116 0
7106 7105 -116 0
-7107 7106 117 0
-7107 -7106 -117 0
7107 -7106 117 0
7107 7106 -117 0
-7108 7107 118 0
-7108 -7107 -118 0
7108 -7107 118 0
7108 7107 -118 0
-7109 7108 120 0
-7109 -7108 -120 0
7109 -7108 120 0
7109 7108 -120 0
-7110 7109 121 0
-7110 -7109 -121 0
7110 -7109 121 0
7110 7109 -121 0
-7111 7110 122 0
-7111 -7110 -122 0
7111 -7110 122 0
7111 7110 -122 0
-7112 7111 124 0
-7112 -7111 -124 0
7112 -7111 124 0
7112 7111 -124 0
-7113 7112 125 0
-7113 -7112 -125 0
7113 -7112 125 0
7113 7112 -125 0
-7114 7113 126 0
-7114 -7113 -126 0
7114 -7113 126 0
7114 7113 -126 0
-7115 7114 128 0
-7115 -7114 -128 0
7115 -7114 128 0
7115 7114 -128 0
-7116 7115 129 0
-7116 -7115 -129 0
7116 -7115 129 0
7116 7115 -129 0
-7117 7116 131 0
-7117 -7116 -131 0
7117 -7116 131 0
7117 7116 -131 0
-7118 7117 134 0
-7118 -7117 -134 0
7118 -7117 134 0
7118 7117 -134 0
-7119 7118 138 0
-7119 -7118 -138 0
7119 -7118 138 0
7119 7118 -138 0
-7120 7119 139 0
-7120 -7119 -139 0
7120 -7119 139 0
7120 7119 -139 0
-7121 7120 140 0
-7121 -7120 -140 0
7121 -7120 140 0
7121 7120 -140 0
-7122 7121 142 0
-7122 -7121 -142 0
7122 -7121 142 0
7122 7121 -142 0
-7123 7122 143 0
-7123 -7122 -143 0
7123 -7122 143 0
7123 7122 -143 0
-7123 0
-7124 52 69 0
-7124 -52 -69 0
7124 -52 69 0
7124 52 -69 0
-7125 7124 70 0
-7125 -7124 -70 0
7125 -7124 70 0
7125 7124 -70 0
-7126 7125 72 0
-7126 -7125 -72 0
7126 -7125 72 0
7126 7125 -72 0
-7127 7126 73 0
-7127 -7126 -73 0
7127 -7126 73 0
7127 7126 -73 0
-7128 7127 77 0
-7128 -7127 -77 0
7128 -7127 77 0
7128 7127 -77 0
-7129 7128 79 0
-7129 -7128 -79 0
7129 -7128 79 0
7129 7128 -79 0
-7130 7129 84 0
-7130 -7129 -84 0
7130 -7129 84 0
7130 7129 -84 0
-7131 7130 89 0
-7131 -7130 -89 0
7131 -7130 89 0
7131 7130 -89 0
-7132 7131 92 0
-7132 -7131 -92 0
7132 -7131 92 0
7132 7131 -92 0
-7133 7132 95 0
-7133 -7132 -95 0
7133 -7132 95 0
7133 7132 -95 0
-7134 7133 102 0
-7134 -7133 -102 0
7134 -7133 102 0
7134 7133 -102 0
-7135 7134 103 0
-7135 -7134 -103 0
7135 -7134 103 0
7135 7134 -103 0
-7136 7135 106 0
-7136 -7135 -106 0
7136 -7135 106 0
7136 7135 -106 0
-7137 7136 108 0
-7137 -7136 -108 0
7137 -7136 108 0
7137 7136 -108 0
-7138 7137 111 0
-7138 -7137 -111 0
7138 -7137 111 0
7138 7137 -111 0
-7139 7138 113 0
-7139 -7138 -113 0
7139 -7138 113 0
7139 7138 -113 0
-7140 7139 114 0
-7140 -7139 -114 0
7140 -7139 114 0
7140 7139 -114 0
-7141 7140 115 0
-7141 -7140 -115 0
7141 -7140 115 0
7141 7140 -115 0
-7142 7141 117 0
-7142 -7141 -117 0
7142 -7141 117 0
7142 7141 -117 0
-7143 7142 119 0
-7143 -7142 -119 0
7143 -7142 119 0
7143 7142 -119 0
-7144 7143 120 0
-7144 -7143 -120 0
7144 -7143 120 0
7144 7143 -120 0
-7145 7144 124 0
-7145 -7144 -124 0
7145 -7144 124 0
7145 7144 -124 0
-7146 7145 127 0
-7146 -7145 -127 0
7146 -7145 127 0
7146 7145 -127 0
-7147 7146 128 0
-7147 -7146 -128 0
7147 -7146 128 0
7147 7146 -128 0
-7148 7147 131 0
-7148 -7147 -131 0
7148 -7147 131 0
7148 7147 -131 0
-7149 7148 133 0
-7149 -7148 -133 0
7149 -7148 133 0
7149 7148 -133 0
-7150 7149 134 0
-7150 -7149 -134 0
7150 -7149 134 0
7150 7149 -134 0
-7151 7150 135 0
-7151 -7150 -135 0
7151 -7150 135 0
7151 7150 -135 0
-7152 7151 136 0
-7152 -7151 -136 0
7152 -7151 136 0
7152 7151 -136 0
-7153 7152 138 0
-7153 -7152 -138 0
7153 -7152 138 0
7153 7152 -138 0
-7154 7153 141 0
-7154 -7153 -141 0
7154 -7153 141 0
7154 7153 -141 0
-7155 7154 142 0
-7155 -7154 -142 0
7155 -7154 142 0
7155 7154 -142 0
-7156 7155 143 0
-7156 -7155 -143 0
7156 -7155 143 0
7156 7155 -143 0
-7156 0
-7157 53 69 0
-7157 -53 -69 0
7157 -53 69 0
7157 53 -69 0
-7158 7157 70 0
-7158 -7157 -70 0
7158 -7157 70 0
7158 7157 -70 0
-7159 7158 76 0
-7159 -7158 -76 0
7159 -7158 76 0
7159 7158 -76 0
-7160 7159 79 0
-7160 -7159 -79 0
7160 -7159 79 0
7160 7159 -79 0
-7161 7160 80 0
-7161 -7160 -80 0
7161 -7160 80 0
7161 7160 -80 0
-7162 7161 90 0
-7162 -7161 -90 0
7162 -7161 90 0
7162 7161 -90 0
-7163 7162 91 0
-7163 -7162 -91 0
7163 -7162 91 0
7163 7162 -91 0
-7164 7163 95 0
-7164 -7163 -95 0
7164 -7163 95 0
7164 7163 -95 0
-7165 7164 96 0
-7165 -7164 -96 0
7165 -7164 96 0
7165 7164 -96 0
-7166 7165 98 0
-7166 -7165 -98 0
7166 -7165 98 0
7166 7165 -98 0
-7167 7166 99 0
-7167 -7166 -99 0
7167 -7166 99 0
7167 7166 -99 0
-7168 7167 100 0
-7168 -7167 -100 0
7168 -7167 100 0
7168 7167 -100 0
-7169 7168 101 0
-7169 -7168 -101 0
7169 -7168 101 0
7169 7168 -101 0
-7170 7169 102 0
-7170 -7169 -102 0
7170 -7169 102 0
7170 7169 -102 0
-7171 7170 103 0
-7171 -7170 -103 0
7171 -7170 103 0
7171 7170 -103 0
-7172 7171 106 0
-7172 -7171 -106 0
7172 -7171 106 0
7172 7171 -106 0
-7173 7172 107 0
-7173 -7172 -107 0
7173 -7172 107 0
7173 7172 -107 0
-7174 7173 108 0
-7174 -7173 -108 0
7174 -7173 108 0
7174 7173 -108 0
-7175 7174 111 0
-7175 -7174 -111 0
7175 -7174 111 0
7175 7174 -111 0
-7176 7175 112 0
-7176 -7175 -112 0
7176 -7175 112 0
7176 7175 -112 0
-7177 7176 113 0
-7177 -7176 -113 0
7177 -7176 113 0
7177 7176 -113 0
-7178 7177 114 0
-7178 -7177 -114 0
7178 -7177 114 0
7178 7177 -114 0
-7179 7178 115 0
-7179 -7178 -115 0
7179 -7178 115 0
7179 7178 -115 0
-7180 7179 121 0
-7180 -7179 -121 0
7180 -7179 121 0
7180 7179 -121 0
-7181 7180 122 0
-7181 -7180 -122 0
7181 -7180 122 0
7181 7180 -122 0
-7182 7181 123 0
-7182 -7181 -123 0
7182 -7181 123 0
7182 7181 -123 0
-7183 7182 124 0
-7183 -7182 -124 0
7183 -7182 124 0
7183 7182 -124 0
-7184 7183 126 0
-7184 -7183 -126 0
7184 -7183 126 0
7184 7183 -126 0
-7185 7184 127 0
-7185 -7184 -127 0
7185 -7184 127 0
7185 7184 -127 0
-7186 7185 130 0
-7186 -7185 -130 0
7186 -7185 130 0
7186 7185 -130 0
-7187 7186 131 0
-7187 -7186 -131 0
7187 -7186 131 0
7187 7186 -131 0
-7188 7187 133 0
-7188 -7187 -133 0
7188 -7187 133 0
7188 7187 -133 0
-7189 7188 135 0
-7189 -7188 -135 0
7189 -7188 135 0
7189 7188 -135 0
-7190 7189 137 0
-7190 -7189 -137 0
7190 -7189 137 0
7190 7189 -137 0
-7191 7190 138 0
-7191 -7190 -138 0
7191 -7190 138 0
7191 7190 -138 0
-7192 7191 140 0
-7192 -7191 -140 0
7192 -7191 140 0
7192 7191 -140 0
-7193 7192 143 0
-7193 -7192 -143 0
7193 -7192 143 0
7193 7192 -143 0
-7193 0
-7194 54 70 0
-7194 -54 -70 0
7194 -54 70 0
7194 54 -70 0
-7195 7194 71 0
-7195 -7194 -71 0
7195 -7194 71 0
7195 7194 -71 0
-7196 7195 77 0
-7196 -7195 -77 0
7196 -7195 77 0
7196 7195 -77 0
-7197 7196 80 0
-7197 -7196 -80 0
7197 -7196 80 0
7197 7196 -80 0
-7198 7197 81 0
-7198 -7197 -81 0
7198 -7197 81 0
7198 7197 -81 0
-7199 7198 85 0
-7199 -7198 -85 0
7199 -7198 85 0
7199 7198 -85 0
-7200 7199 91 0
-7200 -7199 -91 0
7200 -7199 91 0
7200 7199 -91 0
-7201 7200 92 0
-7201 -7200 -92 0
7201 -7200 92 0
7201 7200 -92 0
-7202 7201 96 0
-7202 -7201 -96 0
7202 -7201 96 0
7202 7201 -96 0
-7203 7202 97 0
-7203 -7202 -97 0
7203 -7202 97 0
7203 7202 -97 0
-7204 7203 99 0
-7204 -7203 -99 0
7204 -7203 99 0
7204 7203 -99 0
-7205 7204 100 0
-7205 -7204 -100 0
7205 -7204 100 0
7205 7204 -100 0
-7206 7205 101 0
-7206 -7205 -101 0
7206 -7205 101 0
7206 7205 -101 0
-7207 7206 102 0
-7207 -7206 -102 0
7207 -7206 102 0
7207 7206 -102 0
-7208 7207 103 0
-7208 -7207 -103 0
7208 -7207 103 0
7208 7207 -103 0
-7209 7208 104 0
-7209 -7208 -104 0
7209 -7208 104 0
7209 7208 -104 0
-7210 7209 107 0
-7210 -7209 -107 0
7210 -7209 107 0
7210 7209 -107 0
-7211 7210 108 0
-7211 -7210 -108 0
7211 -7210 108 0
7211 7210 -108 0
-7212 7211 109 0
-7212 -7211 -109 0
7212 -7211 109 0
7212 7211 -109 0
-7213 7212 112 0
-7213 -7212 -112 0
7213 -7212 112 0
7213 7212 -112 0
-7214 7213 113 0
-7214 -7213 -113 0
7214 -7213 113 0
7214 7213 -113 0
-7215 7214 114 0
-7215 -7214 -114 0
7215 -7214 114 0
7215 7214 -114 0
-7216 7215 116 0
-7216 -7215 -116 0
7216 -7215 116 0
7216 7215 -116 0
-7217 7216 121 0
-7217 -7216 -121 0
7217 -7216 121 0
7217 7216 -121 0
-7218 7217 122 0
-7218 -7217 -122 0
7218 -7217 122 0
7218 7217 -122 0
-7219 7218 123 0
-7219 -7218 -123 0
7219 -7218 123 0
7219 7218 -123 0
-7220 7219 124 0
-7220 -7219 -124 0
7220 -7219 124 0
7220 7219 -124 0
-7221 7220 125 0
-7221 -7220 -125 0
7221 -7220 125 0
7221 7220 -125 0
-7222 7221 128 0
-7222 -7221 -128 0
7222 -7221 128 0
7222 7221 -128 0
-7223 7222 131 0
-7223 -7222 -131 0
7223 -7222 131 0
7223 7222 -131 0
-7224 7223 132 0
-7224 -7223 -132 0
7224 -7223 132 0
7224 7223 -132 0
-7225 7224 133 0
-7225 -7224 -133 0
7225 -7224 133 0
7225 7224 -133 0
-7226 7225 134 0
-7226 -7225 -134 0
7226 -7225 134 0
7226 7225 -134 0
-7227 7226 136 0
-7227 -7226 -136 0
7227 -7226 136 0
7227 7226 -136 0
-7228 7227 138 0
-7228 -7227 -138 0
7228 -7227 138 0
7228 7227 -138 0
-7229 7228 141 0
-7229 -7228 -141 0
7229 -7228 141 0
7229 7228 -141 0
-7230 7229 144 0
-7230 -7229 -144 0
7230 -7229 144 0
7230 7229 -144 0
-7230 0
-7231 55 69 0
-7231 -55 -69 0
7231 -55 69 0
7231 55 -69 0
-7232 7231 71 0
-7232 -7231 -71 0
7232 -7231 71 0
7232 7231 -71 0
-7233 7232 73 0
-7233 -7232 -73 0
7233 -7232 73 0
7233 7232 -73 0
-7234 7233 74 0
-7234 -7233 -74 0
7234 -7233 74 0
7234 7233 -74 0
-7235 7234 76 0
-7235 -7234 -76 0
7235 -7234 76 0
7235 7234 -76 0
-7236 7235 77 0
-7236 -7235 -77 0
7236 -7235 77 0
7236 7235 -77 0
-7237 7236 79 0
-7237 -7236 -79 0
7237 -7236 79 0
7237 7236 -79 0
-7238 7237 80 0
-7238 -7237 -80 0
7238 -7237 80 0
7238 7237 -80 0
-7239 7238 82 0
-7239 -7238 -82 0
7239 -7238 82 0
7239 7238 -82 0
-7240 7239 88 0
-7240 -7239 -88 0
7240 -7239 88 0
7240 7239 -88 0
-7241 7240 89 0
-7241 -7240 -89 0
7241 -7240 89 0
7241 7240 -89 0
-7242 7241 91 0
-7242 -7241 -91 0
7242 -7241 91 0
7242 7241 -91 0
-7243 7242 92 0
-7243 -7242 -92 0
7243 -7242 92 0
7243 7242 -92 0
-7244 7243 95 0
-7244 -7243 -95 0
7244 -7243 95 0
7244 7243 -95 0
-7245 7244 97 0
-7245 -7244 -97 0
7245 -7244 97 0
7245 7244 -97 0
-7246 7245 98 0
-7246 -7245 -98 0
7246 -7245 98 0
7246 7245 -98 0
-7247 7246 102 0
-7247 -7246 -102 0
7247 -7246 102 0
7247 7246 -102 0
-7248 7247 103 0
-7248 -7247 -103 0
7248 -7247 103 0
7248 7247 -103 0
-7249 7248 106 0
-7249 -7248 -106 0
7249 -7248 106 0
7249 7248 -106 0
-7250 7249 107 0
-7250 -7249 -107 0
7250 -7249 107 0
7250 7249 -107 0
-7251 7250 109 0
-7251 -7250 -109 0
7251 -7250 109 0
7251 7250 -109 0
-7252 7251 110 0
-7252 -7251 -110 0
7252 -7251 110 0
7252 7251 -110 0
-7253 7252 111 0
-7253 -7252 -111 0
7253 -7252 111 0
7253 7252 -111 0
-7254 7253 113 0
-7254 -7253 -113 0
7254 -7253 113 0
7254 7253 -113 0
-7255 7254 115 0
-7255 -7254 -115 0
7255 -7254 115 0
7255 7254 -115 0
-7256 7255 116 0
-7256 -7255 -116 0
7256 -7255 116 0
7256 7255 -116 0
-7257 7256 118 0
-7257 -7256 -118 0
7257 -7256 118 0
7257 7256 -118 0
-7258 7257 120 0
-7258 -7257 -120 0
7258 -7257 120 0
7258 7257 -120 0
-7259 7258 121 0
-7259 -7258 -121 0
7259 -7258 121 0
7259 7258 -121 0
-7260 7259 124 0
-7260 -7259 -124 0
7260 -7259 124 0
7260 7259 -124 0
-7261 7260 125 0
-7261 -7260 -125 0
7261 -7260 125 0
7261 7260 -125 0
-7262 7261 127 0
-7262 -7261 -127 0
7262 -7261 127 0
7262 7261 -127 0
-7263 7262 128 0
-7263 -7262 -128 0
7263 -7262 128 0
7263 7262 -128 0
-7264 7263 131 0
-7264 -7263 -131 0
7264 -7263 131 0
7264 7263 -131 0
-7265 7264 133 0
-7265 -7264 -133 0
7265 -7264 133 0
7265 7264 -133 0
-7266 7265 134 0
-7266 -7265 -134 0
7266 -7265 134 0
7266 7265 -134 0
-7267 7266 136 0
-7267 -7266 -136 0
7267 -7266 136 0
7267 7266 -136 0
-7268 7267 137 0
-7268 -7267 -137 0
7268 -7267 137 0
7268 7267 -137 0
-7269 7268 138 0
-7269 -7268 -138 0
7269 -7268 138 0
7269 7268 -138 0
-7270 7269 139 0
-7270 -7269 -139 0
7270 -7269 139 0
7270 7269 -139 0
-7271 7270 142 0
-7271 -7270 -142 0
7271 -7270 142 0
7271 7270 -142 0
-7272 7271 143 0
-7272 -7271 -143 0
7272 -7271 143 0
7272 7271 -143 0
-7273 7272 144 0
-7273 -7272 -144 0
7273 -7272 144 0
7273 7272 -144 0
-7273 0
-7274 56 70 0
-7274 -56 -70 0
7274 -56 70 0
7274 56 -70 0
-7275 7274 72 0
-7275 -7274 -72 0
7275 -7274 72 0
7275 7274 -72 0
-7276 7275 74 0
-7276 -7275 -74 0
7276 -7275 74 0
7276 7275 -74 0
-7277 7276 75 0
-7277 -7276 -75 0
7277 -7276 75 0
7277 7276 -75 0
-7278 7277 77 0
-7278 -7277 -77 0
7278 -7277 77 0
7278 7277 -77 0
-7279 7278 78 0
-7279 -7278 -78 0
7279 -7278 78 0
7279 7278 -78 0
-7280 7279 80 0
-7280 -7279 -80 0
7280 -7279 80 0
7280 7279 -80 0
-7281 7280 81 0
-7281 -7280 -81 0
7281 -7280 81 0
7281 7280 -81 0
-7282 7281 83 0
-7282 -7281 -83 0
7282 -7281 83 0
7282 7281 -83 0
-7283 7282 89 0
-7283 -7282 -89 0
7283 -7282 89 0
7283 7282 -89 0
-7284 7283 90 0
-7284 -7283 -90 0
7284 -7283 90 0
7284 7283 -90 0
-7285 7284 92 0
-7285 -7284 -92 0
7285 -7284 92 0
7285 7284 -92 0
-7286 7285 93 0
-7286 -7285 -93 0
7286 -7285 93 0
7286 7285 -93 0
-7287 7286 96 0
-7287 -7286 -96 0
7287 -7286 96 0
7287 7286 -96 0
-7288 7287 97 0
-7288 -7287 -97 0
7288 -7287 97 0
7288 7287 -97 0
-7289 7288 98 0
-7289 -7288 -98 0
7289 -7288 98 0
7289 7288 -98 0
-7290 7289 99 0
-7290 -7289 -99 0
7290 -7289 99 0
7290 7289 -99 0
-7291 7290 104 0
-7291 -7290 -104 0
7291 -7290 104 0
7291 7290 -104 0
-7292 7291 107 0
-7292 -7291 -107 0
7292 -7291 107 0
7292 7291 -107 0
-7293 7292 108 0
-7293 -7292 -108 0
7293 -7292 108 0
7293 7292 -108 0
-7294 7293 110 0
-7294 -7293 -110 0
7294 -7293 110 0
7294 7293 -110 0
-7295 7294 111 0
-7295 -7294 -111 0
7295 -7294 111 0
7295 7294 -111 0
-7296 7295 112 0
-7296 -7295 -112 0
7296 -7295 112 0
7296 7295 -112 0
-7297 7296 114 0
-7297 -7296 -114 0
7297 -7296 114 0
7297 7296 -114 0
-7298 7297 115 0
-7298 -7297 -115 0
7298 -7297 115 0
7298 7297 -115 0
-7299 7298 116 0
-7299 -7298 -116 0
7299 -7298 116 0
7299 7298 -116 0
-7300 7299 117 0
-7300 -7299 -117 0
7300 -7299 117 0
7300 7299 -117 0
-7301 7300 119 0
-7301 -7300 -119 0
7301 -7300 119 0
7301 7300 -119 0
-7302 7301 122 0
-7302 -7301 -122 0
7302 -7301 122 0
7302 7301 -122 0
-7303 7302 125 0
-7303 -7302 -125 0
7303 -7302 125 0
7303 7302 -125 0
-7304 7303 126 0
-7304 -7303 -126 0
7304 -7303 126 0
7304 7303 -126 0
-7305 7304 128 0
-7305 -7304 -128 0
7305 -7304 128 0
7305 7304 -128 0
-7306 7305 129 0
-7306 -7305 -129 0
7306 -7305 129 0
7306 7305 -129 0
-7307 7306 132 0
-7307 -7306 -132 0
7307 -7306 132 0
7307 7306 -132 0
-7308 7307 133 0
-7308 -7307 -133 0
7308 -7307 133 0
7308 7307 -133 0
-7309 7308 134 0
-7309 -7308 -134 0
7309 -7308 134 0
7309 7308 -134 0
-7310 7309 135 0
-7310 -7309 -135 0
7310 -7309 135 0
7310 7309 -135 0
-7311 7310 137 0
-7311 -7310 -137 0
7311 -7310 137 0
7311 7310 -137 0
-7312 7311 138 0
-7312 -7311 -138 0
7312 -7311 138 0
7312 7311 -138 0
-7313 7312 139 0
-7313 -7312 -139 0
7313 -7312 139 0
7313 7312 -139 0
-7314 7313 140 0
-7314 -7313 -140 0
7314 -7313 140 0
7314 7313 -140 0
-7315 7314 143 0
-7315 -7314 -143 0
7315 -7314 143 0
7315 7314 -143 0
-7316 7315 144 0
-7316 -7315 -144 0
7316 -7315 144 0
7316 7315 -144 0
-7316 0
-7317 57 69 0
-7317 -57 -69 0
7317 -57 69 0
7317 57 -69 0
-7318 7317 73 0
-7318 -7317 -73 0
7318 -7317 73 0
7318 7317 -73 0
-7319 7318 74 0
-7319 -7318 -74 0
7319 -7318 74 0
7319 7318 -74 0
-7320 7319 75 0
-7320 -7319 -75 0
7320 -7319 75 0
7320 7319 -75 0
-7321 7320 81 0
-7321 -7320 -81 0
7321 -7320 81 0
7321 7320 -81 0
-7322 7321 82 0
-7322 -7321 -82 0
7322 -7321 82 0
7322 7321 -82 0
-7323 7322 84 0
-7323 -7322 -84 0
7323 -7322 84 0
7323 7322 -84 0
-7324 7323 85 0
-7324 -7323 -85 0
7324 -7323 85 0
7324 7323 -85 0
-7325 7324 90 0
-7325 -7324 -90 0
7325 -7324 90 0
7325 7324 -90 0
-7326 7325 94 0
-7326 -7325 -94 0
7326 -7325 94 0
7326 7325 -94 0
-7327 7326 95 0
-7327 -7326 -95 0
7327 -7326 95 0
7327 7326 -95 0
-7328 7327 97 0
-7328 -7327 -97 0
7328 -7327 97 0
7328 7327 -97 0
-7329 7328 101 0
-7329 -7328 -101 0
7329 -7328 101 0
7329 7328 -101 0
-7330 7329 102 0
-7330 -7329 -102 0
7330 -7329 102 0
7330 7329 -102 0
-7331 7330 103 0
-7331 -7330 -103 0
7331 -7330 103 0
7331 7330 -103 0
-7332 7331 104 0
-7332 -7331 -104 0
7332 -7331 104 0
7332 7331 -104 0
-7333 7332 105 0
-7333 -7332 -105 0
7333 -7332 105 0
7333 7332 -105 0
-7334 7333 106 0
-7334 -7333 -106 0
7334 -7333 106 0
7334 7333 -106 0
-7335 7334 112 0
-7335 -7334 -112 0
7335 -7334 112 0
7335 7334 -112 0
-7336 7335 117 0
-7336 -7335 -117 0
7336 -7335 117 0
7336 7335 -117 0
-7337 7336 122 0
-7337 -7336 -122 0
7337 -7336 122 0
7337 7336 -122 0
-7338 7337 124 0
-7338 -7337 -124 0
7338 -7337 124 0
7338 7337 -124 0
-7339 7338 125 0
-7339 -7338 -125 0
7339 -7338 125 0
7339 7338 -125 0
-7340 7339 128 0
-7340 -7339 -128 0
7340 -7339 128 0
7340 7339 -128 0
-7341 7340 131 0
-7341 -7340 -131 0
7341 -7340 131 0
7341 7340 -131 0
-7342 7341 132 0
-7342 -7341 -132 0
7342 -7341 132 0
7342 7341 -132 0
-7343 7342 133 0
-7343 -7342 -133 0
7343 -7342 133 0
7343 7342 -133 0
-7344 7343 135 0
-7344 -7343 -135 0
7344 -7343 135 0
7344 7343 -135 0
-7345 7344 139 0
-7345 -7344 -139 0
7345 -7344 139 0
7345 7344 -139 0
-7346 7345 141 0
-7346 -7345 -141 0
7346 -7345 141 0
7346 7345 -141 0
-7347 7346 142 0
-7347 -7346 -142 0
7347 -7346 142 0
7347 7346 -142 0
-7347 0
-7348 58 70 0
-7348 -58 -70 0
7348 -58 70 0
7348 58 -70 0
-7349 7348 74 0
-7349 -7348 -74 0
7349 -7348 74 0
7349 7348 -74 0
-7350 7349 75 0
-7350 -7349 -75 0
7350 -7349 75 0
7350 7349 -75 0
-7351 7350 76 0
-7351 -7350 -76 0
7351 -7350 76 0
7351 7350 -76 0
-7352 7351 79 0
-7352 -7351 -79 0
7352 -7351 79 0
7352 7351 -79 0
-7353 7352 82 0
-7353 -7352 -82 0
7353 -7352 82 0
7353 7352 -82 0
-7354 7353 83 0
-7354 -7353 -83 0
7354 -7353 83 0
7354 7353 -83 0
-7355 7354 85 0
-7355 -7354 -85 0
7355 -7354 85 0
7355 7354 -85 0
-7356 7355 86 0
-7356 -7355 -86 0
7356 -7355 86 0
7356 7355 -86 0
-7357 7356 95 0
-7357 -7356 -95 0
7357 -7356 95 0
7357 7356 -95 0
-7358 7357 96 0
-7358 -7357 -96 0
7358 -7357 96 0
7358 7357 -96 0
-7359 7358 97 0
-7359 -7358 -97 0
7359 -7358 97 0
7359 7358 -97 0
-7360 7359 98 0
-7360 -7359 -98 0
7360 -7359 98 0
7360 7359 -98 0
-7361 7360 102 0
-7361 -7360 -102 0
7361 -7360 102 0
7361 7360 -102 0
-7362 7361 104 0
-7362 -7361 -104 0
7362 -7361 104 0
7362 7361 -104 0
-7363 7362 105 0
-7363 -7362 -105 0
7363 -7362 105 0
7363 7362 -105 0
-7364 7363 106 0
-7364 -7363 -106 0
7364 -7363 106 0
7364 7363 -106 0
-7365 7364 107 0
-7365 -7364 -107 0
7365 -7364 107 0
7365 7364 -107 0
-7366 7365 113 0
-7366 -7365 -113 0
7366 -7365 113 0
7366 7365 -113 0
-7367 7366 118 0
-7367 -7366 -118 0
7367 -7366 118 0
7367 7366 -118 0
-7368 7367 123 0
-7368 -7367 -123 0
7368 -7367 123 0
7368 7367 -123 0
-7369 7368 125 0
-7369 -7368 -125 0
7369 -7368 125 0
7369 7368 -125 0
-7370 7369 126 0
-7370 -7369 -126 0
7370 -7369 126 0
7370 7369 -126 0
-7371 7370 127 0
-7371 -7370 -127 0
7371 -7370 127 0
7371 7370 -127 0
-7372 7371 129 0
-7372 -7371 -129 0
7372 -7371 129 0
7372 7371 -129 0
-7373 7372 132 0
-7373 -7372 -132 0
7373 -7372 132 0
7373 7372 -132 0
-7374 7373 134 0
-7374 -7373 -134 0
7374 -7373 134 0
7374 7373 -134 0
-7375 7374 136 0
-7375 -7374 -136 0
7375 -7374 136 0
7375 7374 -136 0
-7376 7375 140 0
-7376 -7375 -140 0
7376 -7375 140 0
7376 7375 -140 0
-7377 7376 142 0
-7377 -7376 -142 0
7377 -7376 142 0
7377 7376 -142 0
-7378 7377 143 0
-7378 -7377 -143 0
7378 -7377 143 0
7378 7377 -143 0
-7378 0
-7379 59 71 0
-7379 -59 -71 0
7379 -59 71 0
7379 59 -71 0
-7380 7379 75 0
-7380 -7379 -75 0
7380 -7379 75 0
7380 7379 -75 0
-7381 7380 76 0
-7381 -7380 -76 0
7381 -7380 76 0
7381 7380 -76 0
-7382 7381 77 0
-7382 -7381 -77 0
7382 -7381 77 0
7382 7381 -77 0
-7383 7382 80 0
-7383 -7382 -80 0
7383 -7382 80 0
7383 7382 -80 0
-7384 7383 83 0
-7384 -7383 -83 0
7384 -7383 83 0
7384 7383 -83 0
-7385 7384 84 0
-7385 -7384 -84 0
7385 -7384 84 0
7385 7384 -84 0
-7386 7385 86 0
-7386 -7385 -86 0
7386 -7385 86 0
7386 7385 -86 0
-7387 7386 87 0
-7387 -7386 -87 0
7387 -7386 87 0
7387 7386 -87 0
-7388 7387 91 0
-7388 -7387 -91 0
7388 -7387 91 0
7388 7387 -91 0
-7389 7388 96 0
-7389 -7388 -96 0
7389 -7388 96 0
7389 7388 -96 0
-7390 7389 97 0
-7390 -7389 -97 0
7390 -7389 97 0
7390 7389 -97 0
-7391 7390 98 0
-7391 -7390 -98 0
7391 -7390 98 0
7391 7390 -98 0
-7392 7391 99 0
-7392 -7391 -99 0
7392 -7391 99 0
7392 7391 -99 0
-7393 7392 105 0
-7393 -7392 -105 0
7393 -7392 105 0
7393 7392 -105 0
-7394 7393 106 0
-7394 -7393 -106 0
7394 -7393 106 0
7394 7393 -106 0
-7395 7394 107 0
-7395 -7394 -107 0
7395 -7394 107 0
7395 7394 -107 0
-7396 7395 108 0
-7396 -7395 -108 0
7396 -7395 108 0
7396 7395 -108 0
-7397 7396 114 0
-7397 -7396 -114 0
7397 -7396 114 0
7397 7396 -114 0
-7398 7397 119 0
-7398 -7397 -119 0
7398 -7397 119 0
7398 7397 -119 0
-7399 7398 121 0
-7399 -7398 -121 0
7399 -7398 121 0
7399 7398 -121 0
-7400 7399 124 0
-7400 -7399 -124 0
7400 -7399 124 0
7400 7399 -124 0
-7401 7400 126 0
-7401 -7400 -126 0
7401 -7400 126 0
7401 7400 -126 0
-7402 7401 127 0
-7402 -7401 -127 0
7402 -7401 127 0
7402 7401 -127 0
-7403 7402 128 0
-7403 -7402 -128 0
7403 -7402 128 0
7403 7402 -128 0
-7404 7403 130 0
-7404 -7403 -130 0
7404 -7403 130 0
7404 7403 -130 0
-7405 7404 135 0
-7405 -7404 -135 0
7405 -7404 135 0
7405 7404 -135 0
-7406 7405 137 0
-7406 -7405 -137 0
7406 -7405 137 0
7406 7405 -137 0
-7407 7406 141 0
-7407 -7406 -141 0
7407 -7406 141 0
7407 7406 -141 0
-7408 7407 143 0
-7408 -7407 -143 0
7408 -7407 143 0
7408 7407 -143 0
-7409 7408 144 0
-7409 -7408 -144 0
7409 -7408 144 0
7409 7408 -144 0
-7409 0
-7410 60 72 0
-7410 -60 -72 0
7410 -60 72 0
7410 60 -72 0
-7411 7410 76 0
-7411 -7410 -76 0
7411 -7410 76 0
7411 7410 -76 0
-7412 7411 77 0
-7412 -7411 -77 0
7412 -7411 77 0
7412 7411 -77 0
-7413 7412 78 0
-7413 -7412 -78 0
7413 -7412 78 0
7413 7412 -78 0
-7414 7413 79 0
-7414 -7413 -79 0
7414 -7413 79 0
7414 7413 -79 0
-7415 7414 81 0
-7415 -7414 -81 0
7415 -7414 81 0
7415 7414 -81 0
-7416 7415 84 0
-7416 -7415 -84 0
7416 -7415 84 0
7416 7415 -84 0
-7417 7416 87 0
-7417 -7416 -87 0
7417 -7416 87 0
7417 7416 -87 0
-7418 7417 88 0
-7418 -7417 -88 0
7418 -7417 88 0
7418 7417 -88 0
-7419 7418 91 0
-7419 -7418 -91 0
7419 -7418 91 0
7419 7418 -91 0
-7420 7419 92 0
-7420 -7419 -92 0
7420 -7419 92 0
7420 7419 -92 0
-7421 7420 98 0
-7421 -7420 -98 0
7421 -7420 98 0
7421 7420 -98 0
-7422 7421 99 0
-7422 -7421 -99 0
7422 -7421 99 0
7422 7421 -99 0
-7423 7422 100 0
-7423 -7422 -100 0
7423 -7422 100 0
7423 7422 -100 0
-7424 7423 103 0
-7424 -7423 -103 0
7424 -7423 103 0
7424 7423 -103 0
-7425 7424 106 0
-7425 -7424 -106 0
7425 -7424 106 0
7425 7424 -106 0
-7426 7425 107 0
-7426 -7425 -107 0
7426 -7425 107 0
7426 7425 -107 0
-7427 7426 108 0
-7427 -7426 -108 0
7427 -7426 108 0
7427 7426 -108 0
-7428 7427 109 0
-7428 -7427 -109 0
7428 -7427 109 0
7428 7427 -109 0
-7429 7428 120 0
-7429 -7428 -120 0
7429 -7428 120 0
7429 7428 -120 0
-7430 7429 121 0
-7430 -7429 -121 0
7430 -7429 121 0
7430 7429 -121 0
-7431 7430 122 0
-7431 -7430 -122 0
7431 -7430 122 0
7431 7430 -122 0
-7432 7431 125 0
-7432 -7431 -125 0
7432 -7431 125 0
7432 7431 -125 0
-7433 7432 128 0
-7433 -7432 -128 0
7433 -7432 128 0
7433 7432 -128 0
-7434 7433 129 0
-7434 -7433 -129 0
7434 -7433 129 0
7434 7433 -129 0
-7435 7434 131 0
-7435 -7434 -131 0
7435 -7434 131 0
7435 7434 -131 0
-7436 7435 136 0
-7436 -7435 -136 0
7436 -7435 136 0
7436 7435 -136 0
-7437 7436 138 0
-7437 -7436 -138 0
7437 -7436 138 0
7437 7436 -138 0
-7438 7437 139 0
-7438 -7437 -139 0
7438 -7437 139 0
7438 7437 -139 0
-7439 7438 142 0
-7439 -7438 -142 0
7439 -7438 142 0
7439 7438 -142 0
-7440 7439 144 0
-7440 -7439 -144 0
7440 -7439 144 0
7440 7439 -144 0
-7440 0
-7441 61 71 0
-7441 -61 -71 0
7441 -61 71 0
7441 61 -71 0
-7442 7441 72 0
-7442 -7441 -72 0
7442 -7441 72 0
7442 7441 -72 0
-7443 7442 73 0
-7443 -7442 -73 0
7443 -7442 73 0
7443 7442 -73 0
-7444 7443 74 0
-7444 -7443 -74 0
7444 -7443 74 0
7444 7443 -74 0
-7445 7444 76 0
-7445 -7444 -76 0
7445 -7444 76 0
7445 7444 -76 0
-7446 7445 78 0
-7446 -7445 -78 0
7446 -7445 78 0
7446 7445 -78 0
-7447 7446 81 0
-7447 -7446 -81 0
7447 -7446 81 0
7447 7446 -81 0
-7448 7447 83 0
-7448 -7447 -83 0
7448 -7447 83 0
7448 7447 -83 0
-7449 7448 87 0
-7449 -7448 -87 0
7449 -7448 87 0
7449 7448 -87 0
-7450 7449 91 0
-7450 -7449 -91 0
7450 -7449 91 0
7450 7449 -91 0
-7451 7450 92 0
-7451 -7450 -92 0
7451 -7450 92 0
7451 7450 -92 0
-7452 7451 94 0
-7452 -7451 -94 0
7452 -7451 94 0
7452 7451 -94 0
-7453 7452 95 0
-7453 -7452 -95 0
7453 -7452 95 0
7453 7452 -95 0
-7454 7453 100 0
-7454 -7453 -100 0
7454 -7453 100 0
7454 7453 -100 0
-7455 7454 103 0
-7455 -7454 -103 0
7455 -7454 103 0
7455 7454 -103 0
-7456 7455 105 0
-7456 -7455 -105 0
7456 -7455 105 0
7456 7455 -105 0
-7457 7456 108 0
-7457 -7456 -108 0
7457 -7456 108 0
7457 7456 -108 0
-7458 7457 110 0
-7458 -7457 -110 0
7458 -7457 110 0
7458 7457 -110 0
-7459 7458 113 0
-7459 -7458 -113 0
7459 -7458 113 0
7459 7458 -113 0
-7460 7459 114 0
-7460 -7459 -114 0
7460 -7459 114 0
7460 7459 -114 0
-7461 7460 116 0
-7461 -7460 -116 0
7461 -7460 116 0
7461 7460 -116 0
-7462 7461 120 0
-7462 -7461 -120 0
7462 -7461 120 0
7462 7461 -120 0
-7463 7462 122 0
-7463 -7462 -122 0
7463 -7462 122 0
7463 7462 -122 0
-7464 7463 125 0
-7464 -7463 -125 0
7464 -7463 125 0
7464 7463 -125 0
-7465 7464 129 0
-7465 -7464 -129 0
7465 -7464 129 0
7465 7464 -129 0
-7466 7465 131 0
-7466 -7465 -131 0
7466 -7465 131 0
7466 7465 -131 0
-7467 7466 132 0
-7467 -7466 -132 0
7467 -7466 132 0
7467 7466 -132 0
-7468 7467 135 0
-7468 -7467 -135 0
7468 -7467 135 0
7468 7467 -135 0
-7469 7468 142 0
-7469 -7468 -142 0
7469 -7468 142 0
7469 7468 -142 0
-7470 7469 143 0
-7470 -7469 -143 0
7470 -7469 143 0
7470 7469 -143 0
-7471 7470 144 0
-7471 -7470 -144 0
7471 -7470 144 0
7471 7470 -144 0
-7471 0
-7472 62 69 0
-7472 -62 -69 0
7472 -62 69 0
7472 62 -69 0
-7473 7472 71 0
-7473 -7472 -71 0
7473 -7472 71 0
7473 7472 -71 0
-7474 7473 72 0
-7474 -7473 -72 0
7474 -7473 72 0
7474 7473 -72 0
-7475 7474 73 0
-7475 -7474 -73 0
7475 -7474 73 0
7475 7474 -73 0
-7476 7475 75 0
-7476 -7475 -75 0
7476 -7475 75 0
7476 7475 -75 0
-7477 7476 76 0
-7477 -7476 -76 0
7477 -7476 76 0
7477 7476 -76 0
-7478 7477 77 0
-7478 -7477 -77 0
7478 -7477 77 0
7478 7477 -77 0
-7479 7478 78 0
-7479 -7478 -78 0
7479 -7478 78 0
7479 7478 -78 0
-7480 7479 82 0
-7480 -7479 -82 0
7480 -7479 82 0
7480 7479 -82 0
-7481 7480 84 0
-7481 -7480 -84 0
7481 -7480 84 0
7481 7480 -84 0
-7482 7481 88 0
-7482 -7481 -88 0
7482 -7481 88 0
7482 7481 -88 0
-7483 7482 91 0
-7483 -7482 -91 0
7483 -7482 91 0
7483 7482 -91 0
-7484 7483 92 0
-7484 -7483 -92 0
7484 -7483 92 0
7484 7483 -92 0
-7485 7484 96 0
-7485 -7484 -96 0
7485 -7484 96 0
7485 7484 -96 0
-7486 7485 97 0
-7486 -7485 -97 0
7486 -7485 97 0
7486 7485 -97 0
-7487 7486 98 0
-7487 -7486 -98 0
7487 -7486 98 0
7487 7486 -98 0
-7488 7487 99 0
-7488 -7487 -99 0
7488 -7487 99 0
7488 7487 -99 0
-7489 7488 100 0
-7489 -7488 -100 0
7489 -7488 100 0
7489 7488 -100 0
-7490 7489 102 0
-7490 -7489 -102 0
7490 -7489 102 0
7490 7489 -102 0
-7491 7490 103 0
-7491 -7490 -103 0
7491 -7490 103 0
7491 7490 -103 0
-7492 7491 108 0
-7492 -7491 -108 0
7492 -7491 108 0
7492 7491 -108 0
-7493 7492 113 0
-7493 -7492 -113 0
7493 -7492 113 0
7493 7492 -113 0
-7494 7493 114 0
-7494 -7493 -114 0
7494 -7493 114 0
7494 7493 -114 0
-7495 7494 115 0
-7495 -7494 -115 0
7495 -7494 115 0
7495 7494 -115 0
-7496 7495 116 0
-7496 -7495 -116 0
7496 -7495 116 0
7496 7495 -116 0
-7497 7496 117 0
-7497 -7496 -117 0
7497 -7496 117 0
7497 7496 -117 0
-7498 7497 118 0
-7498 -7497 -118 0
7498 -7497 118 0
7498 7497 -118 0
-7499 7498 120 0
-7499 -7498 -120 0
7499 -7498 120 0
7499 7498 -120 0
-7500 7499 121 0
-7500 -7499 -121 0
7500 -7499 121 0
7500 7499 -121 0
-7501 7500 122 0
-7501 -7500 -122 0
7501 -7500 122 0
7501 7500 -122 0
-7502 7501 124 0
-7502 -7501 -124 0
7502 -7501 124 0
7502 7501 -124 0
-7503 7502 125 0
-7503 -7502 -125 0
7503 -7502 125 0
7503 7502 -125 0
-7504 7503 128 0
-7504 -7503 -128 0
7504 -7503 128 0
7504 7503 -128 0
-7505 7504 129 0
-7505 -7504 -129 0
7505 -7504 129 0
7505 7504 -129 0
-7506 7505 131 0
-7506 -7505 -131 0
7506 -7505 131 0
7506 7505 -131 0
-7507 7506 134 0
-7507 -7506 -134 0
7507 -7506 134 0
7507 7506 -134 0
-7508 7507 138 0
-7508 -7507 -138 0
7508 -7507 138 0
7508 7507 -138 0
-7509 7508 139 0
-7509 -7508 -139 0
7509 -7508 139 0
7509 7508 -139 0
-7510 7509 140 0
-7510 -7509 -140 0
7510 -7509 140 0
7510 7509 -140 0
-7511 7510 142 0
-7511 -7510 -142 0
7511 -7510 142 0
7511 7510 -142 0
-7512 7511 143 0
-7512 -7511 -143 0
7512 -7511 143 0
7512 7511 -143 0
-7512 0
-7513 63 69 0
-7513 -63 -69 0
7513 -63 69 0
7513 63 -69 0
-7514 7513 70 0
-7514 -7513 -70 0
7514 -7513 70 0
7514 7513 -70 0
-7515 7514 71 0
-7515 -7514 -71 0
7515 -7514 71 0
7515 7514 -71 0
-7516 7515 72 0
-7516 -7515 -72 0
7516 -7515 72 0
7516 7515 -72 0
-7517 7516 73 0
-7517 -7516 -73 0
7517 -7516 73 0
7517 7516 -73 0
-7518 7517 77 0
-7518 -7517 -77 0
7518 -7517 77 0
7518 7517 -77 0
-7519 7518 79 0
-7519 -7518 -79 0
7519 -7518 79 0
7519 7518 -79 0
-7520 7519 83 0
-7520 -7519 -83 0
7520 -7519 83 0
7520 7519 -83 0
-7521 7520 89 0
-7521 -7520 -89 0
7521 -7520 89 0
7521 7520 -89 0
-7522 7521 92 0
-7522 -7521 -92 0
7522 -7521 92 0
7522 7521 -92 0
-7523 7522 95 0
-7523 -7522 -95 0
7523 -7522 95 0
7523 7522 -95 0
-7524 7523 102 0
-7524 -7523 -102 0
7524 -7523 102 0
7524 7523 -102 0
-7525 7524 103 0
-7525 -7524 -103 0
7525 -7524 103 0
7525 7524 -103 0
-7526 7525 106 0
-7526 -7525 -106 0
7526 -7525 106 0
7526 7525 -106 0
-7527 7526 108 0
-7527 -7526 -108 0
7527 -7526 108 0
7527 7526 -108 0
-7528 7527 111 0
-7528 -7527 -111 0
7528 -7527 111 0
7528 7527 -111 0
-7529 7528 113 0
-7529 -7528 -113 0
7529 -7528 113 0
7529 7528 -113 0
-7530 7529 114 0
-7530 -7529 -114 0
7530 -7529 114 0
7530 7529 -114 0
-7531 7530 115 0
-7531 -7530 -115 0
7531 -7530 115 0
7531 7530 -115 0
-7532 7531 117 0
-7532 -7531 -117 0
7532 -7531 117 0
7532 7531 -117 0
-7533 7532 119 0
-7533 -7532 -119 0
7533 -7532 119 0
7533 7532 -119 0
-7534 7533 120 0
-7534 -7533 -120 0
7534 -7533 120 0
7534 7533 -120 0
-7535 7534 121 0
-7535 -7534 -121 0
7535 -7534 121 0
7535 7534 -121 0
-7536 7535 124 0
-7536 -7535 -124 0
7536 -7535 124 0
7536 7535 -124 0
-7537 7536 127 0
-7537 -7536 -127 0
7537 -7536 127 0
7537 7536 -127 0
-7538 7537 128 0
-7538 -7537 -128 0
7538 -7537 128 0
7538 7537 -128 0
-7539 7538 131 0
-7539 -7538 -131 0
7539 -7538 131 0
7539 7538 -131 0
-7540 7539 133 0
-7540 -7539 -133 0
7540 -7539 133 0
7540 7539 -133 0
-7541 7540 134 0
-7541 -7540 -134 0
7541 -7540 134 0
7541 7540 -134 0
-7542 7541 135 0
-7542 -7541 -135 0
7542 -7541 135 0
7542 7541 -135 0
-7543 7542 136 0
-7543 -7542 -136 0
7543 -7542 136 0
7543 7542 -136 0
-7544 7543 138 0
-7544 -7543 -138 0
7544 -7543 138 0
7544 7543 -138 0
-7545 7544 141 0
-7545 -7544 -141 0
7545 -7544 141 0
7545 7544 -141 0
-7546 7545 142 0
-7546 -7545 -142 0
7546 -7545 142 0
7546 7545 -142 0
-7547 7546 143 0
-7547 -7546 -143 0
7547 -7546 143 0
7547 7546 -143 0
-7547 0
-7548 64 69 0
-7548 -64 -69 0
7548 -64 69 0
7548 64 -69 0
-7549 7548 70 0
-7549 -7548 -70 0
7549 -7548 70 0
7549 7548 -70 0
-7550 7549 72 0
-7550 -7549 -72 0
7550 -7549 72 0
7550 7549 -72 0
-7551 7550 76 0
-7551 -7550 -76 0
7551 -7550 76 0
7551 7550 -76 0
-7552 7551 80 0
-7552 -7551 -80 0
7552 -7551 80 0
7552 7551 -80 0
-7553 7552 84 0
-7553 -7552 -84 0
7553 -7552 84 0
7553 7552 -84 0
-7554 7553 90 0
-7554 -7553 -90 0
7554 -7553 90 0
7554 7553 -90 0
-7555 7554 91 0
-7555 -7554 -91 0
7555 -7554 91 0
7555 7554 -91 0
-7556 7555 95 0
-7556 -7555 -95 0
7556 -7555 95 0
7556 7555 -95 0
-7557 7556 96 0
-7557 -7556 -96 0
7557 -7556 96 0
7557 7556 -96 0
-7558 7557 98 0
-7558 -7557 -98 0
7558 -7557 98 0
7558 7557 -98 0
-7559 7558 99 0
-7559 -7558 -99 0
7559 -7558 99 0
7559 7558 -99 0
-7560 7559 100 0
-7560 -7559 -100 0
7560 -7559 100 0
7560 7559 -100 0
-7561 7560 101 0
-7561 -7560 -101 0
7561 -7560 101 0
7561 7560 -101 0
-7562 7561 102 0
-7562 -7561 -102 0
7562 -7561 102 0
7562 7561 -102 0
-7563 7562 103 0
-7563 -7562 -103 0
7563 -7562 103 0
7563 7562 -103 0
-7564 7563 106 0
-7564 -7563 -106 0
7564 -7563 106 0
7564 7563 -106 0
-7565 7564 107 0
-7565 -7564 -107 0
7565 -7564 107 0
7565 7564 -107 0
-7566 7565 108 0
-7566 -7565 -108 0
7566 -7565 108 0
7566 7565 -108 0
-7567 7566 111 0
-7567 -7566 -111 0
7567 -7566 111 0
7567 7566 -111 0
-7568 7567 112 0
-7568 -7567 -112 0
7568 -7567 112 0
7568 7567 -112 0
-7569 7568 113 0
-7569 -7568 -113 0
7569 -7568 113 0
7569 7568 -113 0
-7570 7569 114 0
-7570 -7569 -114 0
7570 -7569 114 0
7570 7569 -114 0
-7571 7570 115 0
-7571 -7570 -115 0
7571 -7570 115 0
7571 7570 -115 0
-7572 7571 121 0
-7572 -7571 -121 0
7572 -7571 121 0
7572 7571 -121 0
-7573 7572 123 0
-7573 -7572 -123 0
7573 -7572 123 0
7573 7572 -123 0
-7574 7573 124 0
-7574 -7573 -124 0
7574 -7573 124 0
7574 7573 -124 0
-7575 7574 126 0
-7575 -7574 -126 0
7575 -7574 126 0
7575 7574 -126 0
-7576 7575 127 0
-7576 -7575 -127 0
7576 -7575 127 0
7576 7575 -127 0
-7577 7576 130 0
-7577 -7576 -130 0
7577 -7576 130 0
7577 7576 -130 0
-7578 7577 131 0
-7578 -7577 -131 0
7578 -7577 131 0
7578 7577 -131 0
-7579 7578 133 0
-7579 -7578 -133 0
7579 -7578 133 0
7579 7578 -133 0
-7580 7579 135 0
-7580 -7579 -135 0
7580 -7579 135 0
7580 7579 -135 0
-7581 7580 137 0
-7581 -7580 -137 0
7581 -7580 137 0
7581 7580 -137 0
-7582 7581 138 0
-7582 -7581 -138 0
7582 -7581 138 0
7582 7581 -138 0
-7583 7582 140 0
-7583 -7582 -140 0
7583 -7582 140 0
7583 7582 -140 0
-7584 7583 143 0
-7584 -7583 -143 0
7584 -7583 143 0
7584 7583 -143 0
-7584 0
-7585 65 69 0
-7585 -65 -69 0
7585 -65 69 0
7585 65 -69 0
-7586 7585 70 0
-7586 -7585 -70 0
7586 -7585 70 0
7586 7585 -70 0
-7587 7586 74 0
-7587 -7586 -74 0
7587 -7586 74 0
7587 7586 -74 0
-7588 7587 76 0
-7588 -7587 -76 0
7588 -7587 76 0
7588 7587 -76 0
-7589 7588 77 0
-7589 -7588 -77 0
7589 -7588 77 0
7589 7588 -77 0
-7590 7589 78 0
-7590 -7589 -78 0
7590 -7589 78 0
7590 7589 -78 0
-7591 7590 79 0
-7591 -7590 -79 0
7591 -7590 79 0
7591 7590 -79 0
-7592 7591 81 0
-7592 -7591 -81 0
7592 -7591 81 0
7592 7591 -81 0
-7593 7592 85 0
-7593 -7592 -85 0
7593 -7592 85 0
7593 7592 -85 0
-7594 7593 92 0
-7594 -7593 -92 0
7594 -7593 92 0
7594 7593 -92 0
-7595 7594 93 0
-7595 -7594 -93 0
7595 -7594 93 0
7595 7594 -93 0
-7596 7595 95 0
-7596 -7595 -95 0
7596 -7595 95 0
7596 7595 -95 0
-7597 7596 96 0
-7597 -7596 -96 0
7597 -7596 96 0
7597 7596 -96 0
-7598 7597 98 0
-7598 -7597 -98 0
7598 -7597 98 0
7598 7597 -98 0
-7599 7598 103 0
-7599 -7598 -103 0
7599 -7598 103 0
7599 7598 -103 0
-7600 7599 106 0
-7600 -7599 -106 0
7600 -7599 106 0
7600 7599 -106 0
-7601 7600 107 0
-7601 -7600 -107 0
7601 -7600 107 0
7601 7600 -107 0
-7602 7601 111 0
-7602 -7601 -111 0
7602 -7601 111 0
7602 7601 -111 0
-7603 7602 112 0
-7603 -7602 -112 0
7603 -7602 112 0
7603 7602 -112 0
-7604 7603 114 0
-7604 -7603 -114 0
7604 -7603 114 0
7604 7603 -114 0
-7605 7604 118 0
-7605 -7604 -118 0
7605 -7604 118 0
7605 7604 -118 0
-7606 7605 120 0
-7606 -7605 -120 0
7606 -7605 120 0
7606 7605 -120 0
-7607 7606 123 0
-7607 -7606 -123 0
7607 -7606 123 0
7607 7606 -123 0
-7608 7607 126 0
-7608 -7607 -126 0
7608 -7607 126 0
7608 7607 -126 0
-7609 7608 127 0
-7609 -7608 -127 0
7609 -7608 127 0
7609 7608 -127 0
-7610 7609 129 0
-7610 -7609 -129 0
7610 -7609 129 0
7610 7609 -129 0
-7611 7610 130 0
-7611 -7610 -130 0
7611 -7610 130 0
7611 7610 -130 0
-7612 7611 133 0
-7612 -7611 -133 0
7612 -7611 133 0
7612 7611 -133 0
-7613 7612 140 0
-7613 -7612 -140 0
7613 -7612 140 0
7613 7612 -140 0
-7614 7613 141 0
-7614 -7613 -141 0
7614 -7613 141 0
7614 7613 -141 0
-7615 7614 142 0
-7615 -7614 -142 0
7615 -7614 142 0
7615 7614 -142 0
-7615 0
-7616 66 70 0
-7616 -66 -70 0
7616 -66 70 0
7616 66 -70 0
-7617 7616 71 0
-7617 -7616 -71 0
7617 -7616 71 0
7617 7616 -71 0
-7618 7617 73 0
-7618 -7617 -73 0
7618 -7617 73 0
7618 7617 -73 0
-7619 7618 75 0
-7619 -7618 -75 0
7619 -7618 75 0
7619 7618 -75 0
-7620 7619 77 0
-7620 -7619 -77 0
7620 -7619 77 0
7620 7619 -77 0
-7621 7620 78 0
-7621 -7620 -78 0
7621 -7620 78 0
7621 7620 -78 0
-7622 7621 80 0
-7622 -7621 -80 0
7622 -7621 80 0
7622 7621 -80 0
-7623 7622 82 0
-7623 -7622 -82 0
7623 -7622 82 0
7623 7622 -82 0
-7624 7623 86 0
-7624 -7623 -86 0
7624 -7623 86 0
7624 7623 -86 0
-7625 7624 91 0
-7625 -7624 -91 0
7625 -7624 91 0
7625 7624 -91 0
-7626 7625 93 0
-7626 -7625 -93 0
7626 -7625 93 0
7626 7625 -93 0
-7627 7626 94 0
-7627 -7626 -94 0
7627 -7626 94 0
7627 7626 -94 0
-7628 7627 96 0
-7628 -7627 -96 0
7628 -7627 96 0
7628 7627 -96 0
-7629 7628 99 0
-7629 -7628 -99 0
7629 -7628 99 0
7629 7628 -99 0
-7630 7629 104 0
-7630 -7629 -104 0
7630 -7629 104 0
7630 7629 -104 0
-7631 7630 107 0
-7631 -7630 -107 0
7631 -7630 107 0
7631 7630 -107 0
-7632 7631 108 0
-7632 -7631 -108 0
7632 -7631 108 0
7632 7631 -108 0
-7633 7632 109 0
-7633 -7632 -109 0
7633 -7632 109 0
7633 7632 -109 0
-7634 7633 112 0
-7634 -7633 -112 0
7634 -7633 112 0
7634 7633 -112 0
-7635 7634 113 0
-7635 -7634 -113 0
7635 -7634 113 0
7635 7634 -113 0
-7636 7635 115 0
-7636 -7635 -115 0
7636 -7635 115 0
7636 7635 -115 0
-7637 7636 119 0
-7637 -7636 -119 0
7637 -7636 119 0
7637 7636 -119 0
-7638 7637 121 0
-7638 -7637 -121 0
7638 -7637 121 0
7638 7637 -121 0
-7639 7638 124 0
-7639 -7638 -124 0
7639 -7638 124 0
7639 7638 -124 0
-7640 7639 128 0
-7640 -7639 -128 0
7640 -7639 128 0
7640 7639 -128 0
-7641 7640 130 0
-7641 -7640 -130 0
7641 -7640 130 0
7641 7640 -130 0
-7642 7641 131 0
-7642 -7641 -131 0
7642 -7641 131 0
7642 7641 -131 0
-7643 7642 134 0
-7643 -7642 -134 0
7643 -7642 134 0
7643 7642 -134 0
-7644 7643 141 0
-7644 -7643 -141 0
7644 -7643 141 0
7644 7643 -141 0
-7645 7644 142 0
-7645 -7644 -142 0
7645 -7644 142 0
7645 7644 -142 0
-7646 7645 143 0
-7646 -7645 -143 0
7646 -7645 143 0
7646 7645 -143 0
-7646 0
-7647 67 69 0
-7647 -67 -69 0
7647 -67 69 0
7647 67 -69 0
-7648 7647 71 0
-7648 -7647 -71 0
7648 -7647 71 0
7648 7647 -71 0
-7649 7648 74 0
-7649 -7648 -74 0
7649 -7648 74 0
7649 7648 -74 0
-7650 7649 76 0
-7650 -7649 -76 0
7650 -7649 76 0
7650 7649 -76 0
-7651 7650 78 0
-7651 -7650 -78 0
7651 -7650 78 0
7651 7650 -78 0
-7652 7651 91 0
-7652 -7651 -91 0
7652 -7651 91 0
7652 7651 -91 0
-7653 7652 93 0
-7653 -7652 -93 0
7653 -7652 93 0
7653 7652 -93 0
-7654 7653 95 0
-7654 -7653 -95 0
7654 -7653 95 0
7654 7653 -95 0
-7655 7654 97 0
-7655 -7654 -97 0
7655 -7654 97 0
7655 7654 -97 0
-7656 7655 98 0
-7656 -7655 -98 0
7656 -7655 98 0
7656 7655 -98 0
-7657 7656 99 0
-7657 -7656 -99 0
7657 -7656 99 0
7657 7656 -99 0
-7658 7657 100 0
-7658 -7657 -100 0
7658 -7657 100 0
7658 7657 -100 0
-7659 7658 101 0
-7659 -7658 -101 0
7659 -7658 101 0
7659 7658 -101 0
-7660 7659 102 0
-7660 -7659 -102 0
7660 -7659 102 0
7660 7659 -102 0
-7661 7660 104 0
-7661 -7660 -104 0
7661 -7660 104 0
7661 7660 -104 0
-7662 7661 106 0
-7662 -7661 -106 0
7662 -7661 106 0
7662 7661 -106 0
-7663 7662 108 0
-7663 -7662 -108 0
7663 -7662 108 0
7663 7662 -108 0
-7664 7663 109 0
-7664 -7663 -109 0
7664 -7663 109 0
7664 7663 -109 0
-7665 7664 111 0
-7665 -7664 -111 0
7665 -7664 111 0
7665 7664 -111 0
-7666 7665 113 0
-7666 -7665 -113 0
7666 -7665 113 0
7666 7665 -113 0
-7667 7666 116 0
-7667 -7666 -116 0
7667 -7666 116 0
7667 7666 -116 0
-7668 7667 118 0
-7668 -7667 -118 0
7668 -7667 118 0
7668 7667 -118 0
-7669 7668 120 0
-7669 -7668 -120 0
7669 -7668 120 0
7669 7668 -120 0
-7670 7669 121 0
-7670 -7669 -121 0
7670 -7669 121 0
7670 7669 -121 0
-7671 7670 122 0
-7671 -7670 -122 0
7671 -7670 122 0
7671 7670 -122 0
-7672 7671 123 0
-7672 -7671 -123 0
7672 -7671 123 0
7672 7671 -123 0
-7673 7672 124 0
-7673 -7672 -124 0
7673 -7672 124 0
7673 7672 -124 0
-7674 7673 125 0
-7674 -7673 -125 0
7674 -7673 125 0
7674 7673 -125 0
-7675 7674 126 0
-7675 -7674 -126 0
7675 -7674 126 0
7675 7674 -126 0
-7676 7675 127 0
-7676 -7675 -127 0
7676 -7675 127 0
7676 7675 -127 0
-7677 7676 128 0
-7677 -7676 -128 0
7677 -7676 128 0
7677 7676 -128 0
-7678 7677 129 0
-7678 -7677 -129 0
7678 -7677 129 0
7678 7677 -129 0
-7679 7678 130 0
-7679 -7678 -130 0
7679 -7678 130 0
7679 7678 -130 0
-7680 7679 131 0
-7680 -7679 -131 0
7680 -7679 131 0
7680 7679 -131 0
-7681 7680 132 0
-7681 -7680 -132 0
7681 -7680 132 0
7681 7680 -132 0
-7682 7681 134 0
-7682 -7681 -134 0
7682 -7681 134 0
7682 7681 -134 0
-7683 7682 136 0
-7683 -7682 -136 0
7683 -7682 136 0
7683 7682 -136 0
-7684 7683 138 0
-7684 -7683 -138 0
7684 -7683 138 0
7684 7683 -138 0
-7685 7684 140 0
-7685 -7684 -140 0
7685 -7684 140 0
7685 7684 -140 0
-7686 7685 142 0
-7686 -7685 -142 0
7686 -7685 142 0
7686 7685 -142 0
-7687 7686 144 0
-7687 -7686 -144 0
7687 -7686 144 0
7687 7686 -144 0
-7687 0
-7688 68 70 0
-7688 -68 -70 0
7688 -68 70 0
7688 68 -70 0
-7689 7688 72 0
-7689 -7688 -72 0
7689 -7688 72 0
7689 7688 -72 0
-7690 7689 73 0
-7690 -7689 -73 0
7690 -7689 73 0
7690 7689 -73 0
-7691 7690 75 0
-7691 -7690 -75 0
7691 -7690 75 0
7691 7690 -75 0
-7692 7691 77 0
-7692 -7691 -77 0
7692 -7691 77 0
7692 7691 -77 0
-7693 7692 92 0
-7693 -7692 -92 0
7693 -7692 92 0
7693 7692 -92 0
-7694 7693 94 0
-7694 -7693 -94 0
7694 -7693 94 0
7694 7693 -94 0
-7695 7694 96 0
-7695 -7694 -96 0
7695 -7694 96 0
7695 7694 -96 0
-7696 7695 97 0
-7696 -7695 -97 0
7696 -7695 97 0
7696 7695 -97 0
-7697 7696 98 0
-7697 -7696 -98 0
7697 -7696 98 0
7697 7696 -98 0
-7698 7697 99 0
-7698 -7697 -99 0
7698 -7697 99 0
7698 7697 -99 0
-7699 7698 100 0
-7699 -7698 -100 0
7699 -7698 100 0
7699 7698 -100 0
-7700 7699 101 0
-7700 -7699 -101 0
7700 -7699 101 0
7700 7699 -101 0
-7701 7700 102 0
-7701 -7700 -102 0
7701 -7700 102 0
7701 7700 -102 0
-7702 7701 103 0
-7702 -7701 -103 0
7702 -7701 103 0
7702 7701 -103 0
-7703 7702 105 0
-7703 -7702 -105 0
7703 -7702 105 0
7703 7702 -105 0
-7704 7703 107 0
-7704 -7703 -107 0
7704 -7703 107 0
7704 7703 -107 0
-7705 7704 110 0
-7705 -7704 -110 0
7705 -7704 110 0
7705 7704 -110 0
-7706 7705 112 0
-7706 -7705 -112 0
7706 -7705 112 0
7706 7705 -112 0
-7707 7706 114 0
-7707 -7706 -114 0
7707 -7706 114 0
7707 7706 -114 0
-7708 7707 115 0
-7708 -7707 -115 0
7708 -7707 115 0
7708 7707 -115 0
-7709 7708 117 0
-7709 -7708 -117 0
7709 -7708 117 0
7709 7708 -117 0
-7710 7709 119 0
-7710 -7709 -119 0
7710 -7709 119 0
7710 7709 -119 0
-7711 7710 121 0
-7711 -7710 -121 0
7711 -7710 121 0
7711 7710 -121 0
-7712 7711 122 0
-7712 -7711 -122 0
7712 -7711 122 0
7712 7711 -122 0
-7713 7712 123 0
-7713 -7712 -123 0
7713 -7712 123 0
7713 7712 -123 0
-7714 7713 124 0
-7714 -7713 -124 0
7714 -7713 124 0
7714 7713 -124 0
-7715 7714 125 0
-7715 -7714 -125 0
7715 -7714 125 0
7715 7714 -125 0
-7716 7715 126 0
-7716 -7715 -126 0
7716 -7715 126 0
7716 7715 -126 0
-7717 7716 127 0
-7717 -7716 -127 0
7717 -7716 127 0
7717 7716 -127 0
-7718 7717 128 0
-7718 -7717 -128 0
7718 -7717 128 0
7718 7717 -128 0
-7719 7718 129 0
-7719 -7718 -129 0
7719 -7718 129 0
7719 7718 -129 0
-7720 7719 130 0
-7720 -7719 -130 0
7720 -7719 130 0
7720 7719 -130 0
-7721 7720 131 0
-7721 -7720 -131 0
7721 -7720 131 0
7721 7720 -131 0
-7722 7721 132 0
-7722 -7721 -132 0
7722 -7721 132 0
7722 7721 -132 0
-7723 7722 133 0
-7723 -7722 -133 0
7723 -7722 133 0
7723 7722 -133 0
-7724 7723 135 0
-7724 -7723 -135 0
7724 -7723 135 0
7724 7723 -135 0
-7725 7724 137 0
-7725 -7724 -137 0
7725 -7724 137 0
7725 7724 -137 0
-7726 7725 139 0
-7726 -7725 -139 0
7726 -7725 139 0
7726 7725 -139 0
-7727 7726 141 0
-7727 -7726 -141 0
7727 -7726 141 0
7727 7726 -141 0
-7728 7727 143 0
-7728 -7727 -143 0
7728 -7727 143 0
7728 7727 -143 0
-7728 0
-7730 145 146 0
-7730 -145 -146 0
7730 -145 146 0
7730 145 -146 0
-7731 7730 148 0
-7731 -7730 -148 0
7731 -7730 148 0
7731 7730 -148 0
-7732 7731 149 0
-7732 -7731 -149 0
7732 -7731 149 0
7732 7731 -149 0
-7733 7732 151 0
-7733 -7732 -151 0
7733 -7732 151 0
7733 7732 -151 0
-7734 7733 152 0
-7734 -7733 -152 0
7734 -7733 152 0
7734 7733 -152 0
-7735 7734 154 0
-7735 -7734 -154 0
7735 -7734 154 0
7735 7734 -154 0
-7736 7735 155 0
-7736 -7735 -155 0
7736 -7735 155 0
7736 7735 -155 0
-7737 7736 157 0
-7737 -7736 -157 0
7737 -7736 157 0
7737 7736 -157 0
-7738 7737 158 0
-7738 -7737 -158 0
7738 -7737 158 0
7738 7737 -158 0
-7739 7738 160 0
-7739 -7738 -160 0
7739 -7738 160 0
7739 7738 -160 0
-7740 7739 161 0
-7740 -7739 -161 0
7740 -7739 161 0
7740 7739 -161 0
-7741 7740 163 0
-7741 -7740 -163 0
7741 -7740 163 0
7741 7740 -163 0
-7742 7741 164 0
-7742 -7741 -164 0
7742 -7741 164 0
7742 7741 -164 0
-7743 7742 166 0
-7743 -7742 -166 0
7743 -7742 166 0
7743 7742 -166 0
-7744 7743 167 0
-7744 -7743 -167 0
7744 -7743 167 0
7744 7743 -167 0
-7745 7744 169 0
-7745 -7744 -169 0
7745 -7744 169 0
7745 7744 -169 0
-7746 7745 170 0
-7746 -7745 -170 0
7746 -7745 170 0
7746 7745 -170 0
-7747 7746 172 0
-7747 -7746 -172 0
7747 -7746 172 0
7747 7746 -172 0
-7748 7747 173 0
-7748 -7747 -173 0
7748 -7747 173 0
7748 7747 -173 0
-7749 7748 175 0
-7749 -7748 -175 0
7749 -7748 175 0
7749 7748 -175 0
-7750 7749 176 0
-7750 -7749 -176 0
7750 -7749 176 0
7750 7749 -176 0
-7751 7750 178 0
-7751 -7750 -178 0
7751 -7750 178 0
7751 7750 -178 0
-7752 7751 179 0
-7752 -7751 -179 0
7752 -7751 179 0
7752 7751 -179 0
-7753 7752 181 0
-7753 -7752 -181 0
7753 -7752 181 0
7753 7752 -181 0
-7754 7753 182 0
-7754 -7753 -182 0
7754 -7753 182 0
7754 7753 -182 0
-7755 7754 184 0
-7755 -7754 -184 0
7755 -7754 184 0
7755 7754 -184 0
-7756 7755 185 0
-7756 -7755 -185 0
7756 -7755 185 0
7756 7755 -185 0
-7757 7756 187 0
-7757 -7756 -187 0
7757 -7756 187 0
7757 7756 -187 0
-7758 7757 188 0
-7758 -7757 -188 0
7758 -7757 188 0
7758 7757 -188 0
-7759 7758 190 0
-7759 -7758 -190 0
7759 -7758 190 0
7759 7758 -190 0
-7760 7759 191 0
-7760 -7759 -191 0
7760 -7759 191 0
7760 7759 -191 0
-7761 7760 193 0
-7761 -7760 -193 0
7761 -7760 193 0
7761 7760 -193 0
-7762 7761 194 0
-7762 -7761 -194 0
7762 -7761 194 0
7762 7761 -194 0
-7763 7762 196 0
-7763 -7762 -196 0
7763 -7762 196 0
7763 7762 -196 0
-7764 7763 197 0
-7764 -7763 -197 0
7764 -7763 197 0
7764 7763 -197 0
-7765 7764 199 0
-7765 -7764 -199 0
7765 -7764 199 0
7765 7764 -199 0
-7766 7765 200 0
-7766 -7765 -200 0
7766 -7765 200 0
7766 7765 -200 0
-7767 7766 202 0
-7767 -7766 -202 0
7767 -7766 202 0
7767 7766 -202 0
-7768 7767 203 0
-7768 -7767 -203 0
7768 -7767 203 0
7768 7767 -203 0
-7769 7768 205 0
-7769 -7768 -205 0
7769 -7768 205 0
7769 7768 -205 0
-7770 7769 206 0
-7770 -7769 -206 0
7770 -7769 206 0
7770 7769 -206 0
-7771 7770 208 0
-7771 -7770 -208 0
7771 -7770 208 0
7771 7770 -208 0
-7772 7771 209 0
-7772 -7771 -209 0
7772 -7771 209 0
7772 7771 -209 0
-7773 7772 211 0
-7773 -7772 -211 0
7773 -7772 211 0
7773 7772 -211 0
-7774 7773 212 0
-7774 -7773 -212 0
7774 -7773 212 0
7774 7773 -212 0
-7775 7774 214 0
-7775 -7774 -214 0
7775 -7774 214 0
7775 7774 -214 0
-7776 7775 215 0
-7776 -7775 -215 0
7776 -7775 215 0
7776 7775 -215 0
-7729 7776 0
7729 -7776 0
-7778 145 147 0
-7778 -145 -147 0
7778 -145 147 0
7778 145 -147 0
-7779 7778 148 0
-7779 -7778 -148 0
7779 -7778 148 0
7779 7778 -148 0
-7780 7779 150 0
-7780 -7779 -150 0
7780 -7779 150 0
7780 7779 -150 0
-7781 7780 151 0
-7781 -7780 -151 0
7781 -7780 151 0
7781 7780 -151 0
-7782 7781 153 0
-7782 -7781 -153 0
7782 -7781 153 0
7782 7781 -153 0
-7783 7782 154 0
-7783 -7782 -154 0
7783 -7782 154 0
7783 7782 -154 0
-7784 7783 156 0
-7784 -7783 -156 0
7784 -7783 156 0
7784 7783 -156 0
-7785 7784 157 0
-7785 -7784 -157 0
7785 -7784 157 0
7785 7784 -157 0
-7786 7785 159 0
-7786 -7785 -159 0
7786 -7785 159 0
7786 7785 -159 0
-7787 7786 160 0
-7787 -7786 -160 0
7787 -7786 160 0
7787 7786 -160 0
-7788 7787 162 0
-7788 -7787 -162 0
7788 -7787 162 0
7788 7787 -162 0
-7789 7788 163 0
-7789 -7788 -163 0
7789 -7788 163 0
7789 7788 -163 0
-7790 7789 165 0
-7790 -7789 -165 0
7790 -7789 165 0
7790 7789 -165 0
-7791 7790 166 0
-7791 -7790 -166 0
7791 -7790 166 0
7791 7790 -166 0
-7792 7791 168 0
-7792 -7791 -168 0
7792 -7791 168 0
7792 7791 -168 0
-7793 7792 169 0
-7793 -7792 -169 0
7793 -7792 169 0
7793 7792 -169 0
-7794 7793 171 0
-7794 -7793 -171 0
7794 -7793 171 0
7794 7793 -171 0
-7795 7794 172 0
-7795 -7794 -172 0
7795 -7794 172 0
7795 7794 -172 0
-7796 7795 174 0
-7796 -7795 -174 0
7796 -7795 174 0
7796 7795 -174 0
-7797 7796 175 0
-7797 -7796 -175 0
7797 -7796 175 0
7797 7796 -175 0
-7798 7797 177 0
-7798 -7797 -177 0
7798 -7797 177 0
7798 7797 -177 0
-7799 7798 178 0
-7799 -7798 -178 0
7799 -7798 178 0
7799 7798 -178 0
-7800 7799 180 0
-7800 -7799 -180 0
7800 -7799 180 0
7800 7799 -180 0
-7801 7800 181 0
-7801 -7800 -181 0
7801 -7800 181 0
7801 7800 -181 0
-7802 7801 183 0
-7802 -7801 -183 0
7802 -7801 183 0
7802 7801 -183 0
-7803 7802 184 0
-7803 -7802 -184 0
7803 -7802 184 0
7803 7802 -184 0
-7804 7803 186 0
-7804 -7803 -186 0
7804 -7803 186 0
7804 7803 -186 0
-7805 7804 187 0
-7805 -7804 -187 0
7805 -7804 187 0
7805 7804 -187 0
-7806 7805 189 0
-7806 -7805 -189 0
7806 -7805 189 0
7806 7805 -189 0
-7807 7806 190 0
-7807 -7806 -190 0
7807 -7806 190 0
7807 7806 -190 0
-7808 7807 192 0
-7808 -7807 -192 0
7808 -7807 192 0
7808 7807 -192 0
-7809 7808 193 0
-7809 -7808 -193 0
7809 -7808 193 0
7809 7808 -193 0
-7810 7809 195 0
-7810 -7809 -195 0
7810 -7809 195 0
7810 7809 -195 0
-7811 7810 196 0
-7811 -7810 -196 0
7811 -7810 196 0
7811 7810 -196 0
-7812 7811 198 0
-7812 -7811 -198 0
7812 -7811 198 0
7812 7811 -198 0
-7813 7812 199 0
-7813 -7812 -199 0
7813 -7812 199 0
7813 7812 -199 0
-7814 7813 201 0
-7814 -7813 -201 0
7814 -7813 201 0
7814 7813 -201 0
-7815 7814 202 0
-7815 -7814 -202 0
7815 -7814 202 0
7815 7814 -202 0
-7816 7815 204 0
-7816 -7815 -204 0
7816 -7815 204 0
7816 7815 -204 0
-7817 7816 205 0
-7817 -7816 -205 0
7817 -7816 205 0
7817 7816 -205 0
-7818 7817 207 0
-7818 -7817 -207 0
7818 -7817 207 0
7818 7817 -207 0
-7819 7818 208 0
-7819 -7818 -208 0
7819 -7818 208 0
7819 7818 -208 0
-7820 7819 210 0
-7820 -7819 -210 0
7820 -7819 210 0
7820 7819 -210 0
-7821 7820 211 0
-7821 -7820 -211 0
7821 -7820 211 0
7821 7820 -211 0
-7822 7821 213 0
-7822 -7821 -213 0
7822 -7821 213 0
7822 7821 -213 0
-7823 7822 214 0
-7823 -7822 -214 0
7823 -7822 214 0
7823 7822 -214 0
-7824 7823 216 0
-7824 -7823 -216 0
7824 -7823 216 0
7824 7823 -216 0
-7777 7824 0
7777 -7824 0
-7826 145 148 0
-7826 -145 -148 0
7826 -145 148 0
7826 145 -148 0
-7827 7826 149 0
-7827 -7826 -149 0
7827 -7826 149 0
7827 7826 -149 0
-7828 7827 150 0
-7828 -7827 -150 0
7828 -7827 150 0
7828 7827 -150 0
-7829 7828 151 0
-7829 -7828 -151 0
7829 -7828 151 0
7829 7828 -151 0
-7830 7829 154 0
-7830 -7829 -154 0
7830 -7829 154 0
7830 7829 -154 0
-7831 7830 155 0
-7831 -7830 -155 0
7831 -7830 155 0
7831 7830 -155 0
-7832 7831 156 0
-7832 -7831 -156 0
7832 -7831 156 0
7832 7831 -156 0
-7833 7832 157 0
-7833 -7832 -157 0
7833 -7832 157 0
7833 7832 -157 0
-7834 7833 158 0
-7834 -7833 -158 0
7834 -7833 158 0
7834 7833 -158 0
-7835 7834 159 0
-7835 -7834 -159 0
7835 -7834 159 0
7835 7834 -159 0
-7836 7835 160 0
-7836 -7835 -160 0
7836 -7835 160 0
7836 7835 -160 0
-7837 7836 163 0
-7837 -7836 -163 0
7837 -7836 163 0
7837 7836 -163 0
-7838 7837 164 0
-7838 -7837 -164 0
7838 -7837 164 0
7838 7837 -164 0
-7839 7838 165 0
-7839 -7838 -165 0
7839 -7838 165 0
7839 7838 -165 0
-7840 7839 166 0
-7840 -7839 -166 0
7840 -7839 166 0
7840 7839 -166 0
-7841 7840 169 0
-7841 -7840 -169 0
7841 -7840 169 0
7841 7840 -169 0
-7842 7841 172 0
-7842 -7841 -172 0
7842 -7841 172 0
7842 7841 -172 0
-7843 7842 173 0
-7843 -7842 -173 0
7843 -7842 173 0
7843 7842 -173 0
-7844 7843 174 0
-7844 -7843 -174 0
7844 -7843 174 0
7844 7843 -174 0
-7845 7844 175 0
-7845 -7844 -175 0
7845 -7844 175 0
7845 7844 -175 0
-7846 7845 178 0
-7846 -7845 -178 0
7846 -7845 178 0
7846 7845 -178 0
-7847 7846 179 0
-7847 -7846 -179 0
7847 -7846 179 0
7847 7846 -179 0
-7848 7847 180 0
-7848 -7847 -180 0
7848 -7847 180 0
7848 7847 -180 0
-7849 7848 181 0
-7849 -7848 -181 0
7849 -7848 181 0
7849 7848 -181 0
-7850 7849 182 0
-7850 -7849 -182 0
7850 -7849 182 0
7850 7849 -182 0
-7851 7850 183 0
-7851 -7850 -183 0
7851 -7850 183 0
7851 7850 -183 0
-7852 7851 184 0
-7852 -7851 -184 0
7852 -7851 184 0
7852 7851 -184 0
-7853 7852 187 0
-7853 -7852 -187 0
7853 -7852 187 0
7853 7852 -187 0
-7854 7853 188 0
-7854 -7853 -188 0
7854 -7853 188 0
7854 7853 -188 0
-7855 7854 189 0
-7855 -7854 -189 0
7855 -7854 189 0
7855 7854 -189 0
-7856 7855 190 0
-7856 -7855 -190 0
7856 -7855 190 0
7856 7855 -190 0
-7857 7856 193 0
-7857 -7856 -193 0
7857 -7856 193 0
7857 7856 -193 0
-7858 7857 196 0
-7858 -7857 -196 0
7858 -7857 196 0
7858 7857 -196 0
-7859 7858 197 0
-7859 -7858 -197 0
7859 -7858 197 0
7859 7858 -197 0
-7860 7859 198 0
-7860 -7859 -198 0
7860 -7859 198 0
7860 7859 -198 0
-7861 7860 199 0
-7861 -7860 -199 0
7861 -7860 199 0
7861 7860 -199 0
-7862 7861 202 0
-7862 -7861 -202 0
7862 -7861 202 0
7862 7861 -202 0
-7863 7862 203 0
-7863 -7862 -203 0
7863 -7862 203 0
7863 7862 -203 0
-7864 7863 204 0
-7864 -7863 -204 0
7864 -7863 204 0
7864 7863 -204 0
-7865 7864 205 0
-7865 -7864 -205 0
7865 -7864 205 0
7865 7864 -205 0
-7866 7865 206 0
-7866 -7865 -206 0
7866 -7865 206 0
7866 7865 -206 0
-7867 7866 207 0
-7867 -7866 -207 0
7867 -7866 207 0
7867 7866 -207 0
-7868 7867 208 0
-7868 -7867 -208 0
7868 -7867 208 0
7868 7867 -208 0
-7869 7868 211 0
-7869 -7868 -211 0
7869 -7868 211 0
7869 7868 -211 0
-7870 7869 212 0
-7870 -7869 -212 0
7870 -7869 212 0
7870 7869 -212 0
-7871 7870 213 0
-7871 -7870 -213 0
7871 -7870 213 0
7871 7870 -213 0
-7872 7871 214 0
-7872 -7871 -214 0
7872 -7871 214 0
7872 7871 -214 0
-7873 7872 217 0
-7873 -7872 -217 0
7873 -7872 217 0
7873 7872 -217 0
-7874 7873 218 0
-7874 -7873 -218 0
7874 -7873 218 0
7874 7873 -218 0
-7875 7874 220 0
-7875 -7874 -220 0
7875 -7874 220 0
7875 7874 -220 0
-7876 7875 221 0
-7876 -7875 -221 0
7876 -7875 221 0
7876 7875 -221 0
-7877 7876 223 0
-7877 -7876 -223 0
7877 -7876 223 0
7877 7876 -223 0
-7878 7877 224 0
-7878 -7877 -224 0
7878 -7877 224 0
7878 7877 -224 0
-7879 7878 226 0
-7879 -7878 -226 0
7879 -7878 226 0
7879 7878 -226 0
-7880 7879 227 0
-7880 -7879 -227 0
7880 -7879 227 0
7880 7879 -227 0
-7881 7880 241 0
-7881 -7880 -241 0
7881 -7880 241 0
7881 7880 -241 0
-7882 7881 242 0
-7882 -7881 -242 0
7882 -7881 242 0
7882 7881 -242 0
-7883 7882 244 0
-7883 -7882 -244 0
7883 -7882 244 0
7883 7882 -244 0
-7884 7883 245 0
-7884 -7883 -245 0
7884 -7883 245 0
7884 7883 -245 0
-7885 7884 247 0
-7885 -7884 -247 0
7885 -7884 247 0
7885 7884 -247 0
-7886 7885 248 0
-7886 -7885 -248 0
7886 -7885 248 0
7886 7885 -248 0
-7887 7886 250 0
-7887 -7886 -250 0
7887 -7886 250 0
7887 7886 -250 0
-7888 7887 251 0
-7888 -7887 -251 0
7888 -7887 251 0
7888 7887 -251 0
-7889 7888 265 0
-7889 -7888 -265 0
7889 -7888 265 0
7889 7888 -265 0
-7890 7889 266 0
-7890 -7889 -266 0
7890 -7889 266 0
7890 7889 -266 0
-7891 7890 268 0
-7891 -7890 -268 0
7891 -7890 268 0
7891 7890 -268 0
-7892 7891 269 0
-7892 -7891 -269 0
7892 -7891 269 0
7892 7891 -269 0
-7893 7892 271 0
-7893 -7892 -271 0
7893 -7892 271 0
7893 7892 -271 0
-7894 7893 272 0
-7894 -7893 -272 0
7894 -7893 272 0
7894 7893 -272 0
-7895 7894 274 0
-7895 -7894 -274 0
7895 -7894 274 0
7895 7894 -274 0
-7896 7895 275 0
-7896 -7895 -275 0
7896 -7895 275 0
7896 7895 -275 0
-7825 7896 0
7825 -7896 0
-7898 145 149 0
-7898 -145 -149 0
7898 -145 149 0
7898 145 -149 0
-7899 7898 151 0
-7899 -7898 -151 0
7899 -7898 151 0
7899 7898 -151 0
-7900 7899 155 0
-7900 -7899 -155 0
7900 -7899 155 0
7900 7899 -155 0
-7901 7900 158 0
-7901 -7900 -158 0
7901 -7900 158 0
7901 7900 -158 0
-7902 7901 160 0
-7902 -7901 -160 0
7902 -7901 160 0
7902 7901 -160 0
-7903 7902 164 0
-7903 -7902 -164 0
7903 -7902 164 0
7903 7902 -164 0
-7904 7903 166 0
-7904 -7903 -166 0
7904 -7903 166 0
7904 7903 -166 0
-7905 7904 169 0
-7905 -7904 -169 0
7905 -7904 169 0
7905 7904 -169 0
-7906 7905 173 0
-7906 -7905 -173 0
7906 -7905 173 0
7906 7905 -173 0
-7907 7906 175 0
-7907 -7906 -175 0
7907 -7906 175 0
7907 7906 -175 0
-7908 7907 179 0
-7908 -7907 -179 0
7908 -7907 179 0
7908 7907 -179 0
-7909 7908 182 0
-7909 -7908 -182 0
7909 -7908 182 0
7909 7908 -182 0
-7910 7909 184 0
-7910 -7909 -184 0
7910 -7909 184 0
7910 7909 -184 0
-7911 7910 188 0
-7911 -7910 -188 0
7911 -7910 188 0
7911 7910 -188 0
-7912 7911 190 0
-7912 -7911 -190 0
7912 -7911 190 0
7912 7911 -190 0
-7913 7912 193 0
-7913 -7912 -193 0
7913 -7912 193 0
7913 7912 -193 0
-7914 7913 197 0
-7914 -7913 -197 0
7914 -7913 197 0
7914 7913 -197 0
-7915 7914 199 0
-7915 -7914 -199 0
7915 -7914 199 0
7915 7914 -199 0
-7916 7915 203 0
-7916 -7915 -203 0
7916 -7915 203 0
7916 7915 -203 0
-7917 7916 206 0
-7917 -7916 -206 0
7917 -7916 206 0
7917 7916 -206 0
-7918 7917 208 0
-7918 -7917 -208 0
7918 -7917 208 0
7918 7917 -208 0
-7919 7918 212 0
-7919 -7918 -212 0
7919 -7918 212 0
7919 7918 -212 0
-7920 7919 214 0
-7920 -7919 -214 0
7920 -7919 214 0
7920 7919 -214 0
-7921 7920 217 0
-7921 -7920 -217 0
7921 -7920 217 0
7921 7920 -217 0
-7922 7921 219 0
-7922 -7921 -219 0
7922 -7921 219 0
7922 7921 -219 0
-7923 7922 220 0
-7923 -7922 -220 0
7923 -7922 220 0
7923 7922 -220 0
-7924 7923 222 0
-7924 -7923 -222 0
7924 -7923 222 0
7924 7923 -222 0
-7925 7924 223 0
-7925 -7924 -223 0
7925 -7924 223 0
7925 7924 -223 0
-7926 7925 225 0
-7926 -7925 -225 0
7926 -7925 225 0
7926 7925 -225 0
-7927 7926 226 0
-7927 -7926 -226 0
7927 -7926 226 0
7927 7926 -226 0
-7928 7927 228 0
-7928 -7927 -228 0
7928 -7927 228 0
7928 7927 -228 0
-7929 7928 241 0
-7929 -7928 -241 0
7929 -7928 241 0
7929 7928 -241 0
-7930 7929 243 0
-7930 -7929 -243 0
7930 -7929 243 0
7930 7929 -243 0
-7931 7930 244 0
-7931 -7930 -244 0
7931 -7930 244 0
7931 7930 -244 0
-7932 7931 246 0
-7932 -7931 -246 0
7932 -7931 246 0
7932 7931 -246 0
-7933 7932 247 0
-7933 -7932 -247 0
7933 -7932 247 0
7933 7932 -247 0
-7934 7933 249 0
-7934 -7933 -249 0
7934 -7933 249 0
7934 7933 -249 0
-7935 7934 250 0
-7935 -7934 -250 0
7935 -7934 250 0
7935 7934 -250 0
-7936 7935 252 0
-7936 -7935 -252 0
7936 -7935 252 0
7936 7935 -252 0
-7937 7936 265 0
-7937 -7936 -265 0
7937 -7936 265 0
7937 7936 -265 0
-7938 7937 267 0
-7938 -7937 -267 0
7938 -7937 267 0
7938 7937 -267 0
-7939 7938 268 0
-7939 -7938 -268 0
7939 -7938 268 0
7939 7938 -268 0
-7940 7939 270 0
-7940 -7939 -270 0
7940 -7939 270 0
7940 7939 -270 0
-7941 7940 271 0
-7941 -7940 -271 0
7941 -7940 271 0
7941 7940 -271 0
-7942 7941 273 0
-7942 -7941 -273 0
7942 -7941 273 0
7942 7941 -273 0
-7943 7942 274 0
-7943 -7942 -274 0
7943 -7942 274 0
7943 7942 -274 0
-7944 7943 276 0
-7944 -7943 -276 0
7944 -7943 276 0
7944 7943 -276 0
-7897 7944 0
7897 -7944 0
-7946 145 146 0
-7946 -145 -146 0
7946 -145 146 0
7946 145 -146 0
-7947 7946 148 0
-7947 -7946 -148 0
7947 -7946 148 0
7947 7946 -148 0
-7948 7947 149 0
-7948 -7947 -149 0
7948 -7947 149 0
7948 7947 -149 0
-7949 7948 151 0
-7949 -7948 -151 0
7949 -7948 151 0
7949 7948 -151 0
-7950 7949 152 0
-7950 -7949 -152 0
7950 -7949 152 0
7950 7949 -152 0
-7951 7950 154 0
-7951 -7950 -154 0
7951 -7950 154 0
7951 7950 -154 0
-7952 7951 157 0
-7952 -7951 -157 0
7952 -7951 157 0
7952 7951 -157 0
-7953 7952 158 0
-7953 -7952 -158 0
7953 -7952 158 0
7953 7952 -158 0
-7954 7953 160 0
-7954 -7953 -160 0
7954 -7953 160 0
7954 7953 -160 0
-7955 7954 161 0
-7955 -7954 -161 0
7955 -7954 161 0
7955 7954 -161 0
-7956 7955 163 0
-7956 -7955 -163 0
7956 -7955 163 0
7956 7955 -163 0
-7957 7956 164 0
-7957 -7956 -164 0
7957 -7956 164 0
7957 7956 -164 0
-7958 7957 166 0
-7958 -7957 -166 0
7958 -7957 166 0
7958 7957 -166 0
-7959 7958 169 0
-7959 -7958 -169 0
7959 -7958 169 0
7959 7958 -169 0
-7960 7959 170 0
-7960 -7959 -170 0
7960 -7959 170 0
7960 7959 -170 0
-7961 7960 172 0
-7961 -7960 -172 0
7961 -7960 172 0
7961 7960 -172 0
-7962 7961 173 0
-7962 -7961 -173 0
7962 -7961 173 0
7962 7961 -173 0
-7963 7962 175 0
-7963 -7962 -175 0
7963 -7962 175 0
7963 7962 -175 0
-7964 7963 176 0
-7964 -7963 -176 0
7964 -7963 176 0
7964 7963 -176 0
-7965 7964 178 0
-7965 -7964 -178 0
7965 -7964 178 0
7965 7964 -178 0
-7966 7965 181 0
-7966 -7965 -181 0
7966 -7965 181 0
7966 7965 -181 0
-7967 7966 182 0
-7967 -7966 -182 0
7967 -7966 182 0
7967 7966 -182 0
-7968 7967 184 0
-7968 -7967 -184 0
7968 -7967 184 0
7968 7967 -184 0
-7969 7968 185 0
-7969 -7968 -185 0
7969 -7968 185 0
7969 7968 -185 0
-7970 7969 187 0
-7970 -7969 -187 0
7970 -7969 187 0
7970 7969 -187 0
-7971 7970 188 0
-7971 -7970 -188 0
7971 -7970 188 0
7971 7970 -188 0
-7972 7971 190 0
-7972 -7971 -190 0
7972 -7971 190 0
7972 7971 -190 0
-7973 7972 193 0
-7973 -7972 -193 0
7973 -7972 193 0
7973 7972 -193 0
-7974 7973 194 0
-7974 -7973 -194 0
7974 -7973 194 0
7974 7973 -194 0
-7975 7974 196 0
-7975 -7974 -196 0
7975 -7974 196 0
7975 7974 -196 0
-7976 7975 197 0
-7976 -7975 -197 0
7976 -7975 197 0
7976 7975 -197 0
-7977 7976 199 0
-7977 -7976 -199 0
7977 -7976 199 0
7977 7976 -199 0
-7978 7977 200 0
-7978 -7977 -200 0
7978 -7977 200 0
7978 7977 -200 0
-7979 7978 202 0
-7979 -7978 -202 0
7979 -7978 202 0
7979 7978 -202 0
-7980 7979 205 0
-7980 -7979 -205 0
7980 -7979 205 0
7980 7979 -205 0
-7981 7980 206 0
-7981 -7980 -206 0
7981 -7980 206 0
7981 7980 -206 0
-7982 7981 208 0
-7982 -7981 -208 0
7982 -7981 208 0
7982 7981 -208 0
-7983 7982 209 0
-7983 -7982 -209 0
7983 -7982 209 0
7983 7982 -209 0
-7984 7983 211 0
-7984 -7983 -211 0
7984 -7983 211 0
7984 7983 -211 0
-7985 7984 212 0
-7985 -7984 -212 0
7985 -7984 212 0
7985 7984 -212 0
-7986 7985 214 0
-7986 -7985 -214 0
7986 -7985 214 0
7986 7985 -214 0
-7987 7986 217 0
-7987 -7986 -217 0
7987 -7986 217 0
7987 7986 -217 0
-7988 7987 229 0
-7988 -7987 -229 0
7988 -7987 229 0
7988 7987 -229 0
-7989 7988 241 0
-7989 -7988 -241 0
7989 -7988 241 0
7989 7988 -241 0
-7990 7989 253 0
-7990 -7989 -253 0
7990 -7989 253 0
7990 7989 -253 0
-7991 7990 265 0
-7991 -7990 -265 0
7991 -7990 265 0
7991 7990 -265 0
-7992 7991 277 0
-7992 -7991 -277 0
7992 -7991 277 0
7992 7991 -277 0
-7945 7992 0
7945 -7992 0
-7994 145 147 0
-7994 -145 -147 0
7994 -145 147 0
7994 145 -147 0
-7995 7994 148 0
-7995 -7994 -148 0
7995 -7994 148 0
7995 7994 -148 0
-7996 7995 150 0
-7996 -7995 -150 0
7996 -7995 150 0
7996 7995 -150 0
-7997 7996 151 0
-7997 -7996 -151 0
7997 -7996 151 0
7997 7996 -151 0
-7998 7997 153 0
-7998 -7997 -153 0
7998 -7997 153 0
7998 7997 -153 0
-7999 7998 154 0
-7999 -7998 -154 0
7999 -7998 154 0
7999 7998 -154 0
-8000 7999 157 0
-8000 -7999 -157 0
8000 -7999 157 0
8000 7999 -157 0
-8001 8000 159 0
-8001 -8000 -159 0
8001 -8000 159 0
8001 8000 -159 0
-8002 8001 160 0
-8002 -8001 -160 0
8002 -8001 160 0
8002 8001 -160 0
-8003 8002 162 0
-8003 -8002 -162 0
8003 -8002 162 0
8003 8002 -162 0
-8004 8003 163 0
-8004 -8003 -163 0
8004 -8003 163 0
8004 8003 -163 0
-8005 8004 165 0
-8005 -8004 -165 0
8005 -8004 165 0
8005 8004 -165 0
-8006 8005 166 0
-8006 -8005 -166 0
8006 -8005 166 0
8006 8005 -166 0
-8007 8006 169 0
-8007 -8006 -169 0
8007 -8006 169 0
8007 8006 -169 0
-8008 8007 171 0
-8008 -8007 -171 0
8008 -8007 171 0
8008 8007 -171 0
-8009 8008 172 0
-8009 -8008 -172 0
8009 -8008 172 0
8009 8008 -172 0
-8010 8009 174 0
-8010 -8009 -174 0
8010 -8009 174 0
8010 8009 -174 0
-8011 8010 175 0
-8011 -8010 -175 0
8011 -8010 175 0
8011 8010 -175 0
-8012 8011 177 0
-8012 -8011 -177 0
8012 -8011 177 0
8012 8011 -177 0
-8013 8012 178 0
-8013 -8012 -178 0
8013 -8012 178 0
8013 8012 -178 0
-8014 8013 181 0
-8014 -8013 -181 0
8014 -8013 181 0
8014 8013 -181 0
-8015 8014 183 0
-8015 -8014 -183 0
8015 -8014 183 0
8015 8014 -183 0
-8016 8015 184 0
-8016 -8015 -184 0
8016 -8015 184 0
8016 8015 -184 0
-8017 8016 186 0
-8017 -8016 -186 0
8017 -8016 186 0
8017 8016 -186 0
-8018 8017 187 0
-8018 -8017 -187 0
8018 -8017 187 0
8018 8017 -187 0
-8019 8018 189 0
-8019 -8018 -189 0
8019 -8018 189 0
8019 8018 -189 0
-8020 8019 190 0
-8020 -8019 -190 0
8020 -8019 190 0
8020 8019 -190 0
-8021 8020 193 0
-8021 -8020 -193 0
8021 -8020 193 0
8021 8020 -193 0
-8022 8021 195 0
-8022 -8021 -195 0
8022 -8021 195 0
8022 8021 -195 0
-8023 8022 196 0
-8023 -8022 -196 0
8023 -8022 196 0
8023 8022 -196 0
-8024 8023 198 0
-8024 -8023 -198 0
8024 -8023 198 0
8024 8023 -198 0
-8025 8024 199 0
-8025 -8024 -199 0
8025 -8024 199 0
8025 8024 -199 0
-8026 8025 201 0
-8026 -8025 -201 0
8026 -8025 201 0
8026 8025 -201 0
-8027 8026 202 0
-8027 -8026 -202 0
8027 -8026 202 0
8027 8026 -202 0
-8028 8027 205 0
-8028 -8027 -205 0
8028 -8027 205 0
8028 8027 -205 0
-8029 8028 207 0
-8029 -8028 -207 0
8029 -8028 207 0
8029 8028 -207 0
-8030 8029 208 0
-8030 -8029 -208 0
8030 -8029 208 0
8030 8029 -208 0
-8031 8030 210 0
-8031 -8030 -210 0
8031 -8030 210 0
8031 8030 -210 0
-8032 8031 211 0
-8032 -8031 -211 0
8032 -8031 211 0
8032 8031 -211 0
-8033 8032 213 0
-8033 -8032 -213 0
8033 -8032 213 0
8033 8032 -213 0
-8034 8033 214 0
-8034 -8033 -214 0
8034 -8033 214 0
8034 8033 -214 0
-8035 8034 218 0
-8035 -8034 -218 0
8035 -8034 218 0
8035 8034 -218 0
-8036 8035 230 0
-8036 -8035 -230 0
8036 -8035 230 0
8036 8035 -230 0
-8037 8036 242 0
-8037 -8036 -242 0
8037 -8036 242 0
8037 8036 -242 0
-8038 8037 254 0
-8038 -8037 -254 0
8038 -8037 254 0
8038 8037 -254 0
-8039 8038 266 0
-8039 -8038 -266 0
8039 -8038 266 0
8039 8038 -266 0
-8040 8039 278 0
-8040 -8039 -278 0
8040 -8039 278 0
8040 8039 -278 0
-7993 8040 0
7993 -8040 0
-8042 151 163 0
-8042 -151 -163 0
8042 -151 163 0
8042 151 -163 0
-8043 8042 175 0
-8043 -8042 -175 0
8043 -8042 175 0
8043 8042 -175 0
-8044 8043 187 0
-8044 -8043 -187 0
8044 -8043 187 0
8044 8043 -187 0
-8045 8044 199 0
-8045 -8044 -199 0
8045 -8044 199 0
8045 8044 -199 0
-8046 8045 211 0
-8046 -8045 -211 0
8046 -8045 211 0
8046 8045 -211 0
-8047 8046 219 0
-8047 -8046 -219 0
8047 -8046 219 0
8047 8046 -219 0
-8048 8047 231 0
-8048 -8047 -231 0
8048 -8047 231 0
8048 8047 -231 0
-8049 8048 243 0
-8049 -8048 -243 0
8049 -8048 243 0
8049 8048 -243 0
-8050 8049 255 0
-8050 -8049 -255 0
8050 -8049 255 0
8050 8049 -255 0
-8051 8050 267 0
-8051 -8050 -267 0
8051 -8050 267 0
8051 8050 -267 0
-8052 8051 279 0
-8052 -8051 -279 0
8052 -8051 279 0
8052 8051 -279 0
-8041 8052 0
8041 -8052 0
-8054 152 164 0
-8054 -152 -164 0
8054 -152 164 0
8054 152 -164 0
-8055 8054 176 0
-8055 -8054 -176 0
8055 -8054 176 0
8055 8054 -176 0
-8056 8055 188 0
-8056 -8055 -188 0
8056 -8055 188 0
8056 8055 -188 0
-8057 8056 200 0
-8057 -8056 -200 0
8057 -8056 200 0
8057 8056 -200 0
-8058 8057 212 0
-8058 -8057 -212 0
8058 -8057 212 0
8058 8057 -212 0
-8059 8058 220 0
-8059 -8058 -220 0
8059 -8058 220 0
8059 8058 -220 0
-8060 8059 232 0
-8060 -8059 -232 0
8060 -8059 232 0
8060 8059 -232 0
-8061 8060 244 0
-8061 -8060 -244 0
8061 -8060 244 0
8061 8060 -244 0
-8062 8061 256 0
-8062 -8061 -256 0
8062 -8061 256 0
8062 8061 -256 0
-8063 8062 268 0
-8063 -8062 -268 0
8063 -8062 268 0
8063 8062 -268 0
-8064 8063 280 0
-8064 -8063 -280 0
8064 -8063 280 0
8064 8063 -280 0
-8053 8064 0
8053 -8064 0
-8066 1 3 0
-8066 -1 -3 0
8066 -1 3 0
8066 1 -3 0
-8067 8066 7 0
-8067 -8066 -7 0
8067 -8066 7 0
8067 8066 -7 0
-8068 8067 9 0
-8068 -8067 -9 0
8068 -8067 9 0
8068 8067 -9 0
-8069 8068 146 0
-8069 -8068 -146 0
8069 -8068 146 0
8069 8068 -146 0
-8070 8069 147 0
-8070 -8069 -147 0
8070 -8069 147 0
8070 8069 -147 0
-8071 8070 148 0
-8071 -8070 -148 0
8071 -8070 148 0
8071 8070 -148 0
-8072 8071 149 0
-8072 -8071 -149 0
8072 -8071 149 0
8072 8071 -149 0
-8073 8072 153 0
-8073 -8072 -153 0
8073 -8072 153 0
8073 8072 -153 0
-8074 8073 155 0
-8074 -8073 -155 0
8074 -8073 155 0
8074 8073 -155 0
-8075 8074 157 0
-8075 -8074 -157 0
8075 -8074 157 0
8075 8074 -157 0
-8076 8075 159 0
-8076 -8075 -159 0
8076 -8075 159 0
8076 8075 -159 0
-8077 8076 160 0
-8077 -8076 -160 0
8077 -8076 160 0
8077 8076 -160 0
-8078 8077 162 0
-8078 -8077 -162 0
8078 -8077 162 0
8078 8077 -162 0
-8079 8078 166 0
-8079 -8078 -166 0
8079 -8078 166 0
8079 8078 -166 0
-8080 8079 168 0
-8080 -8079 -168 0
8080 -8079 168 0
8080 8079 -168 0
-8081 8080 169 0
-8081 -8080 -169 0
8081 -8080 169 0
8081 8080 -169 0
-8082 8081 172 0
-8082 -8081 -172 0
8082 -8081 172 0
8082 8081 -172 0
-8083 8082 173 0
-8083 -8082 -173 0
8083 -8082 173 0
8083 8082 -173 0
-8084 8083 174 0
-8084 -8083 -174 0
8084 -8083 174 0
8084 8083 -174 0
-8085 8084 175 0
-8085 -8084 -175 0
8085 -8084 175 0
8085 8084 -175 0
-8086 8085 177 0
-8086 -8085 -177 0
8086 -8085 177 0
8086 8085 -177 0
-8087 8086 178 0
-8087 -8086 -178 0
8087 -8086 178 0
8087 8086 -178 0
-8088 8087 180 0
-8088 -8087 -180 0
8088 -8087 180 0
8088 8087 -180 0
-8089 8088 182 0
-8089 -8088 -182 0
8089 -8088 182 0
8089 8088 -182 0
-8090 8089 183 0
-8090 -8089 -183 0
8090 -8089 183 0
8090 8089 -183 0
-8091 8090 185 0
-8091 -8090 -185 0
8091 -8090 185 0
8091 8090 -185 0
-8092 8091 186 0
-8092 -8091 -186 0
8092 -8091 186 0
8092 8091 -186 0
-8093 8092 189 0
-8093 -8092 -189 0
8093 -8092 189 0
8093 8092 -189 0
-8094 8093 190 0
-8094 -8093 -190 0
8094 -8093 190 0
8094 8093 -190 0
-8095 8094 191 0
-8095 -8094 -191 0
8095 -8094 191 0
8095 8094 -191 0
-8096 8095 192 0
-8096 -8095 -192 0
8096 -8095 192 0
8096 8095 -192 0
-8097 8096 194 0
-8097 -8096 -194 0
8097 -8096 194 0
8097 8096 -194 0
-8098 8097 198 0
-8098 -8097 -198 0
8098 -8097 198 0
8098 8097 -198 0
-8099 8098 199 0
-8099 -8098 -199 0
8099 -8098 199 0
8099 8098 -199 0
-8100 8099 200 0
-8100 -8099 -200 0
8100 -8099 200 0
8100 8099 -200 0
-8101 8100 202 0
-8101 -8100 -202 0
8101 -8100 202 0
8101 8100 -202 0
-8102 8101 203 0
-8102 -8101 -203 0
8102 -8101 203 0
8102 8101 -203 0
-8103 8102 205 0
-8103 -8102 -205 0
8103 -8102 205 0
8103 8102 -205 0
-8104 8103 206 0
-8104 -8103 -206 0
8104 -8103 206 0
8104 8103 -206 0
-8105 8104 207 0
-8105 -8104 -207 0
8105 -8104 207 0
8105 8104 -207 0
-8106 8105 210 0
-8106 -8105 -210 0
8106 -8105 210 0
8106 8105 -210 0
-8107 8106 212 0
-8107 -8106 -212 0
8107 -8106 212 0
8107 8106 -212 0
-8108 8107 214 0
-8108 -8107 -214 0
8108 -8107 214 0
8108 8107 -214 0
-8109 8108 217 0
-8109 -8108 -217 0
8109 -8108 217 0
8109 8108 -217 0
-8110 8109 220 0
-8110 -8109 -220 0
8110 -8109 220 0
8110 8109 -220 0
-8111 8110 221 0
-8111 -8110 -221 0
8111 -8110 221 0
8111 8110 -221 0
-8112 8111 222 0
-8112 -8111 -222 0
8112 -8111 222 0
8112 8111 -222 0
-8113 8112 223 0
-8113 -8112 -223 0
8113 -8112 223 0
8113 8112 -223 0
-8114 8113 224 0
-8114 -8113 -224 0
8114 -8113 224 0
8114 8113 -224 0
-8115 8114 225 0
-8115 -8114 -225 0
8115 -8114 225 0
8115 8114 -225 0
-8116 8115 228 0
-8116 -8115 -228 0
8116 -8115 228 0
8116 8115 -228 0
-8117 8116 230 0
-8117 -8116 -230 0
8117 -8116 230 0
8117 8116 -230 0
-8118 8117 231 0
-8118 -8117 -231 0
8118 -8117 231 0
8118 8117 -231 0
-8119 8118 232 0
-8119 -8118 -232 0
8119 -8118 232 0
8119 8118 -232 0
-8120 8119 233 0
-8120 -8119 -233 0
8120 -8119 233 0
8120 8119 -233 0
-8121 8120 237 0
-8121 -8120 -237 0
8121 -8120 237 0
8121 8120 -237 0
-8122 8121 238 0
-8122 -8121 -238 0
8122 -8121 238 0
8122 8121 -238 0
-8123 8122 239 0
-8123 -8122 -239 0
8123 -8122 239 0
8123 8122 -239 0
-8124 8123 240 0
-8124 -8123 -240 0
8124 -8123 240 0
8124 8123 -240 0
-8125 8124 241 0
-8125 -8124 -241 0
8125 -8124 241 0
8125 8124 -241 0
-8126 8125 242 0
-8126 -8125 -242 0
8126 -8125 242 0
8126 8125 -242 0
-8127 8126 243 0
-8127 -8126 -243 0
8127 -8126 243 0
8127 8126 -243 0
-8128 8127 244 0
-8128 -8127 -244 0
8128 -8127 244 0
8128 8127 -244 0
-8129 8128 250 0
-8129 -8128 -250 0
8129 -8128 250 0
8129 8128 -250 0
-8130 8129 252 0
-8130 -8129 -252 0
8130 -8129 252 0
8130 8129 -252 0
-8131 8130 253 0
-8131 -8130 -253 0
8131 -8130 253 0
8131 8130 -253 0
-8132 8131 254 0
-8132 -8131 -254 0
8132 -8131 254 0
8132 8131 -254 0
-8133 8132 257 0
-8133 -8132 -257 0
8133 -8132 257 0
8133 8132 -257 0
-8134 8133 258 0
-8134 -8133 -258 0
8134 -8133 258 0
8134 8133 -258 0
-8135 8134 259 0
-8135 -8134 -259 0
8135 -8134 259 0
8135 8134 -259 0
-8136 8135 260 0
-8136 -8135 -260 0
8136 -8135 260 0
8136 8135 -260 0
-8137 8136 262 0
-8137 -8136 -262 0
8137 -8136 262 0
8137 8136 -262 0
-8138 8137 263 0
-8138 -8137 -263 0
8138 -8137 263 0
8138 8137 -263 0
-8139 8138 267 0
-8139 -8138 -267 0
8139 -8138 267 0
8139 8138 -267 0
-8140 8139 269 0
-8140 -8139 -269 0
8140 -8139 269 0
8140 8139 -269 0
-8141 8140 271 0
-8141 -8140 -271 0
8141 -8140 271 0
8141 8140 -271 0
-8142 8141 273 0
-8142 -8141 -273 0
8142 -8141 273 0
8142 8141 -273 0
-8065 8142 0
8065 -8142 0
-8144 2 4 0
-8144 -2 -4 0
8144 -2 4 0
8144 2 -4 0
-8145 8144 8 0
-8145 -8144 -8 0
8145 -8144 8 0
8145 8144 -8 0
-8146 8145 10 0
-8146 -8145 -10 0
8146 -8145 10 0
8146 8145 -10 0
-8147 8146 145 0
-8147 -8146 -145 0
8147 -8146 145 0
8147 8146 -145 0
-8148 8147 146 0
-8148 -8147 -146 0
8148 -8147 146 0
8148 8147 -146 0
-8149 8148 147 0
-8149 -8148 -147 0
8149 -8148 147 0
8149 8148 -147 0
-8150 8149 150 0
-8150 -8149 -150 0
8150 -8149 150 0
8150 8149 -150 0
-8151 8150 151 0
-8151 -8150 -151 0
8151 -8150 151 0
8151 8150 -151 0
-8152 8151 152 0
-8152 -8151 -152 0
8152 -8151 152 0
8152 8151 -152 0
-8153 8152 155 0
-8153 -8152 -155 0
8153 -8152 155 0
8153 8152 -155 0
-8154 8153 156 0
-8154 -8153 -156 0
8154 -8153 156 0
8154 8153 -156 0
-8155 8154 164 0
-8155 -8154 -164 0
8155 -8154 164 0
8155 8154 -164 0
-8156 8155 166 0
-8156 -8155 -166 0
8156 -8155 166 0
8156 8155 -166 0
-8157 8156 172 0
-8157 -8156 -172 0
8157 -8156 172 0
8157 8156 -172 0
-8158 8157 174 0
-8158 -8157 -174 0
8158 -8157 174 0
8158 8157 -174 0
-8159 8158 182 0
-8159 -8158 -182 0
8159 -8158 182 0
8159 8158 -182 0
-8160 8159 183 0
-8160 -8159 -183 0
8160 -8159 183 0
8160 8159 -183 0
-8161 8160 185 0
-8161 -8160 -185 0
8161 -8160 185 0
8161 8160 -185 0
-8162 8161 186 0
-8162 -8161 -186 0
8162 -8161 186 0
8162 8161 -186 0
-8163 8162 188 0
-8163 -8162 -188 0
8163 -8162 188 0
8163 8162 -188 0
-8164 8163 192 0
-8164 -8163 -192 0
8164 -8163 192 0
8164 8163 -192 0
-8165 8164 194 0
-8165 -8164 -194 0
8165 -8164 194 0
8165 8164 -194 0
-8166 8165 195 0
-8166 -8165 -195 0
8166 -8165 195 0
8166 8165 -195 0
-8167 8166 196 0
-8167 -8166 -196 0
8167 -8166 196 0
8167 8166 -196 0
-8168 8167 197 0
-8168 -8167 -197 0
8168 -8167 197 0
8168 8167 -197 0
-8169 8168 199 0
-8169 -8168 -199 0
8169 -8168 199 0
8169 8168 -199 0
-8170 8169 201 0
-8170 -8169 -201 0
8170 -8169 201 0
8170 8169 -201 0
-8171 8170 202 0
-8171 -8170 -202 0
8171 -8170 202 0
8171 8170 -202 0
-8172 8171 204 0
-8172 -8171 -204 0
8172 -8171 204 0
8172 8171 -204 0
-8173 8172 207 0
-8173 -8172 -207 0
8173 -8172 207 0
8173 8172 -207 0
-8174 8173 209 0
-8174 -8173 -209 0
8174 -8173 209 0
8174 8173 -209 0
-8175 8174 211 0
-8175 -8174 -211 0
8175 -8174 211 0
8175 8174 -211 0
-8176 8175 212 0
-8176 -8175 -212 0
8176 -8175 212 0
8176 8175 -212 0
-8177 8176 213 0
-8177 -8176 -213 0
8177 -8176 213 0
8177 8176 -213 0
-8178 8177 214 0
-8178 -8177 -214 0
8178 -8177 214 0
8178 8177 -214 0
-8179 8178 217 0
-8179 -8178 -217 0
8179 -8178 217 0
8179 8178 -217 0
-8180 8179 218 0
-8180 -8179 -218 0
8180 -8179 218 0
8180 8179 -218 0
-8181 8180 221 0
-8181 -8180 -221 0
8181 -8180 221 0
8181 8180 -221 0
-8182 8181 222 0
-8182 -8181 -222 0
8182 -8181 222 0
8182 8181 -222 0
-8183 8182 223 0
-8183 -8182 -223 0
8183 -8182 223 0
8183 8182 -223 0
-8184 8183 224 0
-8184 -8183 -224 0
8184 -8183 224 0
8184 8183 -224 0
-8185 8184 225 0
-8185 -8184 -225 0
8185 -8184 225 0
8185 8184 -225 0
-8186 8185 226 0
-8186 -8185 -226 0
8186 -8185 226 0
8186 8185 -226 0
-8187 8186 231 0
-8187 -8186 -231 0
8187 -8186 231 0
8187 8186 -231 0
-8188 8187 232 0
-8188 -8187 -232 0
8188 -8187 232 0
8188 8187 -232 0
-8189 8188 233 0
-8189 -8188 -233 0
8189 -8188 233 0
8189 8188 -233 0
-8190 8189 234 0
-8190 -8189 -234 0
8190 -8189 234 0
8190 8189 -234 0
-8191 8190 235 0
-8191 -8190 -235 0
8191 -8190 235 0
8191 8190 -235 0
-8192 8191 238 0
-8192 -8191 -238 0
8192 -8191 238 0
8192 8191 -238 0
-8193 8192 239 0
-8193 -8192 -239 0
8193 -8192 239 0
8193 8192 -239 0
-8194 8193 240 0
-8194 -8193 -240 0
8194 -8193 240 0
8194 8193 -240 0
-8195 8194 242 0
-8195 -8194 -242 0
8195 -8194 242 0
8195 8194 -242 0
-8196 8195 243 0
-8196 -8195 -243 0
8196 -8195 243 0
8196 8195 -243 0
-8197 8196 244 0
-8197 -8196 -244 0
8197 -8196 244 0
8197 8196 -244 0
-8198 8197 245 0
-8198 -8197 -245 0
8198 -8197 245 0
8198 8197 -245 0
-8199 8198 247 0
-8199 -8198 -247 0
8199 -8198 247 0
8199 8198 -247 0
-8200 8199 251 0
-8200 -8199 -251 0
8200 -8199 251 0
8200 8199 -251 0
-8201 8200 253 0
-8201 -8200 -253 0
8201 -8200 253 0
8201 8200 -253 0
-8202 8201 254 0
-8202 -8201 -254 0
8202 -8201 254 0
8202 8201 -254 0
-8203 8202 255 0
-8203 -8202 -255 0
8203 -8202 255 0
8203 8202 -255 0
-8204 8203 258 0
-8204 -8203 -258 0
8204 -8203 258 0
8204 8203 -258 0
-8205 8204 260 0
-8205 -8204 -260 0
8205 -8204 260 0
8205 8204 -260 0
-8206 8205 261 0
-8206 -8205 -261 0
8206 -8205 261 0
8206 8205 -261 0
-8207 8206 263 0
-8207 -8206 -263 0
8207 -8206 263 0
8207 8206 -263 0
-8208 8207 264 0
-8208 -8207 -264 0
8208 -8207 264 0
8208 8207 -264 0
-8209 8208 268 0
-8209 -8208 -268 0
8209 -8208 268 0
8209 8208 -268 0
-8210 8209 270 0
-8210 -8209 -270 0
8210 -8209 270 0
8210 8209 -270 0
-8211 8210 272 0
-8211 -8210 -272 0
8211 -8210 272 0
8211 8210 -272 0
-8212 8211 274 0
-8212 -8211 -274 0
8212 -8211 274 0
8212 8211 -274 0
-8143 8212 0
8143 -8212 0
-8214 1 5 0
-8214 -1 -5 0
8214 -1 5 0
8214 1 -5 0
-8215 8214 7 0
-8215 -8214 -7 0
8215 -8214 7 0
8215 8214 -7 0
-8216 8215 11 0
-8216 -8215 -11 0
8216 -8215 11 0
8216 8215 -11 0
-8217 8216 145 0
-8217 -8216 -145 0
8217 -8216 145 0
8217 8216 -145 0
-8218 8217 146 0
-8218 -8217 -146 0
8218 -8217 146 0
8218 8217 -146 0
-8219 8218 149 0
-8219 -8218 -149 0
8219 -8218 149 0
8219 8218 -149 0
-8220 8219 150 0
-8220 -8219 -150 0
8220 -8219 150 0
8220 8219 -150 0
-8221 8220 151 0
-8221 -8220 -151 0
8221 -8220 151 0
8221 8220 -151 0
-8222 8221 155 0
-8222 -8221 -155 0
8222 -8221 155 0
8222 8221 -155 0
-8223 8222 157 0
-8223 -8222 -157 0
8223 -8222 157 0
8223 8222 -157 0
-8224 8223 160 0
-8224 -8223 -160 0
8224 -8223 160 0
8224 8223 -160 0
-8225 8224 161 0
-8225 -8224 -161 0
8225 -8224 161 0
8225 8224 -161 0
-8226 8225 162 0
-8226 -8225 -162 0
8226 -8225 162 0
8226 8225 -162 0
-8227 8226 166 0
-8227 -8226 -166 0
8227 -8226 166 0
8227 8226 -166 0
-8228 8227 168 0
-8228 -8227 -168 0
8228 -8227 168 0
8228 8227 -168 0
-8229 8228 170 0
-8229 -8228 -170 0
8229 -8228 170 0
8229 8228 -170 0
-8230 8229 172 0
-8230 -8229 -172 0
8230 -8229 172 0
8230 8229 -172 0
-8231 8230 175 0
-8231 -8230 -175 0
8231 -8230 175 0
8231 8230 -175 0
-8232 8231 176 0
-8232 -8231 -176 0
8232 -8231 176 0
8232 8231 -176 0
-8233 8232 177 0
-8233 -8232 -177 0
8233 -8232 177 0
8233 8232 -177 0
-8234 8233 178 0
-8234 -8233 -178 0
8234 -8233 178 0
8234 8233 -178 0
-8235 8234 181 0
-8235 -8234 -181 0
8235 -8234 181 0
8235 8234 -181 0
-8236 8235 182 0
-8236 -8235 -182 0
8236 -8235 182 0
8236 8235 -182 0
-8237 8236 183 0
-8237 -8236 -183 0
8237 -8236 183 0
8237 8236 -183 0
-8238 8237 184 0
-8238 -8237 -184 0
8238 -8237 184 0
8238 8237 -184 0
-8239 8238 187 0
-8239 -8238 -187 0
8239 -8238 187 0
8239 8238 -187 0
-8240 8239 189 0
-8240 -8239 -189 0
8240 -8239 189 0
8240 8239 -189 0
-8241 8240 190 0
-8241 -8240 -190 0
8241 -8240 190 0
8241 8240 -190 0
-8242 8241 192 0
-8242 -8241 -192 0
8242 -8241 192 0
8242 8241 -192 0
-8243 8242 195 0
-8243 -8242 -195 0
8243 -8242 195 0
8243 8242 -195 0
-8244 8243 196 0
-8244 -8243 -196 0
8244 -8243 196 0
8244 8243 -196 0
-8245 8244 197 0
-8245 -8244 -197 0
8245 -8244 197 0
8245 8244 -197 0
-8246 8245 198 0
-8246 -8245 -198 0
8246 -8245 198 0
8246 8245 -198 0
-8247 8246 200 0
-8247 -8246 -200 0
8247 -8246 200 0
8247 8246 -200 0
-8248 8247 204 0
-8248 -8247 -204 0
8248 -8247 204 0
8248 8247 -204 0
-8249 8248 205 0
-8249 -8248 -205 0
8249 -8248 205 0
8249 8248 -205 0
-8250 8249 206 0
-8250 -8249 -206 0
8250 -8249 206 0
8250 8249 -206 0
-8251 8250 208 0
-8251 -8250 -208 0
8251 -8250 208 0
8251 8250 -208 0
-8252 8251 209 0
-8252 -8251 -209 0
8252 -8251 209 0
8252 8251 -209 0
-8253 8252 217 0
-8253 -8252 -217 0
8253 -8252 217 0
8253 8252 -217 0
-8254 8253 219 0
-8254 -8253 -219 0
8254 -8253 219 0
8254 8253 -219 0
-8255 8254 224 0
-8255 -8254 -224 0
8255 -8254 224 0
8255 8254 -224 0
-8256 8255 228 0
-8256 -8255 -228 0
8256 -8255 228 0
8256 8255 -228 0
-8257 8256 229 0
-8257 -8256 -229 0
8257 -8256 229 0
8257 8256 -229 0
-8258 8257 230 0
-8258 -8257 -230 0
8258 -8257 230 0
8258 8257 -230 0
-8259 8258 231 0
-8259 -8258 -231 0
8259 -8258 231 0
8259 8258 -231 0
-8260 8259 234 0
-8260 -8259 -234 0
8260 -8259 234 0
8260 8259 -234 0
-8261 8260 235 0
-8261 -8260 -235 0
8261 -8260 235 0
8261 8260 -235 0
-8262 8261 236 0
-8262 -8261 -236 0
8262 -8261 236 0
8262 8261 -236 0
-8263 8262 237 0
-8263 -8262 -237 0
8263 -8262 237 0
8263 8262 -237 0
-8264 8263 238 0
-8264 -8263 -238 0
8264 -8263 238 0
8264 8263 -238 0
-8265 8264 244 0
-8265 -8264 -244 0
8265 -8264 244 0
8265 8264 -244 0
-8266 8265 246 0
-8266 -8265 -246 0
8266 -8265 246 0
8266 8265 -246 0
-8267 8266 247 0
-8267 -8266 -247 0
8267 -8266 247 0
8267 8266 -247 0
-8268 8267 251 0
-8268 -8267 -251 0
8268 -8267 251 0
8268 8267 -251 0
-8269 8268 255 0
-8269 -8268 -255 0
8269 -8268 255 0
8269 8268 -255 0
-8270 8269 256 0
-8270 -8269 -256 0
8270 -8269 256 0
8270 8269 -256 0
-8271 8270 257 0
-8271 -8270 -257 0
8271 -8270 257 0
8271 8270 -257 0
-8272 8271 258 0
-8272 -8271 -258 0
8272 -8271 258 0
8272 8271 -258 0
-8273 8272 260 0
-8273 -8272 -260 0
8273 -8272 260 0
8273 8272 -260 0
-8274 8273 261 0
-8274 -8273 -261 0
8274 -8273 261 0
8274 8273 -261 0
-8275 8274 263 0
-8275 -8274 -263 0
8275 -8274 263 0
8275 8274 -263 0
-8276 8275 264 0
-8276 -8275 -264 0
8276 -8275 264 0
8276 8275 -264 0
-8277 8276 266 0
-8277 -8276 -266 0
8277 -8276 266 0
8277 8276 -266 0
-8278 8277 267 0
-8278 -8277 -267 0
8278 -8277 267 0
8278 8277 -267 0
-8279 8278 268 0
-8279 -8278 -268 0
8279 -8278 268 0
8279 8278 -268 0
-8280 8279 269 0
-8280 -8279 -269 0
8280 -8279 269 0
8280 8279 -269 0
-8281 8280 272 0
-8281 -8280 -272 0
8281 -8280 272 0
8281 8280 -272 0
-8282 8281 274 0
-8282 -8281 -274 0
8282 -8281 274 0
8282 8281 -274 0
-8213 8282 0
8213 -8282 0
-8284 2 6 0
-8284 -2 -6 0
8284 -2 6 0
8284 2 -6 0
-8285 8284 8 0
-8285 -8284 -8 0
8285 -8284 8 0
8285 8284 -8 0
-8286 8285 12 0
-8286 -8285 -12 0
8286 -8285 12 0
8286 8285 -12 0
-8287 8286 146 0
-8287 -8286 -146 0
8287 -8286 146 0
8287 8286 -146 0
-8288 8287 147 0
-8288 -8287 -147 0
8288 -8287 147 0
8288 8287 -147 0
-8289 8288 148 0
-8289 -8288 -148 0
8289 -8288 148 0
8289 8288 -148 0
-8290 8289 149 0
-8290 -8289 -149 0
8290 -8289 149 0
8290 8289 -149 0
-8291 8290 151 0
-8291 -8290 -151 0
8291 -8290 151 0
8291 8290 -151 0
-8292 8291 152 0
-8292 -8291 -152 0
8292 -8291 152 0
8292 8291 -152 0
-8293 8292 154 0
-8293 -8292 -154 0
8293 -8292 154 0
8293 8292 -154 0
-8294 8293 155 0
-8294 -8293 -155 0
8294 -8293 155 0
8294 8293 -155 0
-8295 8294 159 0
-8295 -8294 -159 0
8295 -8294 159 0
8295 8294 -159 0
-8296 8295 160 0
-8296 -8295 -160 0
8296 -8295 160 0
8296 8295 -160 0
-8297 8296 161 0
-8297 -8296 -161 0
8297 -8296 161 0
8297 8296 -161 0
-8298 8297 162 0
-8298 -8297 -162 0
8298 -8297 162 0
8298 8297 -162 0
-8299 8298 164 0
-8299 -8298 -164 0
8299 -8298 164 0
8299 8298 -164 0
-8300 8299 165 0
-8300 -8299 -165 0
8300 -8299 165 0
8300 8299 -165 0
-8301 8300 166 0
-8301 -8300 -166 0
8301 -8300 166 0
8301 8300 -166 0
-8302 8301 167 0
-8302 -8301 -167 0
8302 -8301 167 0
8302 8301 -167 0
-8303 8302 169 0
-8303 -8302 -169 0
8303 -8302 169 0
8303 8302 -169 0
-8304 8303 171 0
-8304 -8303 -171 0
8304 -8303 171 0
8304 8303 -171 0
-8305 8304 172 0
-8305 -8304 -172 0
8305 -8304 172 0
8305 8304 -172 0
-8306 8305 174 0
-8306 -8305 -174 0
8306 -8305 174 0
8306 8305 -174 0
-8307 8306 175 0
-8307 -8306 -175 0
8307 -8306 175 0
8307 8306 -175 0
-8308 8307 176 0
-8308 -8307 -176 0
8308 -8307 176 0
8308 8307 -176 0
-8309 8308 177 0
-8309 -8308 -177 0
8309 -8308 177 0
8309 8308 -177 0
-8310 8309 180 0
-8310 -8309 -180 0
8310 -8309 180 0
8310 8309 -180 0
-8311 8310 181 0
-8311 -8310 -181 0
8311 -8310 181 0
8311 8310 -181 0
-8312 8311 185 0
-8312 -8311 -185 0
8312 -8311 185 0
8312 8311 -185 0
-8313 8312 189 0
-8313 -8312 -189 0
8313 -8312 189 0
8313 8312 -189 0
-8314 8313 191 0
-8314 -8313 -191 0
8314 -8313 191 0
8314 8313 -191 0
-8315 8314 201 0
-8315 -8314 -201 0
8315 -8314 201 0
8315 8314 -201 0
-8316 8315 202 0
-8316 -8315 -202 0
8316 -8315 202 0
8316 8315 -202 0
-8317 8316 203 0
-8317 -8316 -203 0
8317 -8316 203 0
8317 8316 -203 0
-8318 8317 204 0
-8318 -8317 -204 0
8318 -8317 204 0
8318 8317 -204 0
-8319 8318 205 0
-8319 -8318 -205 0
8319 -8318 205 0
8319 8318 -205 0
-8320 8319 208 0
-8320 -8319 -208 0
8320 -8319 208 0
8320 8319 -208 0
-8321 8320 209 0
-8321 -8320 -209 0
8321 -8320 209 0
8321 8320 -209 0
-8322 8321 210 0
-8322 -8321 -210 0
8322 -8321 210 0
8322 8321 -210 0
-8323 8322 211 0
-8323 -8322 -211 0
8323 -8322 211 0
8323 8322 -211 0
-8324 8323 212 0
-8324 -8323 -212 0
8324 -8323 212 0
8324 8323 -212 0
-8325 8324 213 0
-8325 -8324 -213 0
8325 -8324 213 0
8325 8324 -213 0
-8326 8325 214 0
-8326 -8325 -214 0
8326 -8325 214 0
8326 8325 -214 0
-8327 8326 217 0
-8327 -8326 -217 0
8327 -8326 217 0
8327 8326 -217 0
-8328 8327 221 0
-8328 -8327 -221 0
8328 -8327 221 0
8328 8327 -221 0
-8329 8328 224 0
-8329 -8328 -224 0
8329 -8328 224 0
8329 8328 -224 0
-8330 8329 225 0
-8330 -8329 -225 0
8330 -8329 225 0
8330 8329 -225 0
-8331 8330 226 0
-8331 -8330 -226 0
8331 -8330 226 0
8331 8330 -226 0
-8332 8331 227 0
-8332 -8331 -227 0
8332 -8331 227 0
8332 8331 -227 0
-8333 8332 229 0
-8333 -8332 -229 0
8333 -8332 229 0
8333 8332 -229 0
-8334 8333 230 0
-8334 -8333 -230 0
8334 -8333 230 0
8334 8333 -230 0
-8335 8334 231 0
-8335 -8334 -231 0
8335 -8334 231 0
8335 8334 -231 0
-8336 8335 232 0
-8336 -8335 -232 0
8336 -8335 232 0
8336 8335 -232 0
-8337 8336 236 0
-8337 -8336 -236 0
8337 -8336 236 0
8337 8336 -236 0
-8338 8337 237 0
-8338 -8337 -237 0
8338 -8337 237 0
8338 8337 -237 0
-8339 8338 238 0
-8339 -8338 -238 0
8339 -8338 238 0
8339 8338 -238 0
-8340 8339 239 0
-8340 -8339 -239 0
8340 -8339 239 0
8340 8339 -239 0
-8341 8340 242 0
-8341 -8340 -242 0
8341 -8340 242 0
8341 8340 -242 0
-8342 8341 244 0
-8342 -8341 -244 0
8342 -8341 244 0
8342 8341 -244 0
-8343 8342 247 0
-8343 -8342 -247 0
8343 -8342 247 0
8343 8342 -247 0
-8344 8343 250 0
-8344 -8343 -250 0
8344 -8343 250 0
8344 8343 -250 0
-8345 8344 251 0
-8345 -8344 -251 0
8345 -8344 251 0
8345 8344 -251 0
-8346 8345 252 0
-8346 -8345 -252 0
8346 -8345 252 0
8346 8345 -252 0
-8347 8346 253 0
-8347 -8346 -253 0
8347 -8346 253 0
8347 8346 -253 0
-8348 8347 256 0
-8348 -8347 -256 0
8348 -8347 256 0
8348 8347 -256 0
-8349 8348 257 0
-8349 -8348 -257 0
8349 -8348 257 0
8349 8348 -257 0
-8350 8349 258 0
-8350 -8349 -258 0
8350 -8349 258 0
8350 8349 -258 0
-8351 8350 259 0
-8351 -8350 -259 0
8351 -8350 259 0
8351 8350 -259 0
-8352 8351 261 0
-8352 -8351 -261 0
8352 -8351 261 0
8352 8351 -261 0
-8353 8352 262 0
-8353 -8352 -262 0
8353 -8352 262 0
8353 8352 -262 0
-8354 8353 264 0
-8354 -8353 -264 0
8354 -8353 264 0
8354 8353 -264 0
-8355 8354 265 0
-8355 -8354 -265 0
8355 -8354 265 0
8355 8354 -265 0
-8356 8355 266 0
-8356 -8355 -266 0
8356 -8355 266 0
8356 8355 -266 0
-8357 8356 267 0
-8357 -8356 -267 0
8357 -8356 267 0
8357 8356 -267 0
-8358 8357 270 0
-8358 -8357 -270 0
8358 -8357 270 0
8358 8357 -270 0
-8359 8358 271 0
-8359 -8358 -271 0
8359 -8358 271 0
8359 8358 -271 0
-8360 8359 272 0
-8360 -8359 -272 0
8360 -8359 272 0
8360 8359 -272 0
-8361 8360 273 0
-8361 -8360 -273 0
8361 -8360 273 0
8361 8360 -273 0
-8362 8361 274 0
-8362 -8361 -274 0
8362 -8361 274 0
8362 8361 -274 0
-8283 8362 0
8283 -8362 0
-8364 1 13 0
-8364 -1 -13 0
8364 -1 13 0
8364 1 -13 0
-8365 8364 148 0
-8365 -8364 -148 0
8365 -8364 148 0
8365 8364 -148 0
-8366 8365 150 0
-8366 -8365 -150 0
8366 -8365 150 0
8366 8365 -150 0
-8367 8366 151 0
-8367 -8366 -151 0
8367 -8366 151 0
8367 8366 -151 0
-8368 8367 152 0
-8368 -8367 -152 0
8368 -8367 152 0
8368 8367 -152 0
-8369 8368 154 0
-8369 -8368 -154 0
8369 -8368 154 0
8369 8368 -154 0
-8370 8369 156 0
-8370 -8369 -156 0
8370 -8369 156 0
8370 8369 -156 0
-8371 8370 160 0
-8371 -8370 -160 0
8371 -8370 160 0
8371 8370 -160 0
-8372 8371 162 0
-8372 -8371 -162 0
8372 -8371 162 0
8372 8371 -162 0
-8373 8372 163 0
-8373 -8372 -163 0
8373 -8372 163 0
8373 8372 -163 0
-8374 8373 168 0
-8374 -8373 -168 0
8374 -8373 168 0
8374 8373 -168 0
-8375 8374 169 0
-8375 -8374 -169 0
8375 -8374 169 0
8375 8374 -169 0
-8376 8375 170 0
-8376 -8375 -170 0
8376 -8375 170 0
8376 8375 -170 0
-8377 8376 175 0
-8377 -8376 -175 0
8377 -8376 175 0
8377 8376 -175 0
-8378 8377 176 0
-8378 -8377 -176 0
8378 -8377 176 0
8378 8377 -176 0
-8379 8378 177 0
-8379 -8378 -177 0
8379 -8378 177 0
8379 8378 -177 0
-8380 8379 184 0
-8380 -8379 -184 0
8380 -8379 184 0
8380 8379 -184 0
-8381 8380 190 0
-8381 -8380 -190 0
8381 -8380 190 0
8381 8380 -190 0
-8382 8381 194 0
-8382 -8381 -194 0
8382 -8381 194 0
8382 8381 -194 0
-8383 8382 196 0
-8383 -8382 -196 0
8383 -8382 196 0
8383 8382 -196 0
-8384 8383 198 0
-8384 -8383 -198 0
8384 -8383 198 0
8384 8383 -198 0
-8385 8384 199 0
-8385 -8384 -199 0
8385 -8384 199 0
8385 8384 -199 0
-8386 8385 203 0
-8386 -8385 -203 0
8386 -8385 203 0
8386 8385 -203 0
-8387 8386 204 0
-8387 -8386 -204 0
8387 -8386 204 0
8387 8386 -204 0
-8388 8387 205 0
-8388 -8387 -205 0
8388 -8387 205 0
8388 8387 -205 0
-8389 8388 206 0
-8389 -8388 -206 0
8389 -8388 206 0
8389 8388 -206 0
-8390 8389 211 0
-8390 -8389 -211 0
8390 -8389 211 0
8390 8389 -211 0
-8391 8390 212 0
-8391 -8390 -212 0
8391 -8390 212 0
8391 8390 -212 0
-8392 8391 220 0
-8392 -8391 -220 0
8392 -8391 220 0
8392 8391 -220 0
-8393 8392 222 0
-8393 -8392 -222 0
8393 -8392 222 0
8393 8392 -222 0
-8394 8393 224 0
-8394 -8393 -224 0
8394 -8393 224 0
8394 8393 -224 0
-8395 8394 228 0
-8395 -8394 -228 0
8395 -8394 228 0
8395 8394 -228 0
-8396 8395 230 0
-8396 -8395 -230 0
8396 -8395 230 0
8396 8395 -230 0
-8397 8396 231 0
-8397 -8396 -231 0
8397 -8396 231 0
8397 8396 -231 0
-8398 8397 234 0
-8398 -8397 -234 0
8398 -8397 234 0
8398 8397 -234 0
-8399 8398 236 0
-8399 -8398 -236 0
8399 -8398 236 0
8399 8398 -236 0
-8400 8399 238 0
-8400 -8399 -238 0
8400 -8399 238 0
8400 8399 -238 0
-8401 8400 251 0
-8401 -8400 -251 0
8401 -8400 251 0
8401 8400 -251 0
-8402 8401 255 0
-8402 -8401 -255 0
8402 -8401 255 0
8402 8401 -255 0
-8403 8402 256 0
-8403 -8402 -256 0
8403 -8402 256 0
8403 8402 -256 0
-8404 8403 258 0
-8404 -8403 -258 0
8404 -8403 258 0
8404 8403 -258 0
-8405 8404 260 0
-8405 -8404 -260 0
8405 -8404 260 0
8405 8404 -260 0
-8406 8405 264 0
-8406 -8405 -264 0
8406 -8405 264 0
8406 8405 -264 0
-8407 8406 266 0
-8407 -8406 -266 0
8407 -8406 266 0
8407 8406 -266 0
-8408 8407 267 0
-8408 -8407 -267 0
8408 -8407 267 0
8408 8407 -267 0
-8409 8408 270 0
-8409 -8408 -270 0
8409 -8408 270 0
8409 8408 -270 0
-8410 8409 271 0
-8410 -8409 -271 0
8410 -8409 271 0
8410 8409 -271 0
-8411 8410 272 0
-8411 -8410 -272 0
8411 -8410 272 0
8411 8410 -272 0
-8412 8411 274 0
-8412 -8411 -274 0
8412 -8411 274 0
8412 8411 -274 0
-8363 8412 0
8363 -8412 0
-8414 2 14 0
-8414 -2 -14 0
8414 -2 14 0
8414 2 -14 0
-8415 8414 148 0
-8415 -8414 -148 0
8415 -8414 148 0
8415 8414 -148 0
-8416 8415 150 0
-8416 -8415 -150 0
8416 -8415 150 0
8416 8415 -150 0
-8417 8416 152 0
-8417 -8416 -152 0
8417 -8416 152 0
8417 8416 -152 0
-8418 8417 153 0
-8418 -8417 -153 0
8418 -8417 153 0
8418 8417 -153 0
-8419 8418 154 0
-8419 -8418 -154 0
8419 -8418 154 0
8419 8418 -154 0
-8420 8419 156 0
-8420 -8419 -156 0
8420 -8419 156 0
8420 8419 -156 0
-8421 8420 158 0
-8421 -8420 -158 0
8421 -8420 158 0
8421 8420 -158 0
-8422 8421 159 0
-8422 -8421 -159 0
8422 -8421 159 0
8422 8421 -159 0
-8423 8422 160 0
-8423 -8422 -160 0
8423 -8422 160 0
8423 8422 -160 0
-8424 8423 161 0
-8424 -8423 -161 0
8424 -8423 161 0
8424 8423 -161 0
-8425 8424 165 0
-8425 -8424 -165 0
8425 -8424 165 0
8425 8424 -165 0
-8426 8425 166 0
-8426 -8425 -166 0
8426 -8425 166 0
8426 8425 -166 0
-8427 8426 169 0
-8427 -8426 -169 0
8427 -8426 169 0
8427 8426 -169 0
-8428 8427 170 0
-8428 -8427 -170 0
8428 -8427 170 0
8428 8427 -170 0
-8429 8428 171 0
-8429 -8428 -171 0
8429 -8428 171 0
8429 8428 -171 0
-8430 8429 172 0
-8430 -8429 -172 0
8430 -8429 172 0
8430 8429 -172 0
-8431 8430 173 0
-8431 -8430 -173 0
8431 -8430 173 0
8431 8430 -173 0
-8432 8431 174 0
-8432 -8431 -174 0
8432 -8431 174 0
8432 8431 -174 0
-8433 8432 175 0
-8433 -8432 -175 0
8433 -8432 175 0
8433 8432 -175 0
-8434 8433 176 0
-8434 -8433 -176 0
8434 -8433 176 0
8434 8433 -176 0
-8435 8434 177 0
-8435 -8434 -177 0
8435 -8434 177 0
8435 8434 -177 0
-8436 8435 179 0
-8436 -8435 -179 0
8436 -8435 179 0
8436 8435 -179 0
-8437 8436 180 0
-8437 -8436 -180 0
8437 -8436 180 0
8437 8436 -180 0
-8438 8437 181 0
-8438 -8437 -181 0
8438 -8437 181 0
8438 8437 -181 0
-8439 8438 182 0
-8439 -8438 -182 0
8439 -8438 182 0
8439 8438 -182 0
-8440 8439 183 0
-8440 -8439 -183 0
8440 -8439 183 0
8440 8439 -183 0
-8441 8440 184 0
-8441 -8440 -184 0
8441 -8440 184 0
8441 8440 -184 0
-8442 8441 185 0
-8442 -8441 -185 0
8442 -8441 185 0
8442 8441 -185 0
-8443 8442 187 0
-8443 -8442 -187 0
8443 -8442 187 0
8443 8442 -187 0
-8444 8443 188 0
-8444 -8443 -188 0
8444 -8443 188 0
8444 8443 -188 0
-8445 8444 189 0
-8445 -8444 -189 0
8445 -8444 189 0
8445 8444 -189 0
-8446 8445 190 0
-8446 -8445 -190 0
8446 -8445 190 0
8446 8445 -190 0
-8447 8446 191 0
-8447 -8446 -191 0
8447 -8446 191 0
8447 8446 -191 0
-8448 8447 195 0
-8448 -8447 -195 0
8448 -8447 195 0
8448 8447 -195 0
-8449 8448 196 0
-8449 -8448 -196 0
8449 -8448 196 0
8449 8448 -196 0
-8450 8449 198 0
-8450 -8449 -198 0
8450 -8449 198 0
8450 8449 -198 0
-8451 8450 200 0
-8451 -8450 -200 0
8451 -8450 200 0
8451 8450 -200 0
-8452 8451 202 0
-8452 -8451 -202 0
8452 -8451 202 0
8452 8451 -202 0
-8453 8452 203 0
-8453 -8452 -203 0
8453 -8452 203 0
8453 8452 -203 0
-8454 8453 205 0
-8454 -8453 -205 0
8454 -8453 205 0
8454 8453 -205 0
-8455 8454 208 0
-8455 -8454 -208 0
8455 -8454 208 0
8455 8454 -208 0
-8456 8455 211 0
-8456 -8455 -211 0
8456 -8455 211 0
8456 8455 -211 0
-8457 8456 214 0
-8457 -8456 -214 0
8457 -8456 214 0
8457 8456 -214 0
-8458 8457 218 0
-8458 -8457 -218 0
8458 -8457 218 0
8458 8457 -218 0
-8459 8458 220 0
-8459 -8458 -220 0
8459 -8458 220 0
8459 8458 -220 0
-8460 8459 224 0
-8460 -8459 -224 0
8460 -8459 224 0
8460 8459 -224 0
-8461 8460 225 0
-8461 -8460 -225 0
8461 -8460 225 0
8461 8460 -225 0
-8462 8461 226 0
-8462 -8461 -226 0
8462 -8461 226 0
8462 8461 -226 0
-8463 8462 227 0
-8463 -8462 -227 0
8463 -8462 227 0
8463 8462 -227 0
-8464 8463 229 0
-8464 -8463 -229 0
8464 -8463 229 0
8464 8463 -229 0
-8465 8464 231 0
-8465 -8464 -231 0
8465 -8464 231 0
8465 8464 -231 0
-8466 8465 232 0
-8466 -8465 -232 0
8466 -8465 232 0
8466 8465 -232 0
-8467 8466 237 0
-8467 -8466 -237 0
8467 -8466 237 0
8467 8466 -237 0
-8468 8467 239 0
-8468 -8467 -239 0
8468 -8467 239 0
8468 8467 -239 0
-8469 8468 241 0
-8469 -8468 -241 0
8469 -8468 241 0
8469 8468 -241 0
-8470 8469 242 0
-8470 -8469 -242 0
8470 -8469 242 0
8470 8469 -242 0
-8471 8470 244 0
-8471 -8470 -244 0
8471 -8470 244 0
8471 8470 -244 0
-8472 8471 245 0
-8472 -8471 -245 0
8472 -8471 245 0
8472 8471 -245 0
-8473 8472 247 0
-8473 -8472 -247 0
8473 -8472 247 0
8473 8472 -247 0
-8474 8473 248 0
-8474 -8473 -248 0
8474 -8473 248 0
8474 8473 -248 0
-8475 8474 250 0
-8475 -8474 -250 0
8475 -8474 250 0
8475 8474 -250 0
-8476 8475 251 0
-8476 -8475 -251 0
8476 -8475 251 0
8476 8475 -251 0
-8477 8476 252 0
-8477 -8476 -252 0
8477 -8476 252 0
8477 8476 -252 0
-8478 8477 253 0
-8478 -8477 -253 0
8478 -8477 253 0
8478 8477 -253 0
-8479 8478 256 0
-8479 -8478 -256 0
8479 -8478 256 0
8479 8478 -256 0
-8480 8479 257 0
-8480 -8479 -257 0
8480 -8479 257 0
8480 8479 -257 0
-8481 8480 259 0
-8481 -8480 -259 0
8481 -8480 259 0
8481 8480 -259 0
-8482 8481 261 0
-8482 -8481 -261 0
8482 -8481 261 0
8482 8481 -261 0
-8483 8482 266 0
-8483 -8482 -266 0
8483 -8482 266 0
8483 8482 -266 0
-8484 8483 267 0
-8484 -8483 -267 0
8484 -8483 267 0
8484 8483 -267 0
-8485 8484 269 0
-8485 -8484 -269 0
8485 -8484 269 0
8485 8484 -269 0
-8486 8485 271 0
-8486 -8485 -271 0
8486 -8485 271 0
8486 8485 -271 0
-8487 8486 273 0
-8487 -8486 -273 0
8487 -8486 273 0
8487 8486 -273 0
-8488 8487 274 0
-8488 -8487 -274 0
8488 -8487 274 0
8488 8487 -274 0
-8413 8488 0
8413 -8488 0
-8490 3 4 0
-8490 -3 -4 0
8490 -3 4 0
8490 3 -4 0
-8491 8490 5 0
-8491 -8490 -5 0
8491 -8490 5 0
8491 8490 -5 0
-8492 8491 6 0
-8492 -8491 -6 0
8492 -8491 6 0
8492 8491 -6 0
-8493 8492 7 0
-8493 -8492 -7 0
8493 -8492 7 0
8493 8492 -7 0
-8494 8493 73 0
-8494 -8493 -73 0
8494 -8493 73 0
8494 8493 -73 0
-8495 8494 145 0
-8495 -8494 -145 0
8495 -8494 145 0
8495 8494 -145 0
-8496 8495 148 0
-8496 -8495 -148 0
8496 -8495 148 0
8496 8495 -148 0
-8497 8496 151 0
-8497 -8496 -151 0
8497 -8496 151 0
8497 8496 -151 0
-8498 8497 155 0
-8498 -8497 -155 0
8498 -8497 155 0
8498 8497 -155 0
-8499 8498 156 0
-8499 -8498 -156 0
8499 -8498 156 0
8499 8498 -156 0
-8500 8499 157 0
-8500 -8499 -157 0
8500 -8499 157 0
8500 8499 -157 0
-8501 8500 158 0
-8501 -8500 -158 0
8501 -8500 158 0
8501 8500 -158 0
-8502 8501 160 0
-8502 -8501 -160 0
8502 -8501 160 0
8502 8501 -160 0
-8503 8502 161 0
-8503 -8502 -161 0
8503 -8502 161 0
8503 8502 -161 0
-8504 8503 165 0
-8504 -8503 -165 0
8504 -8503 165 0
8504 8503 -165 0
-8505 8504 167 0
-8505 -8504 -167 0
8505 -8504 167 0
8505 8504 -167 0
-8506 8505 168 0
-8506 -8505 -168 0
8506 -8505 168 0
8506 8505 -168 0
-8507 8506 169 0
-8507 -8506 -169 0
8507 -8506 169 0
8507 8506 -169 0
-8508 8507 171 0
-8508 -8507 -171 0
8508 -8507 171 0
8508 8507 -171 0
-8509 8508 173 0
-8509 -8508 -173 0
8509 -8508 173 0
8509 8508 -173 0
-8510 8509 174 0
-8510 -8509 -174 0
8510 -8509 174 0
8510 8509 -174 0
-8511 8510 175 0
-8511 -8510 -175 0
8511 -8510 175 0
8511 8510 -175 0
-8512 8511 176 0
-8512 -8511 -176 0
8512 -8511 176 0
8512 8511 -176 0
-8513 8512 177 0
-8513 -8512 -177 0
8513 -8512 177 0
8513 8512 -177 0
-8514 8513 180 0
-8514 -8513 -180 0
8514 -8513 180 0
8514 8513 -180 0
-8515 8514 181 0
-8515 -8514 -181 0
8515 -8514 181 0
8515 8514 -181 0
-8516 8515 183 0
-8516 -8515 -183 0
8516 -8515 183 0
8516 8515 -183 0
-8517 8516 184 0
-8517 -8516 -184 0
8517 -8516 184 0
8517 8516 -184 0
-8518 8517 186 0
-8518 -8517 -186 0
8518 -8517 186 0
8518 8517 -186 0
-8519 8518 187 0
-8519 -8518 -187 0
8519 -8518 187 0
8519 8518 -187 0
-8520 8519 189 0
-8520 -8519 -189 0
8520 -8519 189 0
8520 8519 -189 0
-8521 8520 192 0
-8521 -8520 -192 0
8521 -8520 192 0
8521 8520 -192 0
-8522 8521 193 0
-8522 -8521 -193 0
8522 -8521 193 0
8522 8521 -193 0
-8523 8522 195 0
-8523 -8522 -195 0
8523 -8522 195 0
8523 8522 -195 0
-8524 8523 197 0
-8524 -8523 -197 0
8524 -8523 197 0
8524 8523 -197 0
-8525 8524 198 0
-8525 -8524 -198 0
8525 -8524 198 0
8525 8524 -198 0
-8526 8525 199 0
-8526 -8525 -199 0
8526 -8525 199 0
8526 8525 -199 0
-8527 8526 202 0
-8527 -8526 -202 0
8527 -8526 202 0
8527 8526 -202 0
-8528 8527 204 0
-8528 -8527 -204 0
8528 -8527 204 0
8528 8527 -204 0
-8529 8528 205 0
-8529 -8528 -205 0
8529 -8528 205 0
8529 8528 -205 0
-8530 8529 206 0
-8530 -8529 -206 0
8530 -8529 206 0
8530 8529 -206 0
-8531 8530 208 0
-8531 -8530 -208 0
8531 -8530 208 0
8531 8530 -208 0
-8532 8531 214 0
-8532 -8531 -214 0
8532 -8531 214 0
8532 8531 -214 0
-8533 8532 218 0
-8533 -8532 -218 0
8533 -8532 218 0
8533 8532 -218 0
-8534 8533 223 0
-8534 -8533 -223 0
8534 -8533 223 0
8534 8533 -223 0
-8535 8534 228 0
-8535 -8534 -228 0
8535 -8534 228 0
8535 8534 -228 0
-8536 8535 229 0
-8536 -8535 -229 0
8536 -8535 229 0
8536 8535 -229 0
-8537 8536 231 0
-8537 -8536 -231 0
8537 -8536 231 0
8537 8536 -231 0
-8538 8537 232 0
-8538 -8537 -232 0
8538 -8537 232 0
8538 8537 -232 0
-8539 8538 234 0
-8539 -8538 -234 0
8539 -8538 234 0
8539 8538 -234 0
-8540 8539 235 0
-8540 -8539 -235 0
8540 -8539 235 0
8540 8539 -235 0
-8541 8540 237 0
-8541 -8540 -237 0
8541 -8540 237 0
8541 8540 -237 0
-8542 8541 238 0
-8542 -8541 -238 0
8542 -8541 238 0
8542 8541 -238 0
-8543 8542 239 0
-8543 -8542 -239 0
8543 -8542 239 0
8543 8542 -239 0
-8544 8543 240 0
-8544 -8543 -240 0
8544 -8543 240 0
8544 8543 -240 0
-8545 8544 241 0
-8545 -8544 -241 0
8545 -8544 241 0
8545 8544 -241 0
-8546 8545 242 0
-8546 -8545 -242 0
8546 -8545 242 0
8546 8545 -242 0
-8547 8546 243 0
-8547 -8546 -243 0
8547 -8546 243 0
8547 8546 -243 0
-8548 8547 245 0
-8548 -8547 -245 0
8548 -8547 245 0
8548 8547 -245 0
-8549 8548 246 0
-8549 -8548 -246 0
8549 -8548 246 0
8549 8548 -246 0
-8550 8549 248 0
-8550 -8549 -248 0
8550 -8549 248 0
8550 8549 -248 0
-8551 8550 251 0
-8551 -8550 -251 0
8551 -8550 251 0
8551 8550 -251 0
-8552 8551 252 0
-8552 -8551 -252 0
8552 -8551 252 0
8552 8551 -252 0
-8553 8552 254 0
-8553 -8552 -254 0
8553 -8552 254 0
8553 8552 -254 0
-8554 8553 255 0
-8554 -8553 -255 0
8554 -8553 255 0
8554 8553 -255 0
-8555 8554 257 0
-8555 -8554 -257 0
8555 -8554 257 0
8555 8554 -257 0
-8556 8555 260 0
-8556 -8555 -260 0
8556 -8555 260 0
8556 8555 -260 0
-8557 8556 261 0
-8557 -8556 -261 0
8557 -8556 261 0
8557 8556 -261 0
-8558 8557 263 0
-8558 -8557 -263 0
8558 -8557 263 0
8558 8557 -263 0
-8559 8558 265 0
-8559 -8558 -265 0
8559 -8558 265 0
8559 8558 -265 0
-8560 8559 268 0
-8560 -8559 -268 0
8560 -8559 268 0
8560 8559 -268 0
-8561 8560 269 0
-8561 -8560 -269 0
8561 -8560 269 0
8561 8560 -269 0
-8562 8561 270 0
-8562 -8561 -270 0
8562 -8561 270 0
8562 8561 -270 0
-8563 8562 272 0
-8563 -8562 -272 0
8563 -8562 272 0
8563 8562 -272 0
-8564 8563 273 0
-8564 -8563 -273 0
8564 -8563 273 0
8564 8563 -273 0
-8489 8564 0
8489 -8564 0
-8566 1 4 0
-8566 -1 -4 0
8566 -1 4 0
8566 1 -4 0
-8567 8566 5 0
-8567 -8566 -5 0
8567 -8566 5 0
8567 8566 -5 0
-8568 8567 6 0
-8568 -8567 -6 0
8568 -8567 6 0
8568 8567 -6 0
-8569 8568 8 0
-8569 -8568 -8 0
8569 -8568 8 0
8569 8568 -8 0
-8570 8569 74 0
-8570 -8569 -74 0
8570 -8569 74 0
8570 8569 -74 0
-8571 8570 145 0
-8571 -8570 -145 0
8571 -8570 145 0
8571 8570 -145 0
-8572 8571 148 0
-8572 -8571 -148 0
8572 -8571 148 0
8572 8571 -148 0
-8573 8572 154 0
-8573 -8572 -154 0
8573 -8572 154 0
8573 8572 -154 0
-8574 8573 155 0
-8574 -8573 -155 0
8574 -8573 155 0
8574 8573 -155 0
-8575 8574 156 0
-8575 -8574 -156 0
8575 -8574 156 0
8575 8574 -156 0
-8576 8575 157 0
-8576 -8575 -157 0
8576 -8575 157 0
8576 8575 -157 0
-8577 8576 159 0
-8577 -8576 -159 0
8577 -8576 159 0
8577 8576 -159 0
-8578 8577 160 0
-8578 -8577 -160 0
8578 -8577 160 0
8578 8577 -160 0
-8579 8578 162 0
-8579 -8578 -162 0
8579 -8578 162 0
8579 8578 -162 0
-8580 8579 164 0
-8580 -8579 -164 0
8580 -8579 164 0
8580 8579 -164 0
-8581 8580 167 0
-8581 -8580 -167 0
8581 -8580 167 0
8581 8580 -167 0
-8582 8581 168 0
-8582 -8581 -168 0
8582 -8581 168 0
8582 8581 -168 0
-8583 8582 173 0
-8583 -8582 -173 0
8583 -8582 173 0
8583 8582 -173 0
-8584 8583 174 0
-8584 -8583 -174 0
8584 -8583 174 0
8584 8583 -174 0
-8585 8584 177 0
-8585 -8584 -177 0
8585 -8584 177 0
8585 8584 -177 0
-8586 8585 179 0
-8586 -8585 -179 0
8586 -8585 179 0
8586 8585 -179 0
-8587 8586 191 0
-8587 -8586 -191 0
8587 -8586 191 0
8587 8586 -191 0
-8588 8587 197 0
-8588 -8587 -197 0
8588 -8587 197 0
8588 8587 -197 0
-8589 8588 198 0
-8589 -8588 -198 0
8589 -8588 198 0
8589 8588 -198 0
-8590 8589 202 0
-8590 -8589 -202 0
8590 -8589 202 0
8590 8589 -202 0
-8591 8590 205 0
-8591 -8590 -205 0
8591 -8590 205 0
8591 8590 -205 0
-8592 8591 207 0
-8592 -8591 -207 0
8592 -8591 207 0
8592 8591 -207 0
-8593 8592 208 0
-8593 -8592 -208 0
8593 -8592 208 0
8593 8592 -208 0
-8594 8593 211 0
-8594 -8593 -211 0
8594 -8593 211 0
8594 8593 -211 0
-8595 8594 212 0
-8595 -8594 -212 0
8595 -8594 212 0
8595 8594 -212 0
-8596 8595 214 0
-8596 -8595 -214 0
8596 -8595 214 0
8596 8595 -214 0
-8597 8596 219 0
-8597 -8596 -219 0
8597 -8596 219 0
8597 8596 -219 0
-8598 8597 223 0
-8598 -8597 -223 0
8598 -8597 223 0
8598 8597 -223 0
-8599 8598 224 0
-8599 -8598 -224 0
8599 -8598 224 0
8599 8598 -224 0
-8600 8599 229 0
-8600 -8599 -229 0
8600 -8599 229 0
8600 8599 -229 0
-8601 8600 230 0
-8601 -8600 -230 0
8601 -8600 230 0
8601 8600 -230 0
-8602 8601 232 0
-8602 -8601 -232 0
8602 -8601 232 0
8602 8601 -232 0
-8603 8602 233 0
-8603 -8602 -233 0
8603 -8602 233 0
8603 8602 -233 0
-8604 8603 235 0
-8604 -8603 -235 0
8604 -8603 235 0
8604 8603 -235 0
-8605 8604 236 0
-8605 -8604 -236 0
8605 -8604 236 0
8605 8604 -236 0
-8606 8605 238 0
-8606 -8605 -238 0
8606 -8605 238 0
8606 8605 -238 0
-8607 8606 239 0
-8607 -8606 -239 0
8607 -8606 239 0
8607 8606 -239 0
-8608 8607 240 0
-8608 -8607 -240 0
8608 -8607 240 0
8608 8607 -240 0
-8609 8608 241 0
-8609 -8608 -241 0
8609 -8608 241 0
8609 8608 -241 0
-8610 8609 242 0
-8610 -8609 -242 0
8610 -8609 242 0
8610 8609 -242 0
-8611 8610 243 0
-8611 -8610 -243 0
8611 -8610 243 0
8611 8610 -243 0
-8612 8611 244 0
-8612 -8611 -244 0
8612 -8611 244 0
8612 8611 -244 0
-8613 8612 246 0
-8613 -8612 -246 0
8613 -8612 246 0
8613 8612 -246 0
-8614 8613 247 0
-8614 -8613 -247 0
8614 -8613 247 0
8614 8613 -247 0
-8615 8614 249 0
-8615 -8614 -249 0
8615 -8614 249 0
8615 8614 -249 0
-8616 8615 252 0
-8616 -8615 -252 0
8616 -8615 252 0
8616 8615 -252 0
-8617 8616 255 0
-8617 -8616 -255 0
8617 -8616 255 0
8617 8616 -255 0
-8618 8617 256 0
-8618 -8617 -256 0
8618 -8617 256 0
8618 8617 -256 0
-8619 8618 258 0
-8619 -8618 -258 0
8619 -8618 258 0
8619 8618 -258 0
-8620 8619 261 0
-8620 -8619 -261 0
8620 -8619 261 0
8620 8619 -261 0
-8621 8620 262 0
-8621 -8620 -262 0
8621 -8620 262 0
8621 8620 -262 0
-8622 8621 264 0
-8622 -8621 -264 0
8622 -8621 264 0
8622 8621 -264 0
-8623 8622 265 0
-8623 -8622 -265 0
8623 -8622 265 0
8623 8622 -265 0
-8624 8623 266 0
-8624 -8623 -266 0
8624 -8623 266 0
8624 8623 -266 0
-8625 8624 269 0
-8625 -8624 -269 0
8625 -8624 269 0
8625 8624 -269 0
-8626 8625 270 0
-8626 -8625 -270 0
8626 -8625 270 0
8626 8625 -270 0
-8627 8626 273 0
-8627 -8626 -273 0
8627 -8626 273 0
8627 8626 -273 0
-8628 8627 274 0
-8628 -8627 -274 0
8628 -8627 274 0
8628 8627 -274 0
-8565 8628 0
8565 -8628 0
7729 7777 7825 7897 7945 7993 8041 8053 8065 8143 8213 8283 8363 8413 8489 8565 0
289 0
-289 8629 0
-8629 8630 0
-290 -8629 8631 0
-8631 8632 0
-291 -8631 8633 0
-8633 8634 0
-292 -8633 8635 0
-8635 8636 0
-293 -8635 8637 0
-8637 8638 0
-294 -8637 8639 0
-8639 8640 0
-295 -8639 8641 0
-8641 8642 0
-296 -8641 0
-290 8630 0
-8630 8643 0
-291 -8630 8632 0
-8632 8644 0
-292 -8632 8634 0
-8634 8645 0
-293 -8634 8636 0
-8636 8646 0
-294 -8636 8638 0
-8638 8647 0
-295 -8638 8640 0
-8640 8648 0
-296 -8640 8642 0
-8642 8649 0
-297 -8642 0
-291 8643 0
-8643 8650 0
-292 -8643 8644 0
-8644 8651 0
-293 -8644 8645 0
-8645 8652 0
-294 -8645 8646 0
-8646 8653 0
-295 -8646 8647 0
-8647 8654 0
-296 -8647 8648 0
-8648 8655 0
-297 -8648 8649 0
-8649 8656 0
-298 -8649 0
-292 8650 0
-8650 8657 0
-293 -8650 8651 0
-8651 8658 0
-294 -8651 8652 0
-8652 8659 0
-295 -8652 8653 0
-8653 8660 0
-296 -8653 8654 0
-8654 8661 0
-297 -8654 8655 0
-8655 8662 0
-298 -8655 8656 0
-8656 8663 0
-299 -8656 0
-293 8657 0
-8657 8664 0
-294 -8657 8658 0
-8658 8665 0
-295 -8658 8659 0
-8659 8666 0
-296 -8659 8660 0
-8660 8667 0
-297 -8660 8661 0
-8661 8668 0
-298 -8661 8662 0
-8662 8669 0
-299 -8662 8663 0
-8663 8670 0
-300 -8663 0
-294 8664 0
-8664 8671 0
-295 -8664 8665 0
-8665 8672 0
-296 -8665 8666 0
-8666 8673 0
-297 -8666 8667 0
-8667 8674 0
-298 -8667 8668 0
-8668 8675 0
-299 -8668 8669 0
-8669 8676 0
-300 -8669 8670 0
-8670 8677 0
-301 -8670 0
-295 8671 0
-8671 8678 0
-296 -8671 8672 0
-8672 8679 0
-297 -8672 8673 0
-8673 8680 0
-298 -8673 8674 0
-8674 8681 0
-299 -8674 8675 0
-8675 8682 0
-300 -8675 8676 0
-8676 8683 0
-301 -8676 8677 0
-8677 8684 0
-302 -8677 0
-296 8678 0
-8678 8685 0
-297 -8678 8679 0
-8679 8686 0
-298 -8679 8680 0
-8680 8687 0
-299 -8680 8681 0
-8681 8688 0
-300 -8681 8682 0
-8682 8689 0
-301 -8682 8683 0
-8683 8690 0
-302 -8683 8684 0
-8684 8691 0
-303 -8684 0
-297 8685 0
-8685 8692 0
-298 -8685 8686 0
-8686 8693 0
-299 -8686 8687 0
-8687 8694 0
-300 -8687 8688 0
-8688 8695 0
-301 -8688 8689 0
-8689 8696 0
-302 -8689 8690 0
-8690 8697 0
-303 -8690 8691 0
-8691 8698 0
-304 -8691 0
-298 8692 0
-8692 8699 0
-299 -8692 8693 0
-8693 8700 0
-300 -8693 8694 0
-8694 8701 0
-301 -8694 8695 0
-8695 8702 0
-302 -8695 8696 0
-8696 8703 0
-303 -8696 8697 0
-8697 8704 0
-304 -8697 8698 0
-8698 8705 0
-305 -8698 0
-299 8699 0
-8699 8706 0
-300 -8699 8700 0
-8700 8707 0
-301 -8700 8701 0
-8701 8708 0
-302 -8701 8702 0
-8702 8709 0
-303 -8702 8703 0
-8703 8710 0
-304 -8703 8704 0
-8704 8711 0
-305 -8704 8705 0
-8705 8712 0
-306 -8705 0
-300 8706 0
-8706 8713 0
-301 -8706 8707 0
-8707 8714 0
-302 -8707 8708 0
-8708 8715 0
-303 -8708 8709 0
-8709 8716 0
-304 -8709 8710 0
-8710 8717 0
-305 -8710 8711 0
-8711 8718 0
-306 -8711 8712 0
-8712 8719 0
-307 -8712 0
-301 8713 0
-8713 8720 0
-302 -8713 8714 0
-8714 8721 0
-303 -8714 8715 0
-8715 8722 0
-304 -8715 8716 0
-8716 8723 0
-305 -8716 8717 0
-8717 8724 0
-306 -8717 8718 0
-8718 8725 0
-307 -8718 8719 0
-8719 8726 0
-308 -8719 0
-302 8720 0
-8720 8727 0
-303 -8720 8721 0
-8721 8728 0
-304 -8721 8722 0
-8722 8729 0
-305 -8722 8723 0
-8723 8730 0
-306 -8723 8724 0
-8724 8731 0
-307 -8724 8725 0
-8725 8732 0
-308 -8725 8726 0
-8726 8733 0
-309 -8726 0
-303 8727 0
-8727 8734 0
-304 -8727 8728 0
-8728 8735 0
-305 -8728 8729 0
-8729 8736 0
-306 -8729 8730 0
-8730 8737 0
-307 -8730 8731 0
-8731 8738 0
-308 -8731 8732 0
-8732 8739 0
-309 -8732 8733 0
-8733 8740 0
-310 -8733 0
-304 8734 0
-8734 8741 0
-305 -8734 8735 0
-8735 8742 0
-306 -8735 8736 0
-8736 8743 0
-307 -8736 8737 0
-8737 8744 0
-308 -8737 8738 0
-8738 8745 0
-309 -8738 8739 0
-8739 8746 0
-310 -8739 8740 0
-8740 8747 0
-311 -8740 0
-305 8741 0
-8741 8748 0
-306 -8741 8742 0
-8742 8749 0
-307 -8742 8743 0
-8743 8750 0
-308 -8743 8744 0
-8744 8751 0
-309 -8744 8745 0
-8745 8752 0
-310 -8745 8746 0
-8746 8753 0
-311 -8746 8747 0
-8747 8754 0
-312 -8747 0
-306 8748 0
-8748 8755 0
-307 -8748 8749 0
-8749 8756 0
-308 -8749 8750 0
-8750 8757 0
-309 -8750 8751 0
-8751 8758 0
-310 -8751 8752 0
-8752 8759 0
-311 -8752 8753 0
-8753 8760 0
-312 -8753 8754 0
-8754 8761 0
-313 -8754 0
-307 8755 0
-8755 8762 0
-308 -8755 8756 0
-8756 8763 0
-309 -8756 8757 0
-8757 8764 0
-310 -8757 8758 0
-8758 8765 0
-311 -8758 8759 0
-8759 8766 0
-312 -8759 8760 0
-8760 8767 0
-313 -8760 8761 0
-8761 8768 0
-314 -8761 0
-308 8762 0
-8762 8769 0
-309 -8762 8763 0
-8763 8770 0
-310 -8763 8764 0
-8764 8771 0
-311 -8764 8765 0
-8765 8772 0
-312 -8765 8766 0
-8766 8773 0
-313 -8766 8767 0
-8767 8774 0
-314 -8767 8768 0
-8768 8775 0
-315 -8768 0
-309 8769 0
-8769 8776 0
-310 -8769 8770 0
-8770 8777 0
-311 -8770 8771 0
-8771 8778 0
-312 -8771 8772 0
-8772 8779 0
-313 -8772 8773 0
-8773 8780 0
-314 -8773 8774 0
-8774 8781 0
-315 -8774 8775 0
-8775 8782 0
-316 -8775 0
-310 8776 0
-8776 8783 0
-311 -8776 8777 0
-8777 8784 0
-312 -8777 8778 0
-8778 8785 0
-313 -8778 8779 0
-8779 8786 0
-314 -8779 8780 0
-8780 8787 0
-315 -8780 8781 0
-8781 8788 0
-316 -8781 8782 0
-8782 8789 0
-317 -8782 0
-311 8783 0
-8783 8790 0
-312 -8783 8784 0
-8784 8791 0
-313 -8784 8785 0
-8785 8792 0
-314 -8785 8786 0
-8786 8793 0
-315 -8786 8787 0
-8787 8794 0
-316 -8787 8788 0
-8788 8795 0
-317 -8788 8789 0
-8789 8796 0
-318 -8789 0
-312 8790 0
-8790 8797 0
-313 -8790 8791 0
-8791 8798 0
-314 -8791 8792 0
-8792 8799 0
-315 -8792 8793 0
-8793 8800 0
-316 -8793 8794 0
-8794 8801 0
-317 -8794 8795 0
-8795 8802 0
-318 -8795 8796 0
-8796 8803 0
-319 -8796 0
-313 8797 0
-8797 8804 0
-314 -8797 8798 0
-8798 8805 0
-315 -8798 8799 0
-8799 8806 0
-316 -8799 8800 0
-8800 8807 0
-317 -8800 8801 0
-8801 8808 0
-318 -8801 8802 0
-8802 8809 0
-319 -8802 8803 0
-8803 8810 0
-320 -8803 0
-314 8804 0
-8804 8811 0
-315 -8804 8805 0
-8805 8812 0
-316 -8805 8806 0
-8806 8813 0
-317 -8806 8807 0
-8807 8814 0
-318 -8807 8808 0
-8808 8815 0
-319 -8808 8809 0
-8809 8816 0
-320 -8809 8810 0
-8810 8817 0
-321 -8810 0
-315 8811 0
-8811 8818 0
-316 -8811 8812 0
-8812 8819 0
-317 -8812 8813 0
-8813 8820 0
-318 -8813 8814 0
-8814 8821 0
-319 -8814 8815 0
-8815 8822 0
-320 -8815 8816 0
-8816 8823 0
-321 -8816 8817 0
-8817 8824 0
-322 -8817 0
-316 8818 0
-8818 8825 0
-317 -8818 8819 0
-8819 8826 0
-318 -8819 8820 0
-8820 8827 0
-319 -8820 8821 0
-8821 8828 0
-320 -8821 8822 0
-8822 8829 0
-321 -8822 8823 0
-8823 8830 0
-322 -8823 8824 0
-8824 8831 0
-323 -8824 0
-317 8825 0
-8825 8832 0
-318 -8825 8826 0
-8826 8833 0
-319 -8826 8827 0
-8827 8834 0
-320 -8827 8828 0
-8828 8835 0
-321 -8828 8829 0
-8829 8836 0
-322 -8829 8830 0
-8830 8837 0
-323 -8830 8831 0
-8831 8838 0
-324 -8831 0
-318 8832 0
-8832 8839 0
-319 -8832 8833 0
-8833 8840 0
-320 -8833 8834 0
-8834 8841 0
-321 -8834 8835 0
-8835 8842 0
-322 -8835 8836 0
-8836 8843 0
-323 -8836 8837 0
-8837 8844 0
-324 -8837 8838 0
-8838 8845 0
-325 -8838 0
-319 8839 0
-8839 8846 0
-320 -8839 8840 0
-8840 8847 0
-321 -8840 8841 0
-8841 8848 0
-322 -8841 8842 0
-8842 8849 0
-323 -8842 8843 0
-8843 8850 0
-324 -8843 8844 0
-8844 8851 0
-325 -8844 8845 0
-8845 8852 0
-326 -8845 0
-320 8846 0
-8846 8853 0
-321 -8846 8847 0
-8847 8854 0
-322 -8847 8848 0
-8848 8855 0
-323 -8848 8849 0
-8849 8856 0
-324 -8849 8850 0
-8850 8857 0
-325 -8850 8851 0
-8851 8858 0
-326 -8851 8852 0
-8852 8859 0
-327 -8852 0
-321 8853 0
-8853 8860 0
-322 -8853 8854 0
-8854 8861 0
-323 -8854 8855 0
-8855 8862 0
-324 -8855 8856 0
-8856 8863 0
-325 -8856 8857 0
-8857 8864 0
-326 -8857 8858 0
-8858 8865 0
-327 -8858 8859 0
-8859 8866 0
-328 -8859 0
-322 8860 0
-8860 8867 0
-323 -8860 8861 0
-8861 8868 0
-324 -8861 8862 0
-8862 8869 0
-325 -8862 8863 0
-8863 8870 0
-326 -8863 8864 0
-8864 8871 0
-327 -8864 8865 0
-8865 8872 0
-328 -8865 8866 0
-8866 8873 0
-329 -8866 0
-323 8867 0
-8867 8874 0
-324 -8867 8868 0
-8868 8875 0
-325 -8868 8869 0
-8869 8876 0
-326 -8869 8870 0
-8870 8877 0
-327 -8870 8871 0
-8871 8878 0
-328 -8871 8872 0
-8872 8879 0
-329 -8872 8873 0
-8873 8880 0
-330 -8873 0
-324 8874 0
-8874 8881 0
-325 -8874 8875 0
-8875 8882 0
-326 -8875 8876 0
-8876 8883 0
-327 -8876 8877 0
-8877 8884 0
-328 -8877 8878 0
-8878 8885 0
-329 -8878 8879 0
-8879 8886 0
-330 -8879 8880 0
-8880 8887 0
-331 -8880 0
-325 8881 0
-8881 8888 0
-326 -8881 8882 0
-8882 8889 0
-327 -8882 8883 0
-8883 8890 0
-328 -8883 8884 0
-8884 8891 0
-329 -8884 8885 0
-8885 8892 0
-330 -8885 8886 0
-8886 8893 0
-331 -8886 8887 0
-8887 8894 0
-332 -8887 0
-326 8888 0
-8888 8895 0
-327 -8888 8889 0
-8889 8896 0
-328 -8889 8890 0
-8890 8897 0
-329 -8890 8891 0
-8891 8898 0
-330 -8891 8892 0
-8892 8899 0
-331 -8892 8893 0
-8893 8900 0
-332 -8893 8894 0
-8894 8901 0
-333 -8894 0
-327 8895 0
-8895 8902 0
-328 -8895 8896 0
-8896 8903 0
-329 -8896 8897 0
-8897 8904 0
-330 -8897 8898 0
-8898 8905 0
-331 -8898 8899 0
-8899 8906 0
-332 -8899 8900 0
-8900 8907 0
-333 -8900 8901 0
-8901 8908 0
-334 -8901 0
-328 8902 0
-8902 8909 0
-329 -8902 8903 0
-8903 8910 0
-330 -8903 8904 0
-8904 8911 0
-331 -8904 8905 0
-8905 8912 0
-332 -8905 8906 0
-8906 8913 0
-333 -8906 8907 0
-8907 8914 0
-334 -8907 8908 0
-8908 8915 0
-335 -8908 0
-329 8909 0
-8909 8916 0
-330 -8909 8910 0
-8910 8917 0
-331 -8910 8911 0
-8911 8918 0
-332 -8911 8912 0
-8912 8919 0
-333 -8912 8913 0
-8913 8920 0
-334 -8913 8914 0
-8914 8921 0
-335 -8914 8915 0
-8915 8922 0
-336 -8915 0
-330 8916 0
-8916 8923 0
-331 -8916 8917 0
-8917 8924 0
-332 -8917 8918 0
-8918 8925 0
-333 -8918 8919 0
-8919 8926 0
-334 -8919 8920 0
-8920 8927 0
-335 -8920 8921 0
-8921 8928 0
-336 -8921 8922 0
-8922 8929 0
-337 -8922 0
-331 8923 0
-8923 8930 0
-332 -8923 8924 0
-8924 8931 0
-333 -8924 8925 0
-8925 8932 0
-334 -8925 8926 0
-8926 8933 0
-335 -8926 8927 0
-8927 8934 0
-336 -8927 8928 0
-8928 8935 0
-337 -8928 8929 0
-8929 8936 0
-338 -8929 0
-332 8930 0
-8930 8937 0
-333 -8930 8931 0
-8931 8938 0
-334 -8931 8932 0
-8932 8939 0
-335 -8932 8933 0
-8933 8940 0
-336 -8933 8934 0
-8934 8941 0
-337 -8934 8935 0
-8935 8942 0
-338 -8935 8936 0
-8936 8943 0
-339 -8936 0
-333 8937 0
-8937 8944 0
-334 -8937 8938 0
-8938 8945 0
-335 -8938 8939 0
-8939 8946 0
-336 -8939 8940 0
-8940 8947 0
-337 -8940 8941 0
-8941 8948 0
-338 -8941 8942 0
-8942 8949 0
-339 -8942 8943 0
-8943 8950 0
-340 -8943 0
-334 8944 0
-8944 8951 0
-335 -8944 8945 0
-8945 8952 0
-336 -8945 8946 0
-8946 8953 0
-337 -8946 8947 0
-8947 8954 0
-338 -8947 8948 0
-8948 8955 0
-339 -8948 8949 0
-8949 8956 0
-340 -8949 8950 0
-8950 8957 0
-341 -8950 0
-335 8951 0
-8951 8958 0
-336 -8951 8952 0
-8952 8959 0
-337 -8952 8953 0
-8953 8960 0
-338 -8953 8954 0
-8954 8961 0
-339 -8954 8955 0
-8955 8962 0
-340 -8955 8956 0
-8956 8963 0
-341 -8956 8957 0
-8957 8964 0
-342 -8957 0
-336 8958 0
-8958 8965 0
-337 -8958 8959 0
-8959 8966 0
-338 -8959 8960 0
-8960 8967 0
-339 -8960 8961 0
-8961 8968 0
-340 -8961 8962 0
-8962 8969 0
-341 -8962 8963 0
-8963 8970 0
-342 -8963 8964 0
-8964 8971 0
-343 -8964 0
-337 8965 0
-8965 8972 0
-338 -8965 8966 0
-8966 8973 0
-339 -8966 8967 0
-8967 8974 0
-340 -8967 8968 0
-8968 8975 0
-341 -8968 8969 0
-8969 8976 0
-342 -8969 8970 0
-8970 8977 0
-343 -8970 8971 0
-8971 8978 0
-344 -8971 0
-338 8972 0
-8972 8979 0
-339 -8972 8973 0
-8973 8980 0
-340 -8973 8974 0
-8974 8981 0
-341 -8974 8975 0
-8975 8982 0
-342 -8975 8976 0
-8976 8983 0
-343 -8976 8977 0
-8977 8984 0
-344 -8977 8978 0
-8978 8985 0
-345 -8978 0
-339 8979 0
-8979 8986 0
-340 -8979 8980 0
-8980 8987 0
-341 -8980 8981 0
-8981 8988 0
-342 -8981 8982 0
-8982 8989 0
-343 -8982 8983 0
-8983 8990 0
-344 -8983 8984 0
-8984 8991 0
-345 -8984 8985 0
-8985 8992 0
-346 -8985 0
-340 8986 0
-8986 8993 0
-341 -8986 8987 0
-8987 8994 0
-342 -8987 8988 0
-8988 8995 0
-343 -8988 8989 0
-8989 8996 0
-344 -8989 8990 0
-8990 8997 0
-345 -8990 8991 0
-8991 8998 0
-346 -8991 8992 0
-8992 8999 0
-347 -8992 0
-341 8993 0
-8993 9000 0
-342 -8993 8994 0
-8994 9001 0
-343 -8994 8995 0
-8995 9002 0
-344 -8995 8996 0
-8996 9003 0
-345 -8996 8997 0
-8997 9004 0
-346 -8997 8998 0
-8998 9005 0
-347 -8998 8999 0
-8999 9006 0
-348 -8999 0
-342 9000 0
-9000 9007 0
-343 -9000 9001 0
-9001 9008 0
-344 -9001 9002 0
-9002 9009 0
-345 -9002 9003 0
-9003 9010 0
-346 -9003 9004 0
-9004 9011 0
-347 -9004 9005 0
-9005 9012 0
-348 -9005 9006 0
-9006 9013 0
-349 -9006 0
-343 9007 0
-9007 9014 0
-344 -9007 9008 0
-9008 9015 0
-345 -9008 9009 0
-9009 9016 0
-346 -9009 9010 0
-9010 9017 0
-347 -9010 9011 0
-9011 9018 0
-348 -9011 9012 0
-9012 9019 0
-349 -9012 9013 0
-9013 9020 0
-350 -9013 0
-344 9014 0
-9014 9021 0
-345 -9014 9015 0
-9015 9022 0
-346 -9015 9016 0
-9016 9023 0
-347 -9016 9017 0
-9017 9024 0
-348 -9017 9018 0
-9018 9025 0
-349 -9018 9019 0
-9019 9026 0
-350 -9019 9020 0
-9020 9027 0
-351 -9020 0
-345 9021 0
-9021 9028 0
-346 -9021 9022 0
-9022 9029 0
-347 -9022 9023 0
-9023 9030 0
-348 -9023 9024 0
-9024 9031 0
-349 -9024 9025 0
-9025 9032 0
-350 -9025 9026 0
-9026 9033 0
-351 -9026 9027 0
-9027 9034 0
-352 -9027 0
-346 9028 0
-9028 9035 0
-347 -9028 9029 0
-9029 9036 0
-348 -9029 9030 0
-9030 9037 0
-349 -9030 9031 0
-9031 9038 0
-350 -9031 9032 0
-9032 9039 0
-351 -9032 9033 0
-9033 9040 0
-352 -9033 9034 0
-9034 9041 0
-353 -9034 0
-347 9035 0
-9035 9042 0
-348 -9035 9036 0
-9036 9043 0
-349 -9036 9037 0
-9037 9044 0
-350 -9037 9038 0
-9038 9045 0
-351 -9038 9039 0
-9039 9046 0
-352 -9039 9040 0
-9040 9047 0
-353 -9040 9041 0
-9041 9048 0
-354 -9041 0
-348 9042 0
-9042 9049 0
-349 -9042 9043 0
-9043 9050 0
-350 -9043 9044 0
-9044 9051 0
-351 -9044 9045 0
-9045 9052 0
-352 -9045 9046 0
-9046 9053 0
-353 -9046 9047 0
-9047 9054 0
-354 -9047 9048 0
-9048 9055 0
-355 -9048 0
-349 9049 0
-9049 9056 0
-350 -9049 9050 0
-9050 9057 0
-351 -9050 9051 0
-9051 9058 0
-352 -9051 9052 0
-9052 9059 0
-353 -9052 9053 0
-9053 9060 0
-354 -9053 9054 0
-9054 9061 0
-355 -9054 9055 0
-9055 9062 0
-356 -9055 0
-350 9056 0
-9056 9063 0
-351 -9056 9057 0
-9057 9064 0
-352 -9057 9058 0
-9058 9065 0
-353 -9058 9059 0
-9059 9066 0
-354 -9059 9060 0
-9060 9067 0
-355 -9060 9061 0
-9061 9068 0
-356 -9061 9062 0
-9062 9069 0
-357 -9062 0
-351 9063 0
-9063 9070 0
-352 -9063 9064 0
-9064 9071 0
-353 -9064 9065 0
-9065 9072 0
-354 -9065 9066 0
-9066 9073 0
-355 -9066 9067 0
-9067 9074 0
-356 -9067 9068 0
-9068 9075 0
-357 -9068 9069 0
-9069 9076 0
-358 -9069 0
-352 9070 0
-9070 9077 0
-353 -9070 9071 0
-9071 9078 0
-354 -9071 9072 0
-9072 9079 0
-355 -9072 9073 0
-9073 9080 0
-356 -9073 9074 0
-9074 9081 0
-357 -9074 9075 0
-9075 9082 0
-358 -9075 9076 0
-9076 9083 0
-359 -9076 0
-353 9077 0
-9077 9084 0
-354 -9077 9078 0
-9078 9085 0
-355 -9078 9079 0
-9079 9086 0
-356 -9079 9080 0
-9080 9087 0
-357 -9080 9081 0
-9081 9088 0
-358 -9081 9082 0
-9082 9089 0
-359 -9082 9083 0
-9083 9090 0
-360 -9083 0
-354 9084 0
-9084 9091 0
-355 -9084 9085 0
-9085 9092 0
-356 -9085 9086 0
-9086 9093 0
-357 -9086 9087 0
-9087 9094 0
-358 -9087 9088 0
-9088 9095 0
-359 -9088 9089 0
-9089 9096 0
-360 -9089 9090 0
-9090 9097 0
-361 -9090 0
-355 9091 0
-9091 9098 0
-356 -9091 9092 0
-9092 9099 0
-357 -9092 9093 0
-9093 9100 0
-358 -9093 9094 0
-9094 9101 0
-359 -9094 9095 0
-9095 9102 0
-360 -9095 9096 0
-9096 9103 0
-361 -9096 9097 0
-9097 9104 0
-362 -9097 0
-356 9098 0
-9098 9105 0
-357 -9098 9099 0
-9099 9106 0
-358 -9099 9100 0
-9100 9107 0
-359 -9100 9101 0
-9101 9108 0
-360 -9101 9102 0
-9102 9109 0
-361 -9102 9103 0
-9103 9110 0
-362 -9103 9104 0
-9104 9111 0
-363 -9104 0
-357 9105 0
-9105 9112 0
-358 -9105 9106 0
-9106 9113 0
-359 -9106 9107 0
-9107 9114 0
-360 -9107 9108 0
-9108 9115 0
-361 -9108 9109 0
-9109 9116 0
-362 -9109 9110 0
-9110 9117 0
-363 -9110 9111 0
-9111 9118 0
-364 -9111 0
-358 9112 0
-9112 9119 0
-359 -9112 9113 0
-9113 9120 0
-360 -9113 9114 0
-9114 9121 0
-361 -9114 9115 0
-9115 9122 0
-362 -9115 9116 0
-9116 9123 0
-363 -9116 9117 0
-9117 9124 0
-364 -9117 9118 0
-9118 9125 0
-365 -9118 0
-359 9119 0
-9119 9126 0
-360 -9119 9120 0
-9120 9127 0
-361 -9120 9121 0
-9121 9128 0
-362 -9121 9122 0
-9122 9129 0
-363 -9122 9123 0
-9123 9130 0
-364 -9123 9124 0
-9124 9131 0
-365 -9124 9125 0
-9125 9132 0
-366 -9125 0
-360 9126 0
-9126 9133 0
-361 -9126 9127 0
-9127 9134 0
-362 -9127 9128 0
-9128 9135 0
-363 -9128 9129 0
-9129 9136 0
-364 -9129 9130 0
-9130 9137 0
-365 -9130 9131 0
-9131 9138 0
-366 -9131 9132 0
-9132 9139 0
-367 -9132 0
-361 9133 0
-9133 9140 0
-362 -9133 9134 0
-9134 9141 0
-363 -9134 9135 0
-9135 9142 0
-364 -9135 9136 0
-9136 9143 0
-365 -9136 9137 0
-9137 9144 0
-366 -9137 9138 0
-9138 9145 0
-367 -9138 9139 0
-9139 9146 0
-368 -9139 0
-362 9140 0
-9140 9147 0
-363 -9140 9141 0
-9141 9148 0
-364 -9141 9142 0
-9142 9149 0
-365 -9142 9143 0
-9143 9150 0
-366 -9143 9144 0
-9144 9151 0
-367 -9144 9145 0
-9145 9152 0
-368 -9145 9146 0
-9146 9153 0
-369 -9146 0
-363 9147 0
-9147 9154 0
-364 -9147 9148 0
-9148 9155 0
-365 -9148 9149 0
-9149 9156 0
-366 -9149 9150 0
-9150 9157 0
-367 -9150 9151 0
-9151 9158 0
-368 -9151 9152 0
-9152 9159 0
-369 -9152 9153 0
-9153 9160 0
-370 -9153 0
-364 9154 0
-9154 9161 0
-365 -9154 9155 0
-9155 9162 0
-366 -9155 9156 0
-9156 9163 0
-367 -9156 9157 0
-9157 9164 0
-368 -9157 9158 0
-9158 9165 0
-369 -9158 9159 0
-9159 9166 0
-370 -9159 9160 0
-9160 9167 0
-371 -9160 0
-365 9161 0
-9161 9168 0
-366 -9161 9162 0
-9162 9169 0
-367 -9162 9163 0
-9163 9170 0
-368 -9163 9164 0
-9164 9171 0
-369 -9164 9165 0
-9165 9172 0
-370 -9165 9166 0
-9166 9173 0
-371 -9166 9167 0
-9167 9174 0
-372 -9167 0
-366 9168 0
-9168 9175 0
-367 -9168 9169 0
-9169 9176 0
-368 -9169 9170 0
-9170 9177 0
-369 -9170 9171 0
-9171 9178 0
-370 -9171 9172 0
-9172 9179 0
-371 -9172 9173 0
-9173 9180 0
-372 -9173 9174 0
-9174 9181 0
-373 -9174 0
-367 9175 0
-9175 9182 0
-368 -9175 9176 0
-9176 9183 0
-369 -9176 9177 0
-9177 9184 0
-370 -9177 9178 0
-9178 9185 0
-371 -9178 9179 0
-9179 9186 0
-372 -9179 9180 0
-9180 9187 0
-373 -9180 9181 0
-9181 9188 0
-374 -9181 0
-368 9182 0
-9182 9189 0
-369 -9182 9183 0
-9183 9190 0
-370 -9183 9184 0
-9184 9191 0
-371 -9184 9185 0
-9185 9192 0
-372 -9185 9186 0
-9186 9193 0
-373 -9186 9187 0
-9187 9194 0
-374 -9187 9188 0
-9188 9195 0
-375 -9188 0
-369 9189 0
-9189 9196 0
-370 -9189 9190 0
-9190 9197 0
-371 -9190 9191 0
-9191 9198 0
-372 -9191 9192 0
-9192 9199 0
-373 -9192 9193 0
-9193 9200 0
-374 -9193 9194 0
-9194 9201 0
-375 -9194 9195 0
-9195 9202 0
-376 -9195 0
-370 9196 0
-9196 9203 0
-371 -9196 9197 0
-9197 9204 0
-372 -9197 9198 0
-9198 9205 0
-373 -9198 9199 0
-9199 9206 0
-374 -9199 9200 0
-9200 9207 0
-375 -9200 9201 0
-9201 9208 0
-376 -9201 9202 0
-9202 9209 0
-377 -9202 0
-371 9203 0
-9203 9210 0
-372 -9203 9204 0
-9204 9211 0
-373 -9204 9205 0
-9205 9212 0
-374 -9205 9206 0
-9206 9213 0
-375 -9206 9207 0
-9207 9214 0
-376 -9207 9208 0
-9208 9215 0
-377 -9208 9209 0
-9209 9216 0
-378 -9209 0
-372 9210 0
-9210 9217 0
-373 -9210 9211 0
-9211 9218 0
-374 -9211 9212 0
-9212 9219 0
-375 -9212 9213 0
-9213 9220 0
-376 -9213 9214 0
-9214 9221 0
-377 -9214 9215 0
-9215 9222 0
-378 -9215 9216 0
-9216 9223 0
-379 -9216 0
-373 9217 0
-9217 9224 0
-374 -9217 9218 0
-9218 9225 0
-375 -9218 9219 0
-9219 9226 0
-376 -9219 9220 0
-9220 9227 0
-377 -9220 9221 0
-9221 9228 0
-378 -9221 9222 0
-9222 9229 0
-379 -9222 9223 0
-9223 9230 0
-380 -9223 0
-374 9224 0
-9224 9231 0
-375 -9224 9225 0
-9225 9232 0
-376 -9225 9226 0
-9226 9233 0
-377 -9226 9227 0
-9227 9234 0
-378 -9227 9228 0
-9228 9235 0
-379 -9228 9229 0
-9229 9236 0
-380 -9229 9230 0
-9230 9237 0
-381 -9230 0
-375 9231 0
-9231 9238 0
-376 -9231 9232 0
-9232 9239 0
-377 -9232 9233 0
-9233 9240 0
-378 -9233 9234 0
-9234 9241 0
-379 -9234 9235 0
-9235 9242 0
-380 -9235 9236 0
-9236 9243 0
-381 -9236 9237 0
-9237 9244 0
-382 -9237 0
-376 9238 0
-9238 9245 0
-377 -9238 9239 0
-9239 9246 0
-378 -9239 9240 0
-9240 9247 0
-379 -9240 9241 0
-9241 9248 0
-380 -9241 9242 0
-9242 9249 0
-381 -9242 9243 0
-9243 9250 0
-382 -9243 9244 0
-9244 9251 0
-383 -9244 0
-377 9245 0
-9245 9252 0
-378 -9245 9246 0
-9246 9253 0
-379 -9246 9247 0
-9247 9254 0
-380 -9247 9248 0
-9248 9255 0
-381 -9248 9249 0
-9249 9256 0
-382 -9249 9250 0
-9250 9257 0
-383 -9250 9251 0
-9251 9258 0
-384 -9251 0
-378 9252 0
-9252 9259 0
-379 -9252 9253 0
-9253 9260 0
-380 -9253 9254 0
-9254 9261 0
-381 -9254 9255 0
-9255 9262 0
-382 -9255 9256 0
-9256 9263 0
-383 -9256 9257 0
-9257 9264 0
-384 -9257 9258 0
-9258 9265 0
-385 -9258 0
-379 9259 0
-9259 9266 0
-380 -9259 9260 0
-9260 9267 0
-381 -9260 9261 0
-9261 9268 0
-382 -9261 9262 0
-9262 9269 0
-383 -9262 9263 0
-9263 9270 0
-384 -9263 9264 0
-9264 9271 0
-385 -9264 9265 0
-9265 9272 0
-386 -9265 0
-380 9266 0
-9266 9273 0
-381 -9266 9267 0
-9267 9274 0
-382 -9267 9268 0
-9268 9275 0
-383 -9268 9269 0
-9269 9276 0
-384 -9269 9270 0
-9270 9277 0
-385 -9270 9271 0
-9271 9278 0
-386 -9271 9272 0
-9272 9279 0
-387 -9272 0
-381 9273 0
-9273 9280 0
-382 -9273 9274 0
-9274 9281 0
-383 -9274 9275 0
-9275 9282 0
-384 -9275 9276 0
-9276 9283 0
-385 -9276 9277 0
-9277 9284 0
-386 -9277 9278 0
-9278 9285 0
-387 -9278 9279 0
-9279 9286 0
-388 -9279 0
-382 9280 0
-9280 9287 0
-383 -9280 9281 0
-9281 9288 0
-384 -9281 9282 0
-9282 9289 0
-385 -9282 9283 0
-9283 9290 0
-386 -9283 9284 0
-9284 9291 0
-387 -9284 9285 0
-9285 9292 0
-388 -9285 9286 0
-9286 9293 0
-389 -9286 0
-383 9287 0
-9287 9294 0
-384 -9287 9288 0
-9288 9295 0
-385 -9288 9289 0
-9289 9296 0
-386 -9289 9290 0
-9290 9297 0
-387 -9290 9291 0
-9291 9298 0
-388 -9291 9292 0
-9292 9299 0
-389 -9292 9293 0
-9293 9300 0
-390 -9293 0
-384 9294 0
-9294 9301 0
-385 -9294 9295 0
-9295 9302 0
-386 -9295 9296 0
-9296 9303 0
-387 -9296 9297 0
-9297 9304 0
-388 -9297 9298 0
-9298 9305 0
-389 -9298 9299 0
-9299 9306 0
-390 -9299 9300 0
-9300 9307 0
-391 -9300 0
-385 9301 0
-9301 9308 0
-386 -9301 9302 0
-9302 9309 0
-387 -9302 9303 0
-9303 9310 0
-388 -9303 9304 0
-9304 9311 0
-389 -9304 9305 0
-9305 9312 0
-390 -9305 9306 0
-9306 9313 0
-391 -9306 9307 0
-9307 9314 0
-392 -9307 0
-386 9308 0
-9308 9315 0
-387 -9308 9309 0
-9309 9316 0
-388 -9309 9310 0
-9310 9317 0
-389 -9310 9311 0
-9311 9318 0
-390 -9311 9312 0
-9312 9319 0
-391 -9312 9313 0
-9313 9320 0
-392 -9313 9314 0
-9314 9321 0
-393 -9314 0
-387 9315 0
-9315 9322 0
-388 -9315 9316 0
-9316 9323 0
-389 -9316 9317 0
-9317 9324 0
-390 -9317 9318 0
-9318 9325 0
-391 -9318 9319 0
-9319 9326 0
-392 -9319 9320 0
-9320 9327 0
-393 -9320 9321 0
-9321 9328 0
-394 -9321 0
-388 9322 0
-9322 9329 0
-389 -9322 9323 0
-9323 9330 0
-390 -9323 9324 0
-9324 9331 0
-391 -9324 9325 0
-9325 9332 0
-392 -9325 9326 0
-9326 9333 0
-393 -9326 9327 0
-9327 9334 0
-394 -9327 9328 0
-9328 9335 0
-395 -9328 0
-389 9329 0
-9329 9336 0
-390 -9329 9330 0
-9330 9337 0
-391 -9330 9331 0
-9331 9338 0
-392 -9331 9332 0
-9332 9339 0
-393 -9332 9333 0
-9333 9340 0
-394 -9333 9334 0
-9334 9341 0
-395 -9334 9335 0
-9335 9342 0
-396 -9335 0
-390 9336 0
-9336 9343 0
-391 -9336 9337 0
-9337 9344 0
-392 -9337 9338 0
-9338 9345 0
-393 -9338 9339 0
-9339 9346 0
-394 -9339 9340 0
-9340 9347 0
-395 -9340 9341 0
-9341 9348 0
-396 -9341 9342 0
-9342 9349 0
-397 -9342 0
-391 9343 0
-9343 9350 0
-392 -9343 9344 0
-9344 9351 0
-393 -9344 9345 0
-9345 9352 0
-394 -9345 9346 0
-9346 9353 0
-395 -9346 9347 0
-9347 9354 0
-396 -9347 9348 0
-9348 9355 0
-397 -9348 9349 0
-9349 9356 0
-398 -9349 0
-392 9350 0
-9350 9357 0
-393 -9350 9351 0
-9351 9358 0
-394 -9351 9352 0
-9352 9359 0
-395 -9352 9353 0
-9353 9360 0
-396 -9353 9354 0
-9354 9361 0
-397 -9354 9355 0
-9355 9362 0
-398 -9355 9356 0
-9356 9363 0
-399 -9356 0
-393 9357 0
-9357 9364 0
-394 -9357 9358 0
-9358 9365 0
-395 -9358 9359 0
-9359 9366 0
-396 -9359 9360 0
-9360 9367 0
-397 -9360 9361 0
-9361 9368 0
-398 -9361 9362 0
-9362 9369 0
-399 -9362 9363 0
-9363 9370 0
-400 -9363 0
-394 9364 0
-9364 9371 0
-395 -9364 9365 0
-9365 9372 0
-396 -9365 9366 0
-9366 9373 0
-397 -9366 9367 0
-9367 9374 0
-398 -9367 9368 0
-9368 9375 0
-399 -9368 9369 0
-9369 9376 0
-400 -9369 9370 0
-9370 9377 0
-401 -9370 0
-395 9371 0
-9371 9378 0
-396 -9371 9372 0
-9372 9379 0
-397 -9372 9373 0
-9373 9380 0
-398 -9373 9374 0
-9374 9381 0
-399 -9374 9375 0
-9375 9382 0
-400 -9375 9376 0
-9376 9383 0
-401 -9376 9377 0
-9377 9384 0
-402 -9377 0
-396 9378 0
-9378 9385 0
-397 -9378 9379 0
-9379 9386 0
-398 -9379 9380 0
-9380 9387 0
-399 -9380 9381 0
-9381 9388 0
-400 -9381 9382 0
-9382 9389 0
-401 -9382 9383 0
-9383 9390 0
-402 -9383 9384 0
-9384 9391 0
-403 -9384 0
-397 9385 0
-9385 9392 0
-398 -9385 9386 0
-9386 9393 0
-399 -9386 9387 0
-9387 9394 0
-400 -9387 9388 0
-9388 9395 0
-401 -9388 9389 0
-9389 9396 0
-402 -9389 9390 0
-9390 9397 0
-403 -9390 9391 0
-9391 9398 0
-404 -9391 0
-398 9392 0
-9392 9399 0
-399 -9392 9393 0
-9393 9400 0
-400 -9393 9394 0
-9394 9401 0
-401 -9394 9395 0
-9395 9402 0
-402 -9395 9396 0
-9396 9403 0
-403 -9396 9397 0
-9397 9404 0
-404 -9397 9398 0
-9398 9405 0
-405 -9398 0
-399 9399 0
-9399 9406 0
-400 -9399 9400 0
-9400 9407 0
-401 -9400 9401 0
-9401 9408 0
-402 -9401 9402 0
-9402 9409 0
-403 -9402 9403 0
-9403 9410 0
-404 -9403 9404 0
-9404 9411 0
-405 -9404 9405 0
-9405 9412 0
-406 -9405 0
-400 9406 0
-9406 9413 0
-401 -9406 9407 0
-9407 9414 0
-402 -9407 9408 0
-9408 9415 0
-403 -9408 9409 0
-9409 9416 0
-404 -9409 9410 0
-9410 9417 0
-405 -9410 9411 0
-9411 9418 0
-406 -9411 9412 0
-9412 9419 0
-407 -9412 0
-401 9413 0
-9413 9420 0
-402 -9413 9414 0
-9414 9421 0
-403 -9414 9415 0
-9415 9422 0
-404 -9415 9416 0
-9416 9423 0
-405 -9416 9417 0
-9417 9424 0
-406 -9417 9418 0
-9418 9425 0
-407 -9418 9419 0
-9419 9426 0
-408 -9419 0
-402 9420 0
-9420 9427 0
-403 -9420 9421 0
-9421 9428 0
-404 -9421 9422 0
-9422 9429 0
-405 -9422 9423 0
-9423 9430 0
-406 -9423 9424 0
-9424 9431 0
-407 -9424 9425 0
-9425 9432 0
-408 -9425 9426 0
-9426 9433 0
-409 -9426 0
-403 9427 0
-9427 9434 0
-404 -9427 9428 0
-9428 9435 0
-405 -9428 9429 0
-9429 9436 0
-406 -9429 9430 0
-9430 9437 0
-407 -9430 9431 0
-9431 9438 0
-408 -9431 9432 0
-9432 9439 0
-409 -9432 9433 0
-9433 9440 0
-410 -9433 0
-404 9434 0
-9434 9441 0
-405 -9434 9435 0
-9435 9442 0
-406 -9435 9436 0
-9436 9443 0
-407 -9436 9437 0
-9437 9444 0
-408 -9437 9438 0
-9438 9445 0
-409 -9438 9439 0
-9439 9446 0
-410 -9439 9440 0
-9440 9447 0
-411 -9440 0
-405 9441 0
-9441 9448 0
-406 -9441 9442 0
-9442 9449 0
-407 -9442 9443 0
-9443 9450 0
-408 -9443 9444 0
-9444 9451 0
-409 -9444 9445 0
-9445 9452 0
-410 -9445 9446 0
-9446 9453 0
-411 -9446 9447 0
-9447 9454 0
-412 -9447 0
-406 9448 0
-9448 9455 0
-407 -9448 9449 0
-9449 9456 0
-408 -9449 9450 0
-9450 9457 0
-409 -9450 9451 0
-9451 9458 0
-410 -9451 9452 0
-9452 9459 0
-411 -9452 9453 0
-9453 9460 0
-412 -9453 9454 0
-9454 9461 0
-413 -9454 0
-407 9455 0
-9455 9462 0
-408 -9455 9456 0
-9456 9463 0
-409 -9456 9457 0
-9457 9464 0
-410 -9457 9458 0
-9458 9465 0
-411 -9458 9459 0
-9459 9466 0
-412 -9459 9460 0
-9460 9467 0
-413 -9460 9461 0
-9461 9468 0
-414 -9461 0
-408 9462 0
-9462 9469 0
-409 -9462 9463 0
-9463 9470 0
-410 -9463 9464 0
-9464 9471 0
-411 -9464 9465 0
-9465 9472 0
-412 -9465 9466 0
-9466 9473 0
-413 -9466 9467 0
-9467 9474 0
-414 -9467 9468 0
-9468 9475 0
-415 -9468 0
-409 9469 0
-9469 9476 0
-410 -9469 9470 0
-9470 9477 0
-411 -9470 9471 0
-9471 9478 0
-412 -9471 9472 0
-9472 9479 0
-413 -9472 9473 0
-9473 9480 0
-414 -9473 9474 0
-9474 9481 0
-415 -9474 9475 0
-9475 9482 0
-416 -9475 0
-410 9476 0
-9476 9483 0
-411 -9476 9477 0
-9477 9484 0
-412 -9477 9478 0
-9478 9485 0
-413 -9478 9479 0
-9479 9486 0
-414 -9479 9480 0
-9480 9487 0
-415 -9480 9481 0
-9481 9488 0
-416 -9481 9482 0
-9482 9489 0
-417 -9482 0
-411 9483 0
-9483 9490 0
-412 -9483 9484 0
-9484 9491 0
-413 -9484 9485 0
-9485 9492 0
-414 -9485 9486 0
-9486 9493 0
-415 -9486 9487 0
-9487 9494 0
-416 -9487 9488 0
-9488 9495 0
-417 -9488 9489 0
-9489 9496 0
-418 -9489 0
-412 9490 0
-9490 9497 0
-413 -9490 9491 0
-9491 9498 0
-414 -9491 9492 0
-9492 9499 0
-415 -9492 9493 0
-9493 9500 0
-416 -9493 9494 0
-9494 9501 0
-417 -9494 9495 0
-9495 9502 0
-418 -9495 9496 0
-9496 9503 0
-419 -9496 0
-413 9497 0
-9497 9504 0
-414 -9497 9498 0
-9498 9505 0
-415 -9498 9499 0
-9499 9506 0
-416 -9499 9500 0
-9500 9507 0
-417 -9500 9501 0
-9501 9508 0
-418 -9501 9502 0
-9502 9509 0
-419 -9502 9503 0
-9503 9510 0
-420 -9503 0
-414 9504 0
-9504 9511 0
-415 -9504 9505 0
-9505 9512 0
-416 -9505 9506 0
-9506 9513 0
-417 -9506 9507 0
-9507 9514 0
-418 -9507 9508 0
-9508 9515 0
-419 -9508 9509 0
-9509 9516 0
-420 -9509 9510 0
-9510 9517 0
-421 -9510 0
-415 9511 0
-9511 9518 0
-416 -9511 9512 0
-9512 9519 0
-417 -9512 9513 0
-9513 9520 0
-418 -9513 9514 0
-9514 9521 0
-419 -9514 9515 0
-9515 9522 0
-420 -9515 9516 0
-9516 9523 0
-421 -9516 9517 0
-9517 9524 0
-422 -9517 0
-416 9518 0
-9518 9525 0
-417 -9518 9519 0
-9519 9526 0
-418 -9519 9520 0
-9520 9527 0
-419 -9520 9521 0
-9521 9528 0
-420 -9521 9522 0
-9522 9529 0
-421 -9522 9523 0
-9523 9530 0
-422 -9523 9524 0
-9524 9531 0
-423 -9524 0
-417 9525 0
-9525 9532 0
-418 -9525 9526 0
-9526 9533 0
-419 -9526 9527 0
-9527 9534 0
-420 -9527 9528 0
-9528 9535 0
-421 -9528 9529 0
-9529 9536 0
-422 -9529 9530 0
-9530 9537 0
-423 -9530 9531 0
-9531 9538 0
-424 -9531 0
-418 9532 0
-9532 9539 0
-419 -9532 9533 0
-9533 9540 0
-420 -9533 9534 0
-9534 9541 0
-421 -9534 9535 0
-9535 9542 0
-422 -9535 9536 0
-9536 9543 0
-423 -9536 9537 0
-9537 9544 0
-424 -9537 9538 0
-9538 9545 0
-425 -9538 0
-419 9539 0
-9539 9546 0
-420 -9539 9540 0
-9540 9547 0
-421 -9540 9541 0
-9541 9548 0
-422 -9541 9542 0
-9542 9549 0
-423 -9542 9543 0
-9543 9550 0
-424 -9543 9544 0
-9544 9551 0
-425 -9544 9545 0
-9545 9552 0
-426 -9545 0
-420 9546 0
-9546 9553 0
-421 -9546 9547 0
-9547 9554 0
-422 -9547 9548 0
-9548 9555 0
-423 -9548 9549 0
-9549 9556 0
-424 -9549 9550 0
-9550 9557 0
-425 -9550 9551 0
-9551 9558 0
-426 -9551 9552 0
-9552 9559 0
-427 -9552 0
-421 9553 0
-9553 9560 0
-422 -9553 9554 0
-9554 9561 0
-423 -9554 9555 0
-9555 9562 0
-424 -9555 9556 0
-9556 9563 0
-425 -9556 9557 0
-9557 9564 0
-426 -9557 9558 0
-9558 9565 0
-427 -9558 9559 0
-9559 9566 0
-428 -9559 0
-422 9560 0
-9560 9567 0
-423 -9560 9561 0
-9561 9568 0
-424 -9561 9562 0
-9562 9569 0
-425 -9562 9563 0
-9563 9570 0
-426 -9563 9564 0
-9564 9571 0
-427 -9564 9565 0
-9565 9572 0
-428 -9565 9566 0
-9566 9573 0
-429 -9566 0
-423 9567 0
-9567 9574 0
-424 -9567 9568 0
-9568 9575 0
-425 -9568 9569 0
-9569 9576 0
-426 -9569 9570 0
-9570 9577 0
-427 -9570 9571 0
-9571 9578 0
-428 -9571 9572 0
-9572 9579 0
-429 -9572 9573 0
-9573 9580 0
-430 -9573 0
-424 9574 0
-9574 9581 0
-425 -9574 9575 0
-9575 9582 0
-426 -9575 9576 0
-9576 9583 0
-427 -9576 9577 0
-9577 9584 0
-428 -9577 9578 0
-9578 9585 0
-429 -9578 9579 0
-9579 9586 0
-430 -9579 9580 0
-9580 9587 0
-431 -9580 0
-425 9581 0
-426 -9581 9582 0
-427 -9582 9583 0
-428 -9583 9584 0
-429 -9584 9585 0
-430 -9585 9586 0
-431 -9586 9587 0
-432 -9587 0
