p cnf 5377 19350
-1 217 0
-109 217 0
-217 1 109 0
-2 218 0
-110 218 0
-218 2 110 0
-3 219 0
-111 219 0
-219 3 111 0
-4 220 0
-112 220 0
-220 4 112 0
-5 221 0
-113 221 0
-221 5 113 0
-6 222 0
-114 222 0
-222 6 114 0
-7 223 0
-115 223 0
-223 7 115 0
-8 224 0
-116 224 0
-224 8 116 0
-9 225 0
-117 225 0
-225 9 117 0
-10 226 0
-118 226 0
-226 10 118 0
-11 227 0
-119 227 0
-227 11 119 0
-12 228 0
-120 228 0
-228 12 120 0
-13 229 0
-121 229 0
-229 13 121 0
-14 230 0
-122 230 0
-230 14 122 0
-15 231 0
-123 231 0
-231 15 123 0
-16 232 0
-124 232 0
-232 16 124 0
-17 233 0
-125 233 0
-233 17 125 0
-18 234 0
-126 234 0
-234 18 126 0
-19 235 0
-127 235 0
-235 19 127 0
-20 236 0
-128 236 0
-236 20 128 0
-21 237 0
-129 237 0
-237 21 129 0
-22 238 0
-130 238 0
-238 22 130 0
-23 239 0
-131 239 0
-239 23 131 0
-24 240 0
-132 240 0
-240 24 132 0
-25 241 0
-133 241 0
-241 25 133 0
-26 242 0
-134 242 0
-242 26 134 0
-27 243 0
-135 243 0
-243 27 135 0
-28 244 0
-136 244 0
-244 28 136 0
-29 245 0
-137 245 0
-245 29 137 0
-30 246 0
-138 246 0
-246 30 138 0
-31 247 0
-139 247 0
-247 31 139 0
-32 248 0
-140 248 0
-248 32 140 0
-33 249 0
-141 249 0
-249 33 141 0
-34 250 0
-142 250 0
-250 34 142 0
-35 251 0
-143 251 0
-251 35 143 0
-36 252 0
-144 252 0
-252 36 144 0
-37 253 0
-145 253 0
-253 37 145 0
-38 254 0
-146 254 0
-254 38 146 0
-39 255 0
-147 255 0
-255 39 147 0
-40 256 0
-148 256 0
-256 40 148 0
-41 257 0
-149 257 0
-257 41 149 0
-42 258 0
-150 258 0
-258 42 150 0
-43 259 0
-151 259 0
-259 43 151 0
-44 260 0
-152 260 0
-260 44 152 0
-45 261 0
-153 261 0
-261 45 153 0
-46 262 0
-154 262 0
-262 46 154 0
-47 263 0
-155 263 0
-263 47 155 0
-48 264 0
-156 264 0
-264 48 156 0
-49 265 0
-157 265 0
-265 49 157 0
-50 266 0
-158 266 0
-266 50 158 0
-51 267 0
-159 267 0
-267 51 159 0
-52 268 0
-160 268 0
-268 52 160 0
-53 269 0
-161 269 0
-269 53 161 0
-54 270 0
-162 270 0
-270 54 162 0
-55 271 0
-163 271 0
-271 55 163 0
-56 272 0
-164 272 0
-272 56 164 0
-57 273 0
-165 273 0
-273 57 165 0
-58 274 0
-166 274 0
-274 58 166 0
-59 275 0
-167 275 0
-275 59 167 0
-60 276 0
-168 276 0
-276 60 168 0
-61 277 0
-169 277 0
-277 61 169 0
-62 278 0
-170 278 0
-278 62 170 0
-63 279 0
-171 279 0
-279 63 171 0
-64 280 0
-172 280 0
-280 64 172 0
-65 281 0
-173 281 0
-281 65 173 0
-66 282 0
-174 282 0
-282 66 174 0
-67 283 0
-175 283 0
-283 67 175 0
-68 284 0
-176 284 0
-284 68 176 0
-69 285 0
-177 285 0
-285 69 177 0
-70 286 0
-178 286 0
-286 70 178 0
-71 287 0
-179 287 0
-287 71 179 0
-72 288 0
-180 288 0
-288 72 180 0
-73 289 0
-181 289 0
-289 73 181 0
-74 290 0
-182 290 0
-290 74 182 0
-75 291 0
-183 291 0
-291 75 183 0
-76 292 0
-184 292 0
-292 76 184 0
-77 293 0
-185 293 0
-293 77 185 0
-78 294 0
-186 294 0
-294 78 186 0
-79 295 0
-187 295 0
-295 79 187 0
-80 296 0
-188 296 0
-296 80 188 0
-81 297 0
-189 297 0
-297 81 189 0
-82 298 0
-190 298 0
-298 82 190 0
-83 299 0
-191 299 0
-299 83 191 0
-84 300 0
-192 300 0
-300 84 192 0
-85 301 0
-193 301 0
-301 85 193 0
-86 302 0
-194 302 0
-302 86 194 0
-87 303 0
-195 303 0
-303 87 195 0
-88 304 0
-196 304 0
-304 88 196 0
-89 305 0
-197 305 0
-305 89 197 0
-90 306 0
-198 306 0
-306 90 198 0
-91 307 0
-199 307 0
-307 91 199 0
-92 308 0
-200 308 0
-308 92 200 0
-93 309 0
-201 309 0
-309 93 201 0
-94 310 0
-202 310 0
-310 94 202 0
-95 311 0
-203 311 0
-311 95 203 0
-96 312 0
-204 312 0
-312 96 204 0
-97 313 0
-205 313 0
-313 97 205 0
-98 314 0
-206 314 0
-314 98 206 0
-99 315 0
-207 315 0
-315 99 207 0
-100 316 0
-208 316 0
-316 100 208 0
-101 317 0
-209 317 0
-317 101 209 0
-102 318 0
-210 318 0
-318 102 210 0
-103 319 0
-211 319 0
-319 103 211 0
-104 320 0
-212 320 0
-320 104 212 0
-105 321 0
-213 321 0
-321 105 213 0
-106 322 0
-214 322 0
-322 106 214 0
-107 323 0
-215 323 0
-323 107 215 0
-108 324 0
-216 324 0
-324 108 216 0
-325 46 48 0
-325 -46 -48 0
325 -46 48 0
325 46 -48 0
-326 325 53 0
-326 -325 -53 0
326 -325 53 0
326 325 -53 0
-327 326 58 0
-327 -326 -58 0
327 -326 58 0
327 326 -58 0
-328 327 59 0
-328 -327 -59 0
328 -327 59 0
328 327 -59 0
-329 328 62 0
-329 -328 -62 0
329 -328 62 0
329 328 -62 0
-330 329 65 0
-330 -329 -65 0
330 -329 65 0
330 329 -65 0
-331 330 67 0
-331 -330 -67 0
331 -330 67 0
331 330 -67 0
-332 331 68 0
-332 -331 -68 0
332 -331 68 0
332 331 -68 0
-333 332 69 0
-333 -332 -69 0
333 -332 69 0
333 332 -69 0
-334 333 71 0
-334 -333 -71 0
334 -333 71 0
334 333 -71 0
-335 334 73 0
-335 -334 -73 0
335 -334 73 0
335 334 -73 0
-336 335 76 0
-336 -335 -76 0
336 -335 76 0
336 335 -76 0
-337 336 77 0
-337 -336 -77 0
337 -336 77 0
337 336 -77 0
-338 337 78 0
-338 -337 -78 0
338 -337 78 0
338 337 -78 0
-339 338 81 0
-339 -338 -81 0
339 -338 81 0
339 338 -81 0
-340 339 82 0
-340 -339 -82 0
340 -339 82 0
340 339 -82 0
-341 340 85 0
-341 -340 -85 0
341 -340 85 0
341 340 -85 0
-342 341 89 0
-342 -341 -89 0
342 -341 89 0
342 341 -89 0
-343 342 90 0
-343 -342 -90 0
343 -342 90 0
343 342 -90 0
-344 343 92 0
-344 -343 -92 0
344 -343 92 0
344 343 -92 0
-345 344 93 0
-345 -344 -93 0
345 -344 93 0
345 344 -93 0
-346 345 94 0
-346 -345 -94 0
346 -345 94 0
346 345 -94 0
-347 346 95 0
-347 -346 -95 0
347 -346 95 0
347 346 -95 0
-348 347 97 0
-348 -347 -97 0
348 -347 97 0
348 347 -97 0
-349 348 98 0
-349 -348 -98 0
349 -348 98 0
349 348 -98 0
-350 349 101 0
-350 -349 -101 0
350 -349 101 0
350 349 -101 0
-351 350 102 0
-351 -350 -102 0
351 -350 102 0
351 350 -102 0
-352 351 104 0
-352 -351 -104 0
352 -351 104 0
352 351 -104 0
-353 352 105 0
-353 -352 -105 0
353 -352 105 0
353 352 -105 0
-354 353 107 0
-354 -353 -107 0
354 -353 107 0
354 353 -107 0
-355 354 108 0
-355 -354 -108 0
355 -354 108 0
355 354 -108 0
-356 355 109 0
-356 -355 -109 0
356 -355 109 0
356 355 -109 0
-357 356 154 0
-357 -356 -154 0
357 -356 154 0
357 356 -154 0
-358 357 160 0
-358 -357 -160 0
358 -357 160 0
358 357 -160 0
-359 358 166 0
-359 -358 -166 0
359 -358 166 0
359 358 -166 0
-360 359 170 0
-360 -359 -170 0
360 -359 170 0
360 359 -170 0
-361 360 173 0
-361 -360 -173 0
361 -360 173 0
361 360 -173 0
-362 361 174 0
-362 -361 -174 0
362 -361 174 0
362 361 -174 0
-363 362 175 0
-363 -362 -175 0
363 -362 175 0
363 362 -175 0
-364 363 176 0
-364 -363 -176 0
364 -363 176 0
364 363 -176 0
-365 364 177 0
-365 -364 -177 0
365 -364 177 0
365 364 -177 0
-366 365 178 0
-366 -365 -178 0
366 -365 178 0
366 365 -178 0
-367 366 182 0
-367 -366 -182 0
367 -366 182 0
367 366 -182 0
-368 367 183 0
-368 -367 -183 0
368 -367 183 0
368 367 -183 0
-369 368 184 0
-369 -368 -184 0
369 -368 184 0
369 368 -184 0
-370 369 186 0
-370 -369 -186 0
370 -369 186 0
370 369 -186 0
-371 370 189 0
-371 -370 -189 0
371 -370 189 0
371 370 -189 0
-372 371 190 0
-372 -371 -190 0
372 -371 190 0
372 371 -190 0
-373 372 197 0
-373 -372 -197 0
373 -372 197 0
373 372 -197 0
-374 373 199 0
-374 -373 -199 0
374 -373 199 0
374 373 -199 0
-375 374 200 0
-375 -374 -200 0
375 -374 200 0
375 374 -200 0
-376 375 201 0
-376 -375 -201 0
376 -375 201 0
376 375 -201 0
-377 376 204 0
-377 -376 -204 0
377 -376 204 0
377 376 -204 0
-378 377 206 0
-378 -377 -206 0
378 -377 206 0
378 377 -206 0
-379 378 207 0
-379 -378 -207 0
379 -378 207 0
379 378 -207 0
-380 379 208 0
-380 -379 -208 0
380 -379 208 0
380 379 -208 0
-381 380 209 0
-381 -380 -209 0
381 -380 209 0
381 380 -209 0
-382 381 211 0
-382 -381 -211 0
382 -381 211 0
382 381 -211 0
-383 382 212 0
-383 -382 -212 0
383 -382 212 0
383 382 -212 0
-384 383 213 0
-384 -383 -213 0
384 -383 213 0
384 383 -213 0
-385 384 214 0
-385 -384 -214 0
385 -384 214 0
385 384 -214 0
-385 0
-386 46 47 0
-386 -46 -47 0
386 -46 47 0
386 46 -47 0
-387 386 54 0
-387 -386 -54 0
387 -386 54 0
387 386 -54 0
-388 387 58 0
-388 -387 -58 0
388 -387 58 0
388 387 -58 0
-389 388 60 0
-389 -388 -60 0
389 -388 60 0
389 388 -60 0
-390 389 62 0
-390 -389 -62 0
390 -389 62 0
390 389 -62 0
-391 390 64 0
-391 -390 -64 0
391 -390 64 0
391 390 -64 0
-392 391 68 0
-392 -391 -68 0
392 -391 68 0
392 391 -68 0
-393 392 69 0
-393 -392 -69 0
393 -392 69 0
393 392 -69 0
-394 393 71 0
-394 -393 -71 0
394 -393 71 0
394 393 -71 0
-395 394 72 0
-395 -394 -72 0
395 -394 72 0
395 394 -72 0
-396 395 73 0
-396 -395 -73 0
396 -395 73 0
396 395 -73 0
-397 396 76 0
-397 -396 -76 0
397 -396 76 0
397 396 -76 0
-398 397 77 0
-398 -397 -77 0
398 -397 77 0
398 397 -77 0
-399 398 78 0
-399 -398 -78 0
399 -398 78 0
399 398 -78 0
-400 399 81 0
-400 -399 -81 0
400 -399 81 0
400 399 -81 0
-401 400 84 0
-401 -400 -84 0
401 -400 84 0
401 400 -84 0
-402 401 90 0
-402 -401 -90 0
402 -401 90 0
402 401 -90 0
-403 402 91 0
-403 -402 -91 0
403 -402 91 0
403 402 -91 0
-404 403 93 0
-404 -403 -93 0
404 -403 93 0
404 403 -93 0
-405 404 94 0
-405 -404 -94 0
405 -404 94 0
405 404 -94 0
-406 405 96 0
-406 -405 -96 0
406 -405 96 0
406 405 -96 0
-407 406 98 0
-407 -406 -98 0
407 -406 98 0
407 406 -98 0
-408 407 101 0
-408 -407 -101 0
408 -407 101 0
408 407 -101 0
-409 408 103 0
-409 -408 -103 0
409 -408 103 0
409 408 -103 0
-410 409 104 0
-410 -409 -104 0
410 -409 104 0
410 409 -104 0
-411 410 105 0
-411 -410 -105 0
411 -410 105 0
411 410 -105 0
-412 411 108 0
-412 -411 -108 0
412 -411 108 0
412 411 -108 0
-413 412 110 0
-413 -412 -110 0
413 -412 110 0
413 412 -110 0
-414 413 155 0
-414 -413 -155 0
414 -413 155 0
414 413 -155 0
-415 414 161 0
-415 -414 -161 0
415 -414 161 0
415 414 -161 0
-416 415 167 0
-416 -415 -167 0
416 -415 167 0
416 415 -167 0
-417 416 169 0
-417 -416 -169 0
417 -416 169 0
417 416 -169 0
-418 417 171 0
-418 -417 -171 0
418 -417 171 0
418 417 -171 0
-419 418 174 0
-419 -418 -174 0
419 -418 174 0
419 418 -174 0
-420 419 176 0
-420 -419 -176 0
420 -419 176 0
420 419 -176 0
-421 420 177 0
-421 -420 -177 0
421 -420 177 0
421 420 -177 0
-422 421 178 0
-422 -421 -178 0
422 -421 178 0
422 421 -178 0
-423 422 179 0
-423 -422 -179 0
423 -422 179 0
423 422 -179 0
-424 423 181 0
-424 -423 -181 0
424 -423 181 0
424 423 -181 0
-425 424 183 0
-425 -424 -183 0
425 -424 183 0
425 424 -183 0
-426 425 184 0
-426 -425 -184 0
426 -425 184 0
426 425 -184 0
-427 426 185 0
-427 -426 -185 0
427 -426 185 0
427 426 -185 0
-428 427 190 0
-428 -427 -190 0
428 -427 190 0
428 427 -190 0
-429 428 191 0
-429 -428 -191 0
429 -428 191 0
429 428 -191 0
-430 429 198 0
-430 -429 -198 0
430 -429 198 0
430 429 -198 0
-431 430 199 0
-431 -430 -199 0
431 -430 199 0
431 430 -199 0
-432 431 200 0
-432 -431 -200 0
432 -431 200 0
432 431 -200 0
-433 432 201 0
-433 -432 -201 0
433 -432 201 0
433 432 -201 0
-434 433 202 0
-434 -433 -202 0
434 -433 202 0
434 433 -202 0
-435 434 207 0
-435 -434 -207 0
435 -434 207 0
435 434 -207 0
-436 435 208 0
-436 -435 -208 0
436 -435 208 0
436 435 -208 0
-437 436 209 0
-437 -436 -209 0
437 -436 209 0
437 436 -209 0
-438 437 210 0
-438 -437 -210 0
438 -437 210 0
438 437 -210 0
-439 438 212 0
-439 -438 -212 0
439 -438 212 0
439 438 -212 0
-440 439 213 0
-440 -439 -213 0
440 -439 213 0
440 439 -213 0
-441 440 214 0
-441 -440 -214 0
441 -440 214 0
441 440 -214 0
-442 441 215 0
-442 -441 -215 0
442 -441 215 0
442 441 -215 0
-442 0
-443 47 48 0
-443 -47 -48 0
443 -47 48 0
443 47 -48 0
-444 443 52 0
-444 -443 -52 0
444 -443 52 0
444 443 -52 0
-445 444 64 0
-445 -444 -64 0
445 -444 64 0
445 444 -64 0
-446 445 66 0
-446 -445 -66 0
446 -445 66 0
446 445 -66 0
-447 446 67 0
-447 -446 -67 0
447 -446 67 0
447 446 -67 0
-448 447 68 0
-448 -447 -68 0
448 -447 68 0
448 447 -68 0
-449 448 69 0
-449 -448 -69 0
449 -448 69 0
449 448 -69 0
-450 449 72 0
-450 -449 -72 0
450 -449 72 0
450 449 -72 0
-451 450 77 0
-451 -450 -77 0
451 -450 77 0
451 450 -77 0
-452 451 78 0
-452 -451 -78 0
452 -451 78 0
452 451 -78 0
-453 452 79 0
-453 -452 -79 0
453 -452 79 0
453 452 -79 0
-454 453 80 0
-454 -453 -80 0
454 -453 80 0
454 453 -80 0
-455 454 81 0
-455 -454 -81 0
455 -454 81 0
455 454 -81 0
-456 455 84 0
-456 -455 -84 0
456 -455 84 0
456 455 -84 0
-457 456 85 0
-457 -456 -85 0
457 -456 85 0
457 456 -85 0
-458 457 88 0
-458 -457 -88 0
458 -457 88 0
458 457 -88 0
-459 458 89 0
-459 -458 -89 0
459 -458 89 0
459 458 -89 0
-460 459 91 0
-460 -459 -91 0
460 -459 91 0
460 459 -91 0
-461 460 92 0
-461 -460 -92 0
461 -460 92 0
461 460 -92 0
-462 461 97 0
-462 -461 -97 0
462 -461 97 0
462 461 -97 0
-463 462 101 0
-463 -462 -101 0
463 -462 101 0
463 462 -101 0
-464 463 104 0
-464 -463 -104 0
464 -463 104 0
464 463 -104 0
-465 464 105 0
-465 -464 -105 0
465 -464 105 0
465 464 -105 0
-466 465 106 0
-466 -465 -106 0
466 -465 106 0
466 465 -106 0
-467 466 107 0
-467 -466 -107 0
467 -466 107 0
467 466 -107 0
-468 467 111 0
-468 -467 -111 0
468 -467 111 0
468 467 -111 0
-469 468 156 0
-469 -468 -156 0
469 -468 156 0
469 468 -156 0
-470 469 162 0
-470 -469 -162 0
470 -469 162 0
470 469 -162 0
-471 470 168 0
-471 -470 -168 0
471 -470 168 0
471 470 -168 0
-472 471 169 0
-472 -471 -169 0
472 -471 169 0
472 471 -169 0
-473 472 170 0
-473 -472 -170 0
473 -472 170 0
473 472 -170 0
-474 473 172 0
-474 -473 -172 0
474 -473 172 0
474 473 -172 0
-475 474 177 0
-475 -474 -177 0
475 -474 177 0
475 474 -177 0
-476 475 178 0
-476 -475 -178 0
476 -475 178 0
476 475 -178 0
-477 476 179 0
-477 -476 -179 0
477 -476 179 0
477 476 -179 0
-478 477 180 0
-478 -477 -180 0
478 -477 180 0
478 477 -180 0
-479 478 182 0
-479 -478 -182 0
479 -478 182 0
479 478 -182 0
-480 479 184 0
-480 -479 -184 0
480 -479 184 0
480 479 -184 0
-481 480 185 0
-481 -480 -185 0
481 -480 185 0
481 480 -185 0
-482 481 186 0
-482 -481 -186 0
482 -481 186 0
482 481 -186 0
-483 482 191 0
-483 -482 -191 0
483 -482 191 0
483 482 -191 0
-484 483 192 0
-484 -483 -192 0
484 -483 192 0
484 483 -192 0
-485 484 193 0
-485 -484 -193 0
485 -484 193 0
485 484 -193 0
-486 485 200 0
-486 -485 -200 0
486 -485 200 0
486 485 -200 0
-487 486 201 0
-487 -486 -201 0
487 -486 201 0
487 486 -201 0
-488 487 202 0
-488 -487 -202 0
488 -487 202 0
488 487 -202 0
-489 488 203 0
-489 -488 -203 0
489 -488 203 0
489 488 -203 0
-490 489 205 0
-490 -489 -205 0
490 -489 205 0
490 489 -205 0
-491 490 208 0
-491 -490 -208 0
491 -490 208 0
491 490 -208 0
-492 491 209 0
-492 -491 -209 0
492 -491 209 0
492 491 -209 0
-493 492 210 0
-493 -492 -210 0
493 -492 210 0
493 492 -210 0
-494 493 213 0
-494 -493 -213 0
494 -493 213 0
494 493 -213 0
-495 494 214 0
-495 -494 -214 0
495 -494 214 0
495 494 -214 0
-496 495 215 0
-496 -495 -215 0
496 -495 215 0
496 495 -215 0
-497 496 216 0
-497 -496 -216 0
497 -496 216 0
497 496 -216 0
-497 0
-498 62 63 0
-498 -62 -63 0
498 -62 63 0
498 62 -63 0
-499 498 65 0
-499 -498 -65 0
499 -498 65 0
499 498 -65 0
-500 499 66 0
-500 -499 -66 0
500 -499 66 0
500 499 -66 0
-501 500 67 0
-501 -500 -67 0
501 -500 67 0
501 500 -67 0
-502 501 68 0
-502 -501 -68 0
502 -501 68 0
502 501 -68 0
-503 502 69 0
-503 -502 -69 0
503 -502 69 0
503 502 -69 0
-504 503 72 0
-504 -503 -72 0
504 -503 72 0
504 503 -72 0
-505 504 73 0
-505 -504 -73 0
505 -504 73 0
505 504 -73 0
-506 505 74 0
-506 -505 -74 0
506 -505 74 0
506 505 -74 0
-507 506 76 0
-507 -506 -76 0
507 -506 76 0
507 506 -76 0
-508 507 79 0
-508 -507 -79 0
508 -507 79 0
508 507 -79 0
-509 508 81 0
-509 -508 -81 0
509 -508 81 0
509 508 -81 0
-510 509 82 0
-510 -509 -82 0
510 -509 82 0
510 509 -82 0
-511 510 83 0
-511 -510 -83 0
511 -510 83 0
511 510 -83 0
-512 511 84 0
-512 -511 -84 0
512 -511 84 0
512 511 -84 0
-513 512 86 0
-513 -512 -86 0
513 -512 86 0
513 512 -86 0
-514 513 87 0
-514 -513 -87 0
514 -513 87 0
514 513 -87 0
-515 514 88 0
-515 -514 -88 0
515 -514 88 0
515 514 -88 0
-516 515 90 0
-516 -515 -90 0
516 -515 90 0
516 515 -90 0
-517 516 91 0
-517 -516 -91 0
517 -516 91 0
517 516 -91 0
-518 517 98 0
-518 -517 -98 0
518 -517 98 0
518 517 -98 0
-519 518 99 0
-519 -518 -99 0
519 -518 99 0
519 518 -99 0
-520 519 100 0
-520 -519 -100 0
520 -519 100 0
520 519 -100 0
-521 520 101 0
-521 -520 -101 0
521 -520 101 0
521 520 -101 0
-522 521 102 0
-522 -521 -102 0
522 -521 102 0
522 521 -102 0
-523 522 105 0
-523 -522 -105 0
523 -522 105 0
523 522 -105 0
-524 523 106 0
-524 -523 -106 0
524 -523 106 0
524 523 -106 0
-525 524 107 0
-525 -524 -107 0
525 -524 107 0
525 524 -107 0
-526 525 108 0
-526 -525 -108 0
526 -525 108 0
526 525 -108 0
-527 526 112 0
-527 -526 -112 0
527 -526 112 0
527 526 -112 0
-528 527 154 0
-528 -527 -154 0
528 -527 154 0
528 527 -154 0
-529 528 160 0
-529 -528 -160 0
529 -528 160 0
529 528 -160 0
-530 529 165 0
-530 -529 -165 0
530 -529 165 0
530 529 -165 0
-531 530 166 0
-531 -530 -166 0
531 -530 166 0
531 530 -166 0
-532 531 167 0
-532 -531 -167 0
532 -531 167 0
532 531 -167 0
-533 532 169 0
-533 -532 -169 0
533 -532 169 0
533 532 -169 0
-534 533 171 0
-534 -533 -171 0
534 -533 171 0
534 533 -171 0
-535 534 173 0
-535 -534 -173 0
535 -534 173 0
535 534 -173 0
-536 535 175 0
-536 -535 -175 0
536 -535 175 0
536 535 -175 0
-537 536 176 0
-537 -536 -176 0
537 -536 176 0
537 536 -176 0
-538 537 182 0
-538 -537 -182 0
538 -537 182 0
538 537 -182 0
-539 538 184 0
-539 -538 -184 0
539 -538 184 0
539 538 -184 0
-540 539 185 0
-540 -539 -185 0
540 -539 185 0
540 539 -185 0
-541 540 186 0
-541 -540 -186 0
541 -540 186 0
541 540 -186 0
-542 541 187 0
-542 -541 -187 0
542 -541 187 0
542 541 -187 0
-543 542 188 0
-543 -542 -188 0
543 -542 188 0
543 542 -188 0
-544 543 189 0
-544 -543 -189 0
544 -543 189 0
544 543 -189 0
-545 544 190 0
-545 -544 -190 0
545 -544 190 0
545 544 -190 0
-546 545 194 0
-546 -545 -194 0
546 -545 194 0
546 545 -194 0
-547 546 196 0
-547 -546 -196 0
547 -546 196 0
547 546 -196 0
-548 547 198 0
-548 -547 -198 0
548 -547 198 0
548 547 -198 0
-549 548 202 0
-549 -548 -202 0
549 -548 202 0
549 548 -202 0
-550 549 204 0
-550 -549 -204 0
550 -549 204 0
550 549 -204 0
-551 550 207 0
-551 -550 -207 0
551 -550 207 0
551 550 -207 0
-552 551 209 0
-552 -551 -209 0
552 -551 209 0
552 551 -209 0
-553 552 211 0
-553 -552 -211 0
553 -552 211 0
553 552 -211 0
-554 553 212 0
-554 -553 -212 0
554 -553 212 0
554 553 -212 0
-555 554 213 0
-555 -554 -213 0
555 -554 213 0
555 554 -213 0
-556 555 216 0
-556 -555 -216 0
556 -555 216 0
556 555 -216 0
-556 0
-557 62 65 0
-557 -62 -65 0
557 -62 65 0
557 62 -65 0
-558 557 71 0
-558 -557 -71 0
558 -557 71 0
558 557 -71 0
-559 558 72 0
-559 -558 -72 0
559 -558 72 0
559 558 -72 0
-560 559 74 0
-560 -559 -74 0
560 -559 74 0
560 559 -74 0
-561 560 75 0
-561 -560 -75 0
561 -560 75 0
561 560 -75 0
-562 561 77 0
-562 -561 -77 0
562 -561 77 0
562 561 -77 0
-563 562 81 0
-563 -562 -81 0
563 -562 81 0
563 562 -81 0
-564 563 86 0
-564 -563 -86 0
564 -563 86 0
564 563 -86 0
-565 564 90 0
-565 -564 -90 0
565 -564 90 0
565 564 -90 0
-566 565 92 0
-566 -565 -92 0
566 -565 92 0
566 565 -92 0
-567 566 98 0
-567 -566 -98 0
567 -566 98 0
567 566 -98 0
-568 567 104 0
-568 -567 -104 0
568 -567 104 0
568 567 -104 0
-569 568 105 0
-569 -568 -105 0
569 -568 105 0
569 568 -105 0
-570 569 113 0
-570 -569 -113 0
570 -569 113 0
570 569 -113 0
-571 570 155 0
-571 -570 -155 0
571 -570 155 0
571 570 -155 0
-572 571 161 0
-572 -571 -161 0
572 -571 161 0
572 571 -161 0
-573 572 166 0
-573 -572 -166 0
573 -572 166 0
573 572 -166 0
-574 573 167 0
-574 -573 -167 0
574 -573 167 0
574 573 -167 0
-575 574 168 0
-575 -574 -168 0
575 -574 168 0
575 574 -168 0
-576 575 170 0
-576 -575 -170 0
576 -575 170 0
576 575 -170 0
-577 576 172 0
-577 -576 -172 0
577 -576 172 0
577 576 -172 0
-578 577 174 0
-578 -577 -174 0
578 -577 174 0
578 577 -174 0
-579 578 176 0
-579 -578 -176 0
579 -578 176 0
579 578 -176 0
-580 579 177 0
-580 -579 -177 0
580 -579 177 0
580 579 -177 0
-581 580 181 0
-581 -580 -181 0
581 -580 181 0
581 580 -181 0
-582 581 183 0
-582 -581 -183 0
582 -581 183 0
582 581 -183 0
-583 582 185 0
-583 -582 -185 0
583 -582 185 0
583 582 -185 0
-584 583 186 0
-584 -583 -186 0
584 -583 186 0
584 583 -186 0
-585 584 188 0
-585 -584 -188 0
585 -584 188 0
585 584 -188 0
-586 585 189 0
-586 -585 -189 0
586 -585 189 0
586 585 -189 0
-587 586 190 0
-587 -586 -190 0
587 -586 190 0
587 586 -190 0
-588 587 191 0
-588 -587 -191 0
588 -587 191 0
588 587 -191 0
-589 588 193 0
-589 -588 -193 0
589 -588 193 0
589 588 -193 0
-590 589 195 0
-590 -589 -195 0
590 -589 195 0
590 589 -195 0
-591 590 197 0
-591 -590 -197 0
591 -590 197 0
591 590 -197 0
-592 591 199 0
-592 -591 -199 0
592 -591 199 0
592 591 -199 0
-593 592 203 0
-593 -592 -203 0
593 -592 203 0
593 592 -203 0
-594 593 208 0
-594 -593 -208 0
594 -593 208 0
594 593 -208 0
-595 594 210 0
-595 -594 -210 0
595 -594 210 0
595 594 -210 0
-596 595 211 0
-596 -595 -211 0
596 -595 211 0
596 595 -211 0
-597 596 212 0
-597 -596 -212 0
597 -596 212 0
597 596 -212 0
-598 597 213 0
-598 -597 -213 0
598 -597 213 0
598 597 -213 0
-599 598 214 0
-599 -598 -214 0
599 -598 214 0
599 598 -214 0
-599 0
-600 70 72 0
-600 -70 -72 0
600 -70 72 0
600 70 -72 0
-601 600 75 0
-601 -600 -75 0
601 -600 75 0
601 600 -75 0
-602 601 76 0
-602 -601 -76 0
602 -601 76 0
602 601 -76 0
-603 602 78 0
-603 -602 -78 0
603 -602 78 0
603 602 -78 0
-604 603 81 0
-604 -603 -81 0
604 -603 81 0
604 603 -81 0
-605 604 82 0
-605 -604 -82 0
605 -604 82 0
605 604 -82 0
-606 605 84 0
-606 -605 -84 0
606 -605 84 0
606 605 -84 0
-607 606 87 0
-607 -606 -87 0
607 -606 87 0
607 606 -87 0
-608 607 88 0
-608 -607 -88 0
608 -607 88 0
608 607 -88 0
-609 608 93 0
-609 -608 -93 0
609 -608 93 0
609 608 -93 0
-610 609 102 0
-610 -609 -102 0
610 -609 102 0
610 609 -102 0
-611 610 103 0
-611 -610 -103 0
611 -610 103 0
611 610 -103 0
-612 611 105 0
-612 -611 -105 0
612 -611 105 0
612 611 -105 0
-613 612 114 0
-613 -612 -114 0
613 -612 114 0
613 612 -114 0
-614 613 156 0
-614 -613 -156 0
614 -613 156 0
614 613 -156 0
-615 614 162 0
-615 -614 -162 0
615 -614 162 0
615 614 -162 0
-616 615 165 0
-616 -615 -165 0
616 -615 165 0
616 615 -165 0
-617 616 166 0
-617 -616 -166 0
617 -616 166 0
617 616 -166 0
-618 617 167 0
-618 -617 -167 0
618 -617 167 0
618 617 -167 0
-619 618 169 0
-619 -618 -169 0
619 -618 169 0
619 618 -169 0
-620 619 170 0
-620 -619 -170 0
620 -619 170 0
620 619 -170 0
-621 620 174 0
-621 -620 -174 0
621 -620 174 0
621 620 -174 0
-622 621 175 0
-622 -621 -175 0
622 -621 175 0
622 621 -175 0
-623 622 176 0
-623 -622 -176 0
623 -622 176 0
623 622 -176 0
-624 623 177 0
-624 -623 -177 0
624 -623 177 0
624 623 -177 0
-625 624 179 0
-625 -624 -179 0
625 -624 179 0
625 624 -179 0
-626 625 182 0
-626 -625 -182 0
626 -625 182 0
626 625 -182 0
-627 626 183 0
-627 -626 -183 0
627 -626 183 0
627 626 -183 0
-628 627 188 0
-628 -627 -188 0
628 -627 188 0
628 627 -188 0
-629 628 190 0
-629 -628 -190 0
629 -628 190 0
629 628 -190 0
-630 629 193 0
-630 -629 -193 0
630 -629 193 0
630 629 -193 0
-631 630 197 0
-631 -630 -197 0
631 -630 197 0
631 630 -197 0
-632 631 198 0
-632 -631 -198 0
632 -631 198 0
632 631 -198 0
-633 632 199 0
-633 -632 -199 0
633 -632 199 0
633 632 -199 0
-634 633 200 0
-634 -633 -200 0
634 -633 200 0
634 633 -200 0
-635 634 201 0
-635 -634 -201 0
635 -634 201 0
635 634 -201 0
-636 635 202 0
-636 -635 -202 0
636 -635 202 0
636 635 -202 0
-637 636 205 0
-637 -636 -205 0
637 -636 205 0
637 636 -205 0
-638 637 206 0
-638 -637 -206 0
638 -637 206 0
638 637 -206 0
-639 638 207 0
-639 -638 -207 0
639 -638 207 0
639 638 -207 0
-640 639 210 0
-640 -639 -210 0
640 -639 210 0
640 639 -210 0
-641 640 211 0
-641 -640 -211 0
641 -640 211 0
641 640 -211 0
-642 641 213 0
-642 -641 -213 0
642 -641 213 0
642 641 -213 0
-642 0
-643 46 52 0
-643 -46 -52 0
643 -46 52 0
643 46 -52 0
-644 643 58 0
-644 -643 -58 0
644 -643 58 0
644 643 -58 0
-645 644 59 0
-645 -644 -59 0
645 -644 59 0
645 644 -59 0
-646 645 70 0
-646 -645 -70 0
646 -645 70 0
646 645 -70 0
-647 646 73 0
-647 -646 -73 0
647 -646 73 0
647 646 -73 0
-648 647 85 0
-648 -647 -85 0
648 -647 85 0
648 647 -85 0
-649 648 88 0
-649 -648 -88 0
649 -648 88 0
649 648 -88 0
-650 649 89 0
-650 -649 -89 0
650 -649 89 0
650 649 -89 0
-651 650 91 0
-651 -650 -91 0
651 -650 91 0
651 650 -91 0
-652 651 94 0
-652 -651 -94 0
652 -651 94 0
652 651 -94 0
-653 652 95 0
-653 -652 -95 0
653 -652 95 0
653 652 -95 0
-654 653 101 0
-654 -653 -101 0
654 -653 101 0
654 653 -101 0
-655 654 103 0
-655 -654 -103 0
655 -654 103 0
655 654 -103 0
-656 655 115 0
-656 -655 -115 0
656 -655 115 0
656 655 -115 0
-657 656 154 0
-657 -656 -154 0
657 -656 154 0
657 656 -154 0
-658 657 166 0
-658 -657 -166 0
658 -657 166 0
658 657 -166 0
-659 658 173 0
-659 -658 -173 0
659 -658 173 0
659 658 -173 0
-660 659 174 0
-660 -659 -174 0
660 -659 174 0
660 659 -174 0
-661 660 175 0
-661 -660 -175 0
661 -660 175 0
661 660 -175 0
-662 661 176 0
-662 -661 -176 0
662 -661 176 0
662 661 -176 0
-663 662 177 0
-663 -662 -177 0
663 -662 177 0
663 662 -177 0
-664 663 182 0
-664 -663 -182 0
664 -663 182 0
664 663 -182 0
-665 664 183 0
-665 -664 -183 0
665 -664 183 0
665 664 -183 0
-666 665 184 0
-666 -665 -184 0
666 -665 184 0
666 665 -184 0
-667 666 186 0
-667 -666 -186 0
667 -666 186 0
667 666 -186 0
-668 667 189 0
-668 -667 -189 0
668 -667 189 0
668 667 -189 0
-669 668 190 0
-669 -668 -190 0
669 -668 190 0
669 668 -190 0
-670 669 197 0
-670 -669 -197 0
670 -669 197 0
670 669 -197 0
-671 670 199 0
-671 -670 -199 0
671 -670 199 0
671 670 -199 0
-672 671 200 0
-672 -671 -200 0
672 -671 200 0
672 671 -200 0
-673 672 204 0
-673 -672 -204 0
673 -672 204 0
673 672 -204 0
-674 673 206 0
-674 -673 -206 0
674 -673 206 0
674 673 -206 0
-675 674 207 0
-675 -674 -207 0
675 -674 207 0
675 674 -207 0
-676 675 208 0
-676 -675 -208 0
676 -675 208 0
676 675 -208 0
-677 676 209 0
-677 -676 -209 0
677 -676 209 0
677 676 -209 0
-678 677 211 0
-678 -677 -211 0
678 -677 211 0
678 677 -211 0
-679 678 212 0
-679 -678 -212 0
679 -678 212 0
679 678 -212 0
-680 679 213 0
-680 -679 -213 0
680 -679 213 0
680 679 -213 0
-681 680 214 0
-681 -680 -214 0
681 -680 214 0
681 680 -214 0
-681 0
-682 47 53 0
-682 -47 -53 0
682 -47 53 0
682 47 -53 0
-683 682 59 0
-683 -682 -59 0
683 -682 59 0
683 682 -59 0
-684 683 60 0
-684 -683 -60 0
684 -683 60 0
684 683 -60 0
-685 684 71 0
-685 -684 -71 0
685 -684 71 0
685 684 -71 0
-686 685 74 0
-686 -685 -74 0
686 -685 74 0
686 685 -74 0
-687 686 86 0
-687 -686 -86 0
687 -686 86 0
687 686 -86 0
-688 687 89 0
-688 -687 -89 0
688 -687 89 0
688 687 -89 0
-689 688 90 0
-689 -688 -90 0
689 -688 90 0
689 688 -90 0
-690 689 92 0
-690 -689 -92 0
690 -689 92 0
690 689 -92 0
-691 690 95 0
-691 -690 -95 0
691 -690 95 0
691 690 -95 0
-692 691 96 0
-692 -691 -96 0
692 -691 96 0
692 691 -96 0
-693 692 102 0
-693 -692 -102 0
693 -692 102 0
693 692 -102 0
-694 693 104 0
-694 -693 -104 0
694 -693 104 0
694 693 -104 0
-695 694 116 0
-695 -694 -116 0
695 -694 116 0
695 694 -116 0
-696 695 155 0
-696 -695 -155 0
696 -695 155 0
696 695 -155 0
-697 696 167 0
-697 -696 -167 0
697 -696 167 0
697 696 -167 0
-698 697 169 0
-698 -697 -169 0
698 -697 169 0
698 697 -169 0
-699 698 174 0
-699 -698 -174 0
699 -698 174 0
699 698 -174 0
-700 699 176 0
-700 -699 -176 0
700 -699 176 0
700 699 -176 0
-701 700 177 0
-701 -700 -177 0
701 -700 177 0
701 700 -177 0
-702 701 178 0
-702 -701 -178 0
702 -701 178 0
702 701 -178 0
-703 702 181 0
-703 -702 -181 0
703 -702 181 0
703 702 -181 0
-704 703 183 0
-704 -703 -183 0
704 -703 183 0
704 703 -183 0
-705 704 184 0
-705 -704 -184 0
705 -704 184 0
705 704 -184 0
-706 705 185 0
-706 -705 -185 0
706 -705 185 0
706 705 -185 0
-707 706 190 0
-707 -706 -190 0
707 -706 190 0
707 706 -190 0
-708 707 191 0
-708 -707 -191 0
708 -707 191 0
708 707 -191 0
-709 708 198 0
-709 -708 -198 0
709 -708 198 0
709 708 -198 0
-710 709 199 0
-710 -709 -199 0
710 -709 199 0
710 709 -199 0
-711 710 200 0
-711 -710 -200 0
711 -710 200 0
711 710 -200 0
-712 711 201 0
-712 -711 -201 0
712 -711 201 0
712 711 -201 0
-713 712 207 0
-713 -712 -207 0
713 -712 207 0
713 712 -207 0
-714 713 208 0
-714 -713 -208 0
714 -713 208 0
714 713 -208 0
-715 714 209 0
-715 -714 -209 0
715 -714 209 0
715 714 -209 0
-716 715 210 0
-716 -715 -210 0
716 -715 210 0
716 715 -210 0
-717 716 212 0
-717 -716 -212 0
717 -716 212 0
717 716 -212 0
-718 717 213 0
-718 -717 -213 0
718 -717 213 0
718 717 -213 0
-719 718 214 0
-719 -718 -214 0
719 -718 214 0
719 718 -214 0
-720 719 215 0
-720 -719 -215 0
720 -719 215 0
720 719 -215 0
-720 0
-721 48 54 0
-721 -48 -54 0
721 -48 54 0
721 48 -54 0
-722 721 58 0
-722 -721 -58 0
722 -721 58 0
722 721 -58 0
-723 722 60 0
-723 -722 -60 0
723 -722 60 0
723 722 -60 0
-724 723 62 0
-724 -723 -62 0
724 -723 62 0
724 723 -62 0
-725 724 63 0
-725 -724 -63 0
725 -724 63 0
725 724 -63 0
-726 725 65 0
-726 -725 -65 0
726 -725 65 0
726 725 -65 0
-727 726 66 0
-727 -726 -66 0
727 -726 66 0
727 726 -66 0
-728 727 67 0
-728 -727 -67 0
728 -727 67 0
728 727 -67 0
-729 728 70 0
-729 -728 -70 0
729 -728 70 0
729 728 -70 0
-730 729 72 0
-730 -729 -72 0
730 -729 72 0
730 729 -72 0
-731 730 73 0
-731 -730 -73 0
731 -730 73 0
731 730 -73 0
-732 731 75 0
-732 -731 -75 0
732 -731 75 0
732 731 -75 0
-733 732 76 0
-733 -732 -76 0
733 -732 76 0
733 732 -76 0
-734 733 80 0
-734 -733 -80 0
734 -733 80 0
734 733 -80 0
-735 734 81 0
-735 -734 -81 0
735 -734 81 0
735 734 -81 0
-736 735 83 0
-736 -735 -83 0
736 -735 83 0
736 735 -83 0
-737 736 84 0
-737 -736 -84 0
737 -736 84 0
737 736 -84 0
-738 737 87 0
-738 -737 -87 0
738 -737 87 0
738 737 -87 0
-739 738 88 0
-739 -738 -88 0
739 -738 88 0
739 738 -88 0
-740 739 90 0
-740 -739 -90 0
740 -739 90 0
740 739 -90 0
-741 740 93 0
-741 -740 -93 0
741 -740 93 0
741 740 -93 0
-742 741 94 0
-742 -741 -94 0
742 -741 94 0
742 741 -94 0
-743 742 96 0
-743 -742 -96 0
743 -742 96 0
743 742 -96 0
-744 743 97 0
-744 -743 -97 0
744 -743 97 0
744 743 -97 0
-745 744 98 0
-745 -744 -98 0
745 -744 98 0
745 744 -98 0
-746 745 99 0
-746 -745 -99 0
746 -745 99 0
746 745 -99 0
-747 746 101 0
-747 -746 -101 0
747 -746 101 0
747 746 -101 0
-748 747 102 0
-748 -747 -102 0
748 -747 102 0
748 747 -102 0
-749 748 103 0
-749 -748 -103 0
749 -748 103 0
749 748 -103 0
-750 749 105 0
-750 -749 -105 0
750 -749 105 0
750 749 -105 0
-751 750 106 0
-751 -750 -106 0
751 -750 106 0
751 750 -106 0
-752 751 117 0
-752 -751 -117 0
752 -751 117 0
752 751 -117 0
-753 752 156 0
-753 -752 -156 0
753 -752 156 0
753 752 -156 0
-754 753 168 0
-754 -753 -168 0
754 -753 168 0
754 753 -168 0
-755 754 169 0
-755 -754 -169 0
755 -754 169 0
755 754 -169 0
-756 755 170 0
-756 -755 -170 0
756 -755 170 0
756 755 -170 0
-757 756 177 0
-757 -756 -177 0
757 -756 177 0
757 756 -177 0
-758 757 178 0
-758 -757 -178 0
758 -757 178 0
758 757 -178 0
-759 758 179 0
-759 -758 -179 0
759 -758 179 0
759 758 -179 0
-760 759 182 0
-760 -759 -182 0
760 -759 182 0
760 759 -182 0
-761 760 184 0
-761 -760 -184 0
761 -760 184 0
761 760 -184 0
-762 761 185 0
-762 -761 -185 0
762 -761 185 0
762 761 -185 0
-763 762 186 0
-763 -762 -186 0
763 -762 186 0
763 762 -186 0
-764 763 191 0
-764 -763 -191 0
764 -763 191 0
764 763 -191 0
-765 764 192 0
-765 -764 -192 0
765 -764 192 0
765 764 -192 0
-766 765 193 0
-766 -765 -193 0
766 -765 193 0
766 765 -193 0
-767 766 200 0
-767 -766 -200 0
767 -766 200 0
767 766 -200 0
-768 767 201 0
-768 -767 -201 0
768 -767 201 0
768 767 -201 0
-769 768 202 0
-769 -768 -202 0
769 -768 202 0
769 768 -202 0
-770 769 205 0
-770 -769 -205 0
770 -769 205 0
770 769 -205 0
-771 770 208 0
-771 -770 -208 0
771 -770 208 0
771 770 -208 0
-772 771 209 0
-772 -771 -209 0
772 -771 209 0
772 771 -209 0
-773 772 210 0
-773 -772 -210 0
773 -772 210 0
773 772 -210 0
-774 773 213 0
-774 -773 -213 0
774 -773 213 0
774 773 -213 0
-775 774 214 0
-775 -774 -214 0
775 -774 214 0
775 774 -214 0
-776 775 215 0
-776 -775 -215 0
776 -775 215 0
776 775 -215 0
-777 776 216 0
-777 -776 -216 0
777 -776 216 0
777 776 -216 0
-777 0
-778 58 59 0
-778 -58 -59 0
778 -58 59 0
778 58 -59 0
-779 778 63 0
-779 -778 -63 0
779 -778 63 0
779 778 -63 0
-780 779 66 0
-780 -779 -66 0
780 -779 66 0
780 779 -66 0
-781 780 67 0
-781 -780 -67 0
781 -780 67 0
781 780 -67 0
-782 781 68 0
-782 -781 -68 0
782 -781 68 0
782 781 -68 0
-783 782 69 0
-783 -782 -69 0
783 -782 69 0
783 782 -69 0
-784 783 72 0
-784 -783 -72 0
784 -783 72 0
784 783 -72 0
-785 784 76 0
-785 -784 -76 0
785 -784 76 0
785 784 -76 0
-786 785 81 0
-786 -785 -81 0
786 -785 81 0
786 785 -81 0
-787 786 84 0
-787 -786 -84 0
787 -786 84 0
787 786 -84 0
-788 787 85 0
-788 -787 -85 0
788 -787 85 0
788 787 -85 0
-789 788 87 0
-789 -788 -87 0
789 -788 87 0
789 788 -87 0
-790 789 90 0
-790 -789 -90 0
790 -789 90 0
790 789 -90 0
-791 790 91 0
-791 -790 -91 0
791 -790 91 0
791 790 -91 0
-792 791 92 0
-792 -791 -92 0
792 -791 92 0
792 791 -92 0
-793 792 94 0
-793 -792 -94 0
793 -792 94 0
793 792 -94 0
-794 793 97 0
-794 -793 -97 0
794 -793 97 0
794 793 -97 0
-795 794 99 0
-795 -794 -99 0
795 -794 99 0
795 794 -99 0
-796 795 100 0
-796 -795 -100 0
796 -795 100 0
796 795 -100 0
-797 796 102 0
-797 -796 -102 0
797 -796 102 0
797 796 -102 0
-798 797 105 0
-798 -797 -105 0
798 -797 105 0
798 797 -105 0
-799 798 107 0
-799 -798 -107 0
799 -798 107 0
799 798 -107 0
-800 799 108 0
-800 -799 -108 0
800 -799 108 0
800 799 -108 0
-801 800 118 0
-801 -800 -118 0
801 -800 118 0
801 800 -118 0
-802 801 154 0
-802 -801 -154 0
802 -801 154 0
802 801 -154 0
-803 802 168 0
-803 -802 -168 0
803 -802 168 0
803 802 -168 0
-804 803 171 0
-804 -803 -171 0
804 -803 171 0
804 803 -171 0
-805 804 174 0
-805 -804 -174 0
805 -804 174 0
805 804 -174 0
-806 805 180 0
-806 -805 -180 0
806 -805 180 0
806 805 -180 0
-807 806 182 0
-807 -806 -182 0
807 -806 182 0
807 806 -182 0
-808 807 186 0
-808 -807 -186 0
808 -807 186 0
808 807 -186 0
-809 808 190 0
-809 -808 -190 0
809 -808 190 0
809 808 -190 0
-810 809 191 0
-810 -809 -191 0
810 -809 191 0
810 809 -191 0
-811 810 193 0
-811 -810 -193 0
811 -810 193 0
811 810 -193 0
-812 811 194 0
-812 -811 -194 0
812 -811 194 0
812 811 -194 0
-813 812 197 0
-813 -812 -197 0
813 -812 197 0
813 812 -197 0
-814 813 199 0
-814 -813 -199 0
814 -813 199 0
814 813 -199 0
-815 814 202 0
-815 -814 -202 0
815 -814 202 0
815 814 -202 0
-816 815 203 0
-816 -815 -203 0
816 -815 203 0
816 815 -203 0
-817 816 205 0
-817 -816 -205 0
817 -816 205 0
817 816 -205 0
-818 817 209 0
-818 -817 -209 0
818 -817 209 0
818 817 -209 0
-819 818 211 0
-819 -818 -211 0
819 -818 211 0
819 818 -211 0
-820 819 213 0
-820 -819 -213 0
820 -819 213 0
820 819 -213 0
-820 0
-821 59 60 0
-821 -59 -60 0
821 -59 60 0
821 59 -60 0
-822 821 62 0
-822 -821 -62 0
822 -821 62 0
822 821 -62 0
-823 822 65 0
-823 -822 -65 0
823 -822 65 0
823 822 -65 0
-824 823 67 0
-824 -823 -67 0
824 -823 67 0
824 823 -67 0
-825 824 70 0
-825 -824 -70 0
825 -824 70 0
825 824 -70 0
-826 825 71 0
-826 -825 -71 0
826 -825 71 0
826 825 -71 0
-827 826 72 0
-827 -826 -72 0
827 -826 72 0
827 826 -72 0
-828 827 77 0
-828 -827 -77 0
828 -827 77 0
828 827 -77 0
-829 828 80 0
-829 -828 -80 0
829 -828 80 0
829 828 -80 0
-830 829 83 0
-830 -829 -83 0
830 -829 83 0
830 829 -83 0
-831 830 85 0
-831 -830 -85 0
831 -830 85 0
831 830 -85 0
-832 831 87 0
-832 -831 -87 0
832 -831 87 0
832 831 -87 0
-833 832 88 0
-833 -832 -88 0
833 -832 88 0
833 832 -88 0
-834 833 89 0
-834 -833 -89 0
834 -833 89 0
834 833 -89 0
-835 834 90 0
-835 -834 -90 0
835 -834 90 0
835 834 -90 0
-836 835 92 0
-836 -835 -92 0
836 -835 92 0
836 835 -92 0
-837 836 93 0
-837 -836 -93 0
837 -836 93 0
837 836 -93 0
-838 837 95 0
-838 -837 -95 0
838 -837 95 0
838 837 -95 0
-839 838 103 0
-839 -838 -103 0
839 -838 103 0
839 838 -103 0
-840 839 104 0
-840 -839 -104 0
840 -839 104 0
840 839 -104 0
-841 840 105 0
-841 -840 -105 0
841 -840 105 0
841 840 -105 0
-842 841 106 0
-842 -841 -106 0
842 -841 106 0
842 841 -106 0
-843 842 107 0
-843 -842 -107 0
843 -842 107 0
843 842 -107 0
-844 843 119 0
-844 -843 -119 0
844 -843 119 0
844 843 -119 0
-845 844 155 0
-845 -844 -155 0
845 -844 155 0
845 844 -155 0
-846 845 165 0
-846 -845 -165 0
846 -845 165 0
846 845 -165 0
-847 846 166 0
-847 -846 -166 0
847 -846 166 0
847 846 -166 0
-848 847 168 0
-848 -847 -168 0
848 -847 168 0
848 847 -168 0
-849 848 169 0
-849 -848 -169 0
849 -848 169 0
849 848 -169 0
-850 849 170 0
-850 -849 -170 0
850 -849 170 0
850 849 -170 0
-851 850 171 0
-851 -850 -171 0
851 -850 171 0
851 850 -171 0
-852 851 172 0
-852 -851 -172 0
852 -851 172 0
852 851 -172 0
-853 852 173 0
-853 -852 -173 0
853 -852 173 0
853 852 -173 0
-854 853 174 0
-854 -853 -174 0
854 -853 174 0
854 853 -174 0
-855 854 176 0
-855 -854 -176 0
855 -854 176 0
855 854 -176 0
-856 855 178 0
-856 -855 -178 0
856 -855 178 0
856 855 -178 0
-857 856 179 0
-857 -856 -179 0
857 -856 179 0
857 856 -179 0
-858 857 184 0
-858 -857 -184 0
858 -857 184 0
858 857 -184 0
-859 858 186 0
-859 -858 -186 0
859 -858 186 0
859 858 -186 0
-860 859 188 0
-860 -859 -188 0
860 -859 188 0
860 859 -188 0
-861 860 189 0
-861 -860 -189 0
861 -860 189 0
861 860 -189 0
-862 861 193 0
-862 -861 -193 0
862 -861 193 0
862 861 -193 0
-863 862 195 0
-863 -862 -195 0
863 -862 195 0
863 862 -195 0
-864 863 196 0
-864 -863 -196 0
864 -863 196 0
864 863 -196 0
-865 864 197 0
-865 -864 -197 0
865 -864 197 0
865 864 -197 0
-866 865 198 0
-866 -865 -198 0
866 -865 198 0
866 865 -198 0
-867 866 199 0
-867 -866 -199 0
867 -866 199 0
867 866 -199 0
-868 867 200 0
-868 -867 -200 0
868 -867 200 0
868 867 -200 0
-869 868 201 0
-869 -868 -201 0
869 -868 201 0
869 868 -201 0
-870 869 202 0
-870 -869 -202 0
870 -869 202 0
870 869 -202 0
-871 870 203 0
-871 -870 -203 0
871 -870 203 0
871 870 -203 0
-872 871 207 0
-872 -871 -207 0
872 -871 207 0
872 871 -207 0
-873 872 209 0
-873 -872 -209 0
873 -872 209 0
873 872 -209 0
-874 873 211 0
-874 -873 -211 0
874 -873 211 0
874 873 -211 0
-875 874 215 0
-875 -874 -215 0
875 -874 215 0
875 874 -215 0
-875 0
-876 58 60 0
-876 -58 -60 0
876 -58 60 0
876 58 -60 0
-877 876 62 0
-877 -876 -62 0
877 -876 62 0
877 876 -62 0
-878 877 63 0
-878 -877 -63 0
878 -877 63 0
878 877 -63 0
-879 878 65 0
-879 -878 -65 0
879 -878 65 0
879 878 -65 0
-880 879 66 0
-880 -879 -66 0
880 -879 66 0
880 879 -66 0
-881 880 67 0
-881 -880 -67 0
881 -880 67 0
881 880 -67 0
-882 881 68 0
-882 -881 -68 0
882 -881 68 0
882 881 -68 0
-883 882 71 0
-883 -882 -71 0
883 -882 71 0
883 882 -71 0
-884 883 72 0
-884 -883 -72 0
884 -883 72 0
884 883 -72 0
-885 884 73 0
-885 -884 -73 0
885 -884 73 0
885 884 -73 0
-886 885 76 0
-886 -885 -76 0
886 -885 76 0
886 885 -76 0
-887 886 78 0
-887 -886 -78 0
887 -886 78 0
887 886 -78 0
-888 887 80 0
-888 -887 -80 0
888 -887 80 0
888 887 -80 0
-889 888 81 0
-889 -888 -81 0
889 -888 81 0
889 888 -81 0
-890 889 83 0
-890 -889 -83 0
890 -889 83 0
890 889 -83 0
-891 890 84 0
-891 -890 -84 0
891 -890 84 0
891 890 -84 0
-892 891 85 0
-892 -891 -85 0
892 -891 85 0
892 891 -85 0
-893 892 86 0
-893 -892 -86 0
893 -892 86 0
893 892 -86 0
-894 893 88 0
-894 -893 -88 0
894 -893 88 0
894 893 -88 0
-895 894 89 0
-895 -894 -89 0
895 -894 89 0
895 894 -89 0
-896 895 90 0
-896 -895 -90 0
896 -895 90 0
896 895 -90 0
-897 896 91 0
-897 -896 -91 0
897 -896 91 0
897 896 -91 0
-898 897 93 0
-898 -897 -93 0
898 -897 93 0
898 897 -93 0
-899 898 96 0
-899 -898 -96 0
899 -898 96 0
899 898 -96 0
-900 899 98 0
-900 -899 -98 0
900 -899 98 0
900 899 -98 0
-901 900 101 0
-901 -900 -101 0
901 -900 101 0
901 900 -101 0
-902 901 104 0
-902 -901 -104 0
902 -901 104 0
902 901 -104 0
-903 902 105 0
-903 -902 -105 0
903 -902 105 0
903 902 -105 0
-904 903 106 0
-904 -903 -106 0
904 -903 106 0
904 903 -106 0
-905 904 107 0
-905 -904 -107 0
905 -904 107 0
905 904 -107 0
-906 905 108 0
-906 -905 -108 0
906 -905 108 0
906 905 -108 0
-907 906 120 0
-907 -906 -120 0
907 -906 120 0
907 906 -120 0
-908 907 156 0
-908 -907 -156 0
908 -907 156 0
908 907 -156 0
-909 908 165 0
-909 -908 -165 0
909 -908 165 0
909 908 -165 0
-910 909 167 0
-910 -909 -167 0
910 -909 167 0
910 909 -167 0
-911 910 168 0
-911 -910 -168 0
911 -910 168 0
911 910 -168 0
-912 911 169 0
-912 -911 -169 0
912 -911 169 0
912 911 -169 0
-913 912 172 0
-913 -912 -172 0
913 -912 172 0
913 912 -172 0
-914 913 175 0
-914 -913 -175 0
914 -913 175 0
914 913 -175 0
-915 914 176 0
-915 -914 -176 0
915 -914 176 0
915 914 -176 0
-916 915 177 0
-916 -915 -177 0
916 -915 177 0
916 915 -177 0
-917 916 178 0
-917 -916 -178 0
917 -916 178 0
917 916 -178 0
-918 917 180 0
-918 -917 -180 0
918 -917 180 0
918 917 -180 0
-919 918 183 0
-919 -918 -183 0
919 -918 183 0
919 918 -183 0
-920 919 184 0
-920 -919 -184 0
920 -919 184 0
920 919 -184 0
-921 920 185 0
-921 -920 -185 0
921 -920 185 0
921 920 -185 0
-922 921 186 0
-922 -921 -186 0
922 -921 186 0
922 921 -186 0
-923 922 188 0
-923 -922 -188 0
923 -922 188 0
923 922 -188 0
-924 923 190 0
-924 -923 -190 0
924 -923 190 0
924 923 -190 0
-925 924 191 0
-925 -924 -191 0
925 -924 191 0
925 924 -191 0
-926 925 192 0
-926 -925 -192 0
926 -925 192 0
926 925 -192 0
-927 926 198 0
-927 -926 -198 0
927 -926 198 0
927 926 -198 0
-928 927 199 0
-928 -927 -199 0
928 -927 199 0
928 927 -199 0
-929 928 200 0
-929 -928 -200 0
929 -928 200 0
929 928 -200 0
-930 929 203 0
-930 -929 -203 0
930 -929 203 0
930 929 -203 0
-931 930 206 0
-931 -930 -206 0
931 -930 206 0
931 930 -206 0
-932 931 207 0
-932 -931 -207 0
932 -931 207 0
932 931 -207 0
-933 932 208 0
-933 -932 -208 0
933 -932 208 0
933 932 -208 0
-934 933 209 0
-934 -933 -209 0
934 -933 209 0
934 933 -209 0
-935 934 211 0
-935 -934 -211 0
935 -934 211 0
935 934 -211 0
-936 935 214 0
-936 -935 -214 0
936 -935 214 0
936 935 -214 0
-937 936 215 0
-937 -936 -215 0
937 -936 215 0
937 936 -215 0
-938 937 216 0
-938 -937 -216 0
938 -937 216 0
938 937 -216 0
-938 0
-939 48 52 0
-939 -48 -52 0
939 -48 52 0
939 48 -52 0
-940 939 53 0
-940 -939 -53 0
940 -939 53 0
940 939 -53 0
-941 940 58 0
-941 -940 -58 0
941 -940 58 0
941 940 -58 0
-942 941 64 0
-942 -941 -64 0
942 -941 64 0
942 941 -64 0
-943 942 65 0
-943 -942 -65 0
943 -942 65 0
943 942 -65 0
-944 943 67 0
-944 -943 -67 0
944 -943 67 0
944 943 -67 0
-945 944 68 0
-945 -944 -68 0
945 -944 68 0
945 944 -68 0
-946 945 70 0
-946 -945 -70 0
946 -945 70 0
946 945 -70 0
-947 946 71 0
-947 -946 -71 0
947 -946 71 0
947 946 -71 0
-948 947 72 0
-948 -947 -72 0
948 -947 72 0
948 947 -72 0
-949 948 73 0
-949 -948 -73 0
949 -948 73 0
949 948 -73 0
-950 949 77 0
-950 -949 -77 0
950 -949 77 0
950 949 -77 0
-951 950 78 0
-951 -950 -78 0
951 -950 78 0
951 950 -78 0
-952 951 79 0
-952 -951 -79 0
952 -951 79 0
952 951 -79 0
-953 952 81 0
-953 -952 -81 0
953 -952 81 0
953 952 -81 0
-954 953 82 0
-954 -953 -82 0
954 -953 82 0
954 953 -82 0
-955 954 83 0
-955 -954 -83 0
955 -954 83 0
955 954 -83 0
-956 955 85 0
-956 -955 -85 0
956 -955 85 0
956 955 -85 0
-957 956 87 0
-957 -956 -87 0
957 -956 87 0
957 956 -87 0
-958 957 89 0
-958 -957 -89 0
958 -957 89 0
958 957 -89 0
-959 958 91 0
-959 -958 -91 0
959 -958 91 0
959 958 -91 0
-960 959 92 0
-960 -959 -92 0
960 -959 92 0
960 959 -92 0
-961 960 93 0
-961 -960 -93 0
961 -960 93 0
961 960 -93 0
-962 961 95 0
-962 -961 -95 0
962 -961 95 0
962 961 -95 0
-963 962 97 0
-963 -962 -97 0
963 -962 97 0
963 962 -97 0
-964 963 98 0
-964 -963 -98 0
964 -963 98 0
964 963 -98 0
-965 964 100 0
-965 -964 -100 0
965 -964 100 0
965 964 -100 0
-966 965 101 0
-966 -965 -101 0
966 -965 101 0
966 965 -101 0
-967 966 102 0
-967 -966 -102 0
967 -966 102 0
967 966 -102 0
-968 967 103 0
-968 -967 -103 0
968 -967 103 0
968 967 -103 0
-969 968 104 0
-969 -968 -104 0
969 -968 104 0
969 968 -104 0
-970 969 106 0
-970 -969 -106 0
970 -969 106 0
970 969 -106 0
-971 970 107 0
-971 -970 -107 0
971 -970 107 0
971 970 -107 0
-972 971 121 0
-972 -971 -121 0
972 -971 121 0
972 971 -121 0
-973 972 160 0
-973 -972 -160 0
973 -972 160 0
973 972 -160 0
-974 973 165 0
-974 -973 -165 0
974 -973 165 0
974 973 -165 0
-975 974 167 0
-975 -974 -167 0
975 -974 167 0
975 974 -167 0
-976 975 169 0
-976 -975 -169 0
976 -975 169 0
976 975 -169 0
-977 976 171 0
-977 -976 -171 0
977 -976 171 0
977 976 -171 0
-978 977 174 0
-978 -977 -174 0
978 -977 174 0
978 977 -174 0
-979 978 176 0
-979 -978 -176 0
979 -978 176 0
979 978 -176 0
-980 979 177 0
-980 -979 -177 0
980 -979 177 0
980 979 -177 0
-981 980 183 0
-981 -980 -183 0
981 -980 183 0
981 980 -183 0
-982 981 184 0
-982 -981 -184 0
982 -981 184 0
982 981 -184 0
-983 982 185 0
-983 -982 -185 0
983 -982 185 0
983 982 -185 0
-984 983 187 0
-984 -983 -187 0
984 -983 187 0
984 983 -187 0
-985 984 188 0
-985 -984 -188 0
985 -984 188 0
985 984 -188 0
-986 985 194 0
-986 -985 -194 0
986 -985 194 0
986 985 -194 0
-987 986 196 0
-987 -986 -196 0
987 -986 196 0
987 986 -196 0
-988 987 197 0
-988 -987 -197 0
988 -987 197 0
988 987 -197 0
-989 988 198 0
-989 -988 -198 0
989 -988 198 0
989 988 -198 0
-990 989 199 0
-990 -989 -199 0
990 -989 199 0
990 989 -199 0
-991 990 200 0
-991 -990 -200 0
991 -990 200 0
991 990 -200 0
-992 991 202 0
-992 -991 -202 0
992 -991 202 0
992 991 -202 0
-993 992 206 0
-993 -992 -206 0
993 -992 206 0
993 992 -206 0
-994 993 207 0
-994 -993 -207 0
994 -993 207 0
994 993 -207 0
-995 994 208 0
-995 -994 -208 0
995 -994 208 0
995 994 -208 0
-996 995 214 0
-996 -995 -214 0
996 -995 214 0
996 995 -214 0
-997 996 216 0
-997 -996 -216 0
997 -996 216 0
997 996 -216 0
-997 0
-998 46 53 0
-998 -46 -53 0
998 -46 53 0
998 46 -53 0
-999 998 54 0
-999 -998 -54 0
999 -998 54 0
999 998 -54 0
-1000 999 58 0
-1000 -999 -58 0
1000 -999 58 0
1000 999 -58 0
-1001 1000 62 0
-1001 -1000 -62 0
1001 -1000 62 0
1001 1000 -62 0
-1002 1001 63 0
-1002 -1001 -63 0
1002 -1001 63 0
1002 1001 -63 0
-1003 1002 64 0
-1003 -1002 -64 0
1003 -1002 64 0
1003 1002 -64 0
-1004 1003 65 0
-1004 -1003 -65 0
1004 -1003 65 0
1004 1003 -65 0
-1005 1004 67 0
-1005 -1004 -67 0
1005 -1004 67 0
1005 1004 -67 0
-1006 1005 68 0
-1006 -1005 -68 0
1006 -1005 68 0
1006 1005 -68 0
-1007 1006 69 0
-1007 -1006 -69 0
1007 -1006 69 0
1007 1006 -69 0
-1008 1007 70 0
-1008 -1007 -70 0
1008 -1007 70 0
1008 1007 -70 0
-1009 1008 72 0
-1009 -1008 -72 0
1009 -1008 72 0
1009 1008 -72 0
-1010 1009 73 0
-1010 -1009 -73 0
1010 -1009 73 0
1010 1009 -73 0
-1011 1010 76 0
-1011 -1010 -76 0
1011 -1010 76 0
1011 1010 -76 0
-1012 1011 78 0
-1012 -1011 -78 0
1012 -1011 78 0
1012 1011 -78 0
-1013 1012 80 0
-1013 -1012 -80 0
1013 -1012 80 0
1013 1012 -80 0
-1014 1013 81 0
-1014 -1013 -81 0
1014 -1013 81 0
1014 1013 -81 0
-1015 1014 85 0
-1015 -1014 -85 0
1015 -1014 85 0
1015 1014 -85 0
-1016 1015 88 0
-1016 -1015 -88 0
1016 -1015 88 0
1016 1015 -88 0
-1017 1016 90 0
-1017 -1016 -90 0
1017 -1016 90 0
1017 1016 -90 0
-1018 1017 91 0
-1018 -1017 -91 0
1018 -1017 91 0
1018 1017 -91 0
-1019 1018 92 0
-1019 -1018 -92 0
1019 -1018 92 0
1019 1018 -92 0
-1020 1019 93 0
-1020 -1019 -93 0
1020 -1019 93 0
1020 1019 -93 0
-1021 1020 94 0
-1021 -1020 -94 0
1021 -1020 94 0
1021 1020 -94 0
-1022 1021 95 0
-1022 -1021 -95 0
1022 -1021 95 0
1022 1021 -95 0
-1023 1022 96 0
-1023 -1022 -96 0
1023 -1022 96 0
1023 1022 -96 0
-1024 1023 98 0
-1024 -1023 -98 0
1024 -1023 98 0
1024 1023 -98 0
-1025 1024 105 0
-1025 -1024 -105 0
1025 -1024 105 0
1025 1024 -105 0
-1026 1025 106 0
-1026 -1025 -106 0
1026 -1025 106 0
1026 1025 -106 0
-1027 1026 107 0
-1027 -1026 -107 0
1027 -1026 107 0
1027 1026 -107 0
-1028 1027 108 0
-1028 -1027 -108 0
1028 -1027 108 0
1028 1027 -108 0
-1029 1028 122 0
-1029 -1028 -122 0
1029 -1028 122 0
1029 1028 -122 0
-1030 1029 161 0
-1030 -1029 -161 0
1030 -1029 161 0
1030 1029 -161 0
-1031 1030 166 0
-1031 -1030 -166 0
1031 -1030 166 0
1031 1030 -166 0
-1032 1031 168 0
-1032 -1031 -168 0
1032 -1031 168 0
1032 1031 -168 0
-1033 1032 169 0
-1033 -1032 -169 0
1033 -1032 169 0
1033 1032 -169 0
-1034 1033 170 0
-1034 -1033 -170 0
1034 -1033 170 0
1034 1033 -170 0
-1035 1034 172 0
-1035 -1034 -172 0
1035 -1034 172 0
1035 1034 -172 0
-1036 1035 177 0
-1036 -1035 -177 0
1036 -1035 177 0
1036 1035 -177 0
-1037 1036 178 0
-1037 -1036 -178 0
1037 -1036 178 0
1037 1036 -178 0
-1038 1037 184 0
-1038 -1037 -184 0
1038 -1037 184 0
1038 1037 -184 0
-1039 1038 185 0
-1039 -1038 -185 0
1039 -1038 185 0
1039 1038 -185 0
-1040 1039 186 0
-1040 -1039 -186 0
1040 -1039 186 0
1040 1039 -186 0
-1041 1040 188 0
-1041 -1040 -188 0
1041 -1040 188 0
1041 1040 -188 0
-1042 1041 189 0
-1042 -1041 -189 0
1042 -1041 189 0
1042 1041 -189 0
-1043 1042 193 0
-1043 -1042 -193 0
1043 -1042 193 0
1043 1042 -193 0
-1044 1043 195 0
-1044 -1043 -195 0
1044 -1043 195 0
1044 1043 -195 0
-1045 1044 197 0
-1045 -1044 -197 0
1045 -1044 197 0
1045 1044 -197 0
-1046 1045 198 0
-1046 -1045 -198 0
1046 -1045 198 0
1046 1045 -198 0
-1047 1046 200 0
-1047 -1046 -200 0
1047 -1046 200 0
1047 1046 -200 0
-1048 1047 201 0
-1048 -1047 -201 0
1048 -1047 201 0
1048 1047 -201 0
-1049 1048 203 0
-1049 -1048 -203 0
1049 -1048 203 0
1049 1048 -203 0
-1050 1049 207 0
-1050 -1049 -207 0
1050 -1049 207 0
1050 1049 -207 0
-1051 1050 208 0
-1051 -1050 -208 0
1051 -1050 208 0
1051 1050 -208 0
-1052 1051 209 0
-1052 -1051 -209 0
1052 -1051 209 0
1052 1051 -209 0
-1053 1052 211 0
-1053 -1052 -211 0
1053 -1052 211 0
1053 1052 -211 0
-1054 1053 215 0
-1054 -1053 -215 0
1054 -1053 215 0
1054 1053 -215 0
-1054 0
-1055 47 52 0
-1055 -47 -52 0
1055 -47 52 0
1055 47 -52 0
-1056 1055 54 0
-1056 -1055 -54 0
1056 -1055 54 0
1056 1055 -54 0
-1057 1056 58 0
-1057 -1056 -58 0
1057 -1056 58 0
1057 1056 -58 0
-1058 1057 62 0
-1058 -1057 -62 0
1058 -1057 62 0
1058 1057 -62 0
-1059 1058 65 0
-1059 -1058 -65 0
1059 -1058 65 0
1059 1058 -65 0
-1060 1059 67 0
-1060 -1059 -67 0
1060 -1059 67 0
1060 1059 -67 0
-1061 1060 69 0
-1061 -1060 -69 0
1061 -1060 69 0
1061 1060 -69 0
-1062 1061 71 0
-1062 -1061 -71 0
1062 -1061 71 0
1062 1061 -71 0
-1063 1062 73 0
-1063 -1062 -73 0
1063 -1062 73 0
1063 1062 -73 0
-1064 1063 76 0
-1064 -1063 -76 0
1064 -1063 76 0
1064 1063 -76 0
-1065 1064 77 0
-1065 -1064 -77 0
1065 -1064 77 0
1065 1064 -77 0
-1066 1065 83 0
-1066 -1065 -83 0
1066 -1065 83 0
1066 1065 -83 0
-1067 1066 84 0
-1067 -1066 -84 0
1067 -1066 84 0
1067 1066 -84 0
-1068 1067 85 0
-1068 -1067 -85 0
1068 -1067 85 0
1068 1067 -85 0
-1069 1068 86 0
-1069 -1068 -86 0
1069 -1068 86 0
1069 1068 -86 0
-1070 1069 88 0
-1070 -1069 -88 0
1070 -1069 88 0
1070 1069 -88 0
-1071 1070 92 0
-1071 -1070 -92 0
1071 -1070 92 0
1071 1070 -92 0
-1072 1071 93 0
-1072 -1071 -93 0
1072 -1071 93 0
1072 1071 -93 0
-1073 1072 94 0
-1073 -1072 -94 0
1073 -1072 94 0
1073 1072 -94 0
-1074 1073 96 0
-1074 -1073 -96 0
1074 -1073 96 0
1074 1073 -96 0
-1075 1074 97 0
-1075 -1074 -97 0
1075 -1074 97 0
1075 1074 -97 0
-1076 1075 98 0
-1076 -1075 -98 0
1076 -1075 98 0
1076 1075 -98 0
-1077 1076 102 0
-1077 -1076 -102 0
1077 -1076 102 0
1077 1076 -102 0
-1078 1077 106 0
-1078 -1077 -106 0
1078 -1077 106 0
1078 1077 -106 0
-1079 1078 108 0
-1079 -1078 -108 0
1079 -1078 108 0
1079 1078 -108 0
-1080 1079 123 0
-1080 -1079 -123 0
1080 -1079 123 0
1080 1079 -123 0
-1081 1080 162 0
-1081 -1080 -162 0
1081 -1080 162 0
1081 1080 -162 0
-1082 1081 165 0
-1082 -1081 -165 0
1082 -1081 165 0
1082 1081 -165 0
-1083 1082 166 0
-1083 -1082 -166 0
1083 -1082 166 0
1083 1082 -166 0
-1084 1083 167 0
-1084 -1083 -167 0
1084 -1083 167 0
1084 1083 -167 0
-1085 1084 168 0
-1085 -1084 -168 0
1085 -1084 168 0
1085 1084 -168 0
-1086 1085 174 0
-1086 -1085 -174 0
1086 -1085 174 0
1086 1085 -174 0
-1087 1086 175 0
-1087 -1086 -175 0
1087 -1086 175 0
1087 1086 -175 0
-1088 1087 176 0
-1088 -1087 -176 0
1088 -1087 176 0
1088 1087 -176 0
-1089 1088 183 0
-1089 -1088 -183 0
1089 -1088 183 0
1089 1088 -183 0
-1090 1089 184 0
-1090 -1089 -184 0
1090 -1089 184 0
1090 1089 -184 0
-1091 1090 185 0
-1091 -1090 -185 0
1091 -1090 185 0
1091 1090 -185 0
-1092 1091 188 0
-1092 -1091 -188 0
1092 -1091 188 0
1092 1091 -188 0
-1093 1092 190 0
-1093 -1092 -190 0
1093 -1092 190 0
1093 1092 -190 0
-1094 1093 191 0
-1094 -1093 -191 0
1094 -1093 191 0
1094 1093 -191 0
-1095 1094 192 0
-1095 -1094 -192 0
1095 -1094 192 0
1095 1094 -192 0
-1096 1095 197 0
-1096 -1095 -197 0
1096 -1095 197 0
1096 1095 -197 0
-1097 1096 198 0
-1097 -1096 -198 0
1097 -1096 198 0
1097 1096 -198 0
-1098 1097 199 0
-1098 -1097 -199 0
1098 -1097 199 0
1098 1097 -199 0
-1099 1098 206 0
-1099 -1098 -206 0
1099 -1098 206 0
1099 1098 -206 0
-1100 1099 207 0
-1100 -1099 -207 0
1100 -1099 207 0
1100 1099 -207 0
-1101 1100 208 0
-1101 -1100 -208 0
1101 -1100 208 0
1101 1100 -208 0
-1102 1101 211 0
-1102 -1101 -211 0
1102 -1101 211 0
1102 1101 -211 0
-1103 1102 214 0
-1103 -1102 -214 0
1103 -1102 214 0
1103 1102 -214 0
-1104 1103 215 0
-1104 -1103 -215 0
1104 -1103 215 0
1104 1103 -215 0
-1105 1104 216 0
-1105 -1104 -216 0
1105 -1104 216 0
1105 1104 -216 0
-1105 0
-1106 59 64 0
-1106 -59 -64 0
1106 -59 64 0
1106 59 -64 0
-1107 1106 65 0
-1107 -1106 -65 0
1107 -1106 65 0
1107 1106 -65 0
-1108 1107 68 0
-1108 -1107 -68 0
1108 -1107 68 0
1108 1107 -68 0
-1109 1108 69 0
-1109 -1108 -69 0
1109 -1108 69 0
1109 1108 -69 0
-1110 1109 71 0
-1110 -1109 -71 0
1110 -1109 71 0
1110 1109 -71 0
-1111 1110 72 0
-1111 -1110 -72 0
1111 -1110 72 0
1111 1110 -72 0
-1112 1111 73 0
-1112 -1111 -73 0
1112 -1111 73 0
1112 1111 -73 0
-1113 1112 74 0
-1113 -1112 -74 0
1113 -1112 74 0
1113 1112 -74 0
-1114 1113 82 0
-1114 -1113 -82 0
1114 -1113 82 0
1114 1113 -82 0
-1115 1114 86 0
-1115 -1114 -86 0
1115 -1114 86 0
1115 1114 -86 0
-1116 1115 87 0
-1116 -1115 -87 0
1116 -1115 87 0
1116 1115 -87 0
-1117 1116 89 0
-1117 -1116 -89 0
1117 -1116 89 0
1117 1116 -89 0
-1118 1117 90 0
-1118 -1117 -90 0
1118 -1117 90 0
1118 1117 -90 0
-1119 1118 91 0
-1119 -1118 -91 0
1119 -1118 91 0
1119 1118 -91 0
-1120 1119 97 0
-1120 -1119 -97 0
1120 -1119 97 0
1120 1119 -97 0
-1121 1120 98 0
-1121 -1120 -98 0
1121 -1120 98 0
1121 1120 -98 0
-1122 1121 100 0
-1122 -1121 -100 0
1122 -1121 100 0
1122 1121 -100 0
-1123 1122 103 0
-1123 -1122 -103 0
1123 -1122 103 0
1123 1122 -103 0
-1124 1123 104 0
-1124 -1123 -104 0
1124 -1123 104 0
1124 1123 -104 0
-1125 1124 105 0
-1125 -1124 -105 0
1125 -1124 105 0
1125 1124 -105 0
-1126 1125 106 0
-1126 -1125 -106 0
1126 -1125 106 0
1126 1125 -106 0
-1127 1126 107 0
-1127 -1126 -107 0
1127 -1126 107 0
1127 1126 -107 0
-1128 1127 108 0
-1128 -1127 -108 0
1128 -1127 108 0
1128 1127 -108 0
-1129 1128 124 0
-1129 -1128 -124 0
1129 -1128 124 0
1129 1128 -124 0
-1130 1129 160 0
-1130 -1129 -160 0
1130 -1129 160 0
1130 1129 -160 0
-1131 1130 166 0
-1131 -1130 -166 0
1131 -1130 166 0
1131 1130 -166 0
-1132 1131 168 0
-1132 -1131 -168 0
1132 -1131 168 0
1132 1131 -168 0
-1133 1132 170 0
-1133 -1132 -170 0
1133 -1132 170 0
1133 1132 -170 0
-1134 1133 171 0
-1134 -1133 -171 0
1134 -1133 171 0
1134 1133 -171 0
-1135 1134 173 0
-1135 -1134 -173 0
1135 -1134 173 0
1135 1134 -173 0
-1136 1135 175 0
-1136 -1135 -175 0
1136 -1135 175 0
1136 1135 -175 0
-1137 1136 176 0
-1137 -1136 -176 0
1137 -1136 176 0
1137 1136 -176 0
-1138 1137 177 0
-1138 -1137 -177 0
1138 -1137 177 0
1138 1137 -177 0
-1139 1138 178 0
-1139 -1138 -178 0
1139 -1138 178 0
1139 1138 -178 0
-1140 1139 179 0
-1140 -1139 -179 0
1140 -1139 179 0
1140 1139 -179 0
-1141 1140 180 0
-1141 -1140 -180 0
1141 -1140 180 0
1141 1140 -180 0
-1142 1141 181 0
-1142 -1141 -181 0
1142 -1141 181 0
1142 1141 -181 0
-1143 1142 183 0
-1143 -1142 -183 0
1143 -1142 183 0
1143 1142 -183 0
-1144 1143 184 0
-1144 -1143 -184 0
1144 -1143 184 0
1144 1143 -184 0
-1145 1144 189 0
-1145 -1144 -189 0
1145 -1144 189 0
1145 1144 -189 0
-1146 1145 191 0
-1146 -1145 -191 0
1146 -1145 191 0
1146 1145 -191 0
-1147 1146 193 0
-1147 -1146 -193 0
1147 -1146 193 0
1147 1146 -193 0
-1148 1147 194 0
-1148 -1147 -194 0
1148 -1147 194 0
1148 1147 -194 0
-1149 1148 200 0
-1149 -1148 -200 0
1149 -1148 200 0
1149 1148 -200 0
-1150 1149 201 0
-1150 -1149 -201 0
1150 -1149 201 0
1150 1149 -201 0
-1151 1150 202 0
-1151 -1150 -202 0
1151 -1150 202 0
1151 1150 -202 0
-1152 1151 203 0
-1152 -1151 -203 0
1152 -1151 203 0
1152 1151 -203 0
-1153 1152 204 0
-1153 -1152 -204 0
1153 -1152 204 0
1153 1152 -204 0
-1154 1153 205 0
-1154 -1153 -205 0
1154 -1153 205 0
1154 1153 -205 0
-1155 1154 206 0
-1155 -1154 -206 0
1155 -1154 206 0
1155 1154 -206 0
-1156 1155 207 0
-1156 -1155 -207 0
1156 -1155 207 0
1156 1155 -207 0
-1157 1156 208 0
-1157 -1156 -208 0
1157 -1156 208 0
1157 1156 -208 0
-1158 1157 210 0
-1158 -1157 -210 0
1158 -1157 210 0
1158 1157 -210 0
-1159 1158 212 0
-1159 -1158 -212 0
1159 -1158 212 0
1159 1158 -212 0
-1160 1159 214 0
-1160 -1159 -214 0
1160 -1159 214 0
1160 1159 -214 0
-1160 0
-1161 60 63 0
-1161 -60 -63 0
1161 -60 63 0
1161 60 -63 0
-1162 1161 65 0
-1162 -1161 -65 0
1162 -1161 65 0
1162 1161 -65 0
-1163 1162 69 0
-1163 -1162 -69 0
1163 -1162 69 0
1163 1162 -69 0
-1164 1163 72 0
-1164 -1163 -72 0
1164 -1163 72 0
1164 1163 -72 0
-1165 1164 74 0
-1165 -1164 -74 0
1165 -1164 74 0
1165 1164 -74 0
-1166 1165 75 0
-1166 -1165 -75 0
1166 -1165 75 0
1166 1165 -75 0
-1167 1166 81 0
-1167 -1166 -81 0
1167 -1166 81 0
1167 1166 -81 0
-1168 1167 83 0
-1168 -1167 -83 0
1168 -1167 83 0
1168 1167 -83 0
-1169 1168 84 0
-1169 -1168 -84 0
1169 -1168 84 0
1169 1168 -84 0
-1170 1169 87 0
-1170 -1169 -87 0
1170 -1169 87 0
1170 1169 -87 0
-1171 1170 90 0
-1171 -1170 -90 0
1171 -1170 90 0
1171 1170 -90 0
-1172 1171 92 0
-1172 -1171 -92 0
1172 -1171 92 0
1172 1171 -92 0
-1173 1172 98 0
-1173 -1172 -98 0
1173 -1172 98 0
1173 1172 -98 0
-1174 1173 101 0
-1174 -1173 -101 0
1174 -1173 101 0
1174 1173 -101 0
-1175 1174 102 0
-1175 -1174 -102 0
1175 -1174 102 0
1175 1174 -102 0
-1176 1175 104 0
-1176 -1175 -104 0
1176 -1175 104 0
1176 1175 -104 0
-1177 1176 105 0
-1177 -1176 -105 0
1177 -1176 105 0
1177 1176 -105 0
-1178 1177 107 0
-1178 -1177 -107 0
1178 -1177 107 0
1178 1177 -107 0
-1179 1178 108 0
-1179 -1178 -108 0
1179 -1178 108 0
1179 1178 -108 0
-1180 1179 125 0
-1180 -1179 -125 0
1180 -1179 125 0
1180 1179 -125 0
-1181 1180 161 0
-1181 -1180 -161 0
1181 -1180 161 0
1181 1180 -161 0
-1182 1181 165 0
-1182 -1181 -165 0
1182 -1181 165 0
1182 1181 -165 0
-1183 1182 166 0
-1183 -1182 -166 0
1183 -1182 166 0
1183 1182 -166 0
-1184 1183 167 0
-1184 -1183 -167 0
1184 -1183 167 0
1184 1183 -167 0
-1185 1184 168 0
-1185 -1184 -168 0
1185 -1184 168 0
1185 1184 -168 0
-1186 1185 170 0
-1186 -1185 -170 0
1186 -1185 170 0
1186 1185 -170 0
-1187 1186 172 0
-1187 -1186 -172 0
1187 -1186 172 0
1187 1186 -172 0
-1188 1187 173 0
-1188 -1187 -173 0
1188 -1187 173 0
1188 1187 -173 0
-1189 1188 177 0
-1189 -1188 -177 0
1189 -1188 177 0
1189 1188 -177 0
-1190 1189 180 0
-1190 -1189 -180 0
1190 -1189 180 0
1190 1189 -180 0
-1191 1190 181 0
-1191 -1190 -181 0
1191 -1190 181 0
1191 1190 -181 0
-1192 1191 182 0
-1192 -1191 -182 0
1192 -1191 182 0
1192 1191 -182 0
-1193 1192 183 0
-1193 -1192 -183 0
1193 -1192 183 0
1193 1192 -183 0
-1194 1193 185 0
-1194 -1193 -185 0
1194 -1193 185 0
1194 1193 -185 0
-1195 1194 186 0
-1195 -1194 -186 0
1195 -1194 186 0
1195 1194 -186 0
-1196 1195 188 0
-1196 -1195 -188 0
1196 -1195 188 0
1196 1195 -188 0
-1197 1196 189 0
-1197 -1196 -189 0
1197 -1196 189 0
1197 1196 -189 0
-1198 1197 190 0
-1198 -1197 -190 0
1198 -1197 190 0
1198 1197 -190 0
-1199 1198 191 0
-1199 -1198 -191 0
1199 -1198 191 0
1199 1198 -191 0
-1200 1199 193 0
-1200 -1199 -193 0
1200 -1199 193 0
1200 1199 -193 0
-1201 1200 195 0
-1201 -1200 -195 0
1201 -1200 195 0
1201 1200 -195 0
-1202 1201 196 0
-1202 -1201 -196 0
1202 -1201 196 0
1202 1201 -196 0
-1203 1202 197 0
-1203 -1202 -197 0
1203 -1202 197 0
1203 1202 -197 0
-1204 1203 203 0
-1204 -1203 -203 0
1204 -1203 203 0
1204 1203 -203 0
-1205 1204 205 0
-1205 -1204 -205 0
1205 -1204 205 0
1205 1204 -205 0
-1206 1205 208 0
-1206 -1205 -208 0
1206 -1205 208 0
1206 1205 -208 0
-1207 1206 210 0
-1207 -1206 -210 0
1207 -1206 210 0
1207 1206 -210 0
-1208 1207 211 0
-1208 -1207 -211 0
1208 -1207 211 0
1208 1207 -211 0
-1209 1208 212 0
-1209 -1208 -212 0
1209 -1208 212 0
1209 1208 -212 0
-1210 1209 213 0
-1210 -1209 -213 0
1210 -1209 213 0
1210 1209 -213 0
-1211 1210 214 0
-1211 -1210 -214 0
1211 -1210 214 0
1211 1210 -214 0
-1211 0
-1212 58 62 0
-1212 -58 -62 0
1212 -58 62 0
1212 58 -62 0
-1213 1212 64 0
-1213 -1212 -64 0
1213 -1212 64 0
1213 1212 -64 0
-1214 1213 65 0
-1214 -1213 -65 0
1214 -1213 65 0
1214 1213 -65 0
-1215 1214 66 0
-1215 -1214 -66 0
1215 -1214 66 0
1215 1214 -66 0
-1216 1215 67 0
-1216 -1215 -67 0
1216 -1215 67 0
1216 1215 -67 0
-1217 1216 70 0
-1217 -1216 -70 0
1217 -1216 70 0
1217 1216 -70 0
-1218 1217 73 0
-1218 -1217 -73 0
1218 -1217 73 0
1218 1217 -73 0
-1219 1218 75 0
-1219 -1218 -75 0
1219 -1218 75 0
1219 1218 -75 0
-1220 1219 79 0
-1220 -1219 -79 0
1220 -1219 79 0
1220 1219 -79 0
-1221 1220 80 0
-1221 -1220 -80 0
1221 -1220 80 0
1221 1220 -80 0
-1222 1221 82 0
-1222 -1221 -82 0
1222 -1221 82 0
1222 1221 -82 0
-1223 1222 83 0
-1223 -1222 -83 0
1223 -1222 83 0
1223 1222 -83 0
-1224 1223 84 0
-1224 -1223 -84 0
1224 -1223 84 0
1224 1223 -84 0
-1225 1224 85 0
-1225 -1224 -85 0
1225 -1224 85 0
1225 1224 -85 0
-1226 1225 88 0
-1226 -1225 -88 0
1226 -1225 88 0
1226 1225 -88 0
-1227 1226 91 0
-1227 -1226 -91 0
1227 -1226 91 0
1227 1226 -91 0
-1228 1227 93 0
-1228 -1227 -93 0
1228 -1227 93 0
1228 1227 -93 0
-1229 1228 94 0
-1229 -1228 -94 0
1229 -1228 94 0
1229 1228 -94 0
-1230 1229 97 0
-1230 -1229 -97 0
1230 -1229 97 0
1230 1229 -97 0
-1231 1230 98 0
-1231 -1230 -98 0
1231 -1230 98 0
1231 1230 -98 0
-1232 1231 99 0
-1232 -1231 -99 0
1232 -1231 99 0
1232 1231 -99 0
-1233 1232 101 0
-1233 -1232 -101 0
1233 -1232 101 0
1233 1232 -101 0
-1234 1233 102 0
-1234 -1233 -102 0
1234 -1233 102 0
1234 1233 -102 0
-1235 1234 103 0
-1235 -1234 -103 0
1235 -1234 103 0
1235 1234 -103 0
-1236 1235 105 0
-1236 -1235 -105 0
1236 -1235 105 0
1236 1235 -105 0
-1237 1236 106 0
-1237 -1236 -106 0
1237 -1236 106 0
1237 1236 -106 0
-1238 1237 108 0
-1238 -1237 -108 0
1238 -1237 108 0
1238 1237 -108 0
-1239 1238 126 0
-1239 -1238 -126 0
1239 -1238 126 0
1239 1238 -126 0
-1240 1239 162 0
-1240 -1239 -162 0
1240 -1239 162 0
1240 1239 -162 0
-1241 1240 165 0
-1241 -1240 -165 0
1241 -1240 165 0
1241 1240 -165 0
-1242 1241 167 0
-1242 -1241 -167 0
1242 -1241 167 0
1242 1241 -167 0
-1243 1242 170 0
-1243 -1242 -170 0
1243 -1242 170 0
1243 1242 -170 0
-1244 1243 176 0
-1244 -1243 -176 0
1244 -1243 176 0
1244 1243 -176 0
-1245 1244 179 0
-1245 -1244 -179 0
1245 -1244 179 0
1245 1244 -179 0
-1246 1245 182 0
-1246 -1245 -182 0
1246 -1245 182 0
1246 1245 -182 0
-1247 1246 188 0
-1247 -1246 -188 0
1247 -1246 188 0
1247 1246 -188 0
-1248 1247 190 0
-1248 -1247 -190 0
1248 -1247 190 0
1248 1247 -190 0
-1249 1248 193 0
-1249 -1248 -193 0
1249 -1248 193 0
1249 1248 -193 0
-1250 1249 198 0
-1250 -1249 -198 0
1250 -1249 198 0
1250 1249 -198 0
-1251 1250 199 0
-1251 -1250 -199 0
1251 -1250 199 0
1251 1250 -199 0
-1252 1251 201 0
-1252 -1251 -201 0
1252 -1251 201 0
1252 1251 -201 0
-1253 1252 202 0
-1253 -1252 -202 0
1253 -1252 202 0
1253 1252 -202 0
-1254 1253 205 0
-1254 -1253 -205 0
1254 -1253 205 0
1254 1253 -205 0
-1255 1254 207 0
-1255 -1254 -207 0
1255 -1254 207 0
1255 1254 -207 0
-1256 1255 210 0
-1256 -1255 -210 0
1256 -1255 210 0
1256 1255 -210 0
-1257 1256 211 0
-1257 -1256 -211 0
1257 -1256 211 0
1257 1256 -211 0
-1258 1257 213 0
-1258 -1257 -213 0
1258 -1257 213 0
1258 1257 -213 0
-1258 0
-1259 46 48 0
-1259 -46 -48 0
1259 -46 48 0
1259 46 -48 0
-1260 1259 53 0
-1260 -1259 -53 0
1260 -1259 53 0
1260 1259 -53 0
-1261 1260 58 0
-1261 -1260 -58 0
1261 -1260 58 0
1261 1260 -58 0
-1262 1261 59 0
-1262 -1261 -59 0
1262 -1261 59 0
1262 1261 -59 0
-1263 1262 63 0
-1263 -1262 -63 0
1263 -1262 63 0
1263 1262 -63 0
-1264 1263 65 0
-1264 -1263 -65 0
1264 -1263 65 0
1264 1263 -65 0
-1265 1264 66 0
-1265 -1264 -66 0
1265 -1264 66 0
1265 1264 -66 0
-1266 1265 68 0
-1266 -1265 -68 0
1266 -1265 68 0
1266 1265 -68 0
-1267 1266 72 0
-1267 -1266 -72 0
1267 -1266 72 0
1267 1266 -72 0
-1268 1267 77 0
-1268 -1267 -77 0
1268 -1267 77 0
1268 1267 -77 0
-1269 1268 78 0
-1269 -1268 -78 0
1269 -1268 78 0
1269 1268 -78 0
-1270 1269 83 0
-1270 -1269 -83 0
1270 -1269 83 0
1270 1269 -83 0
-1271 1270 84 0
-1271 -1270 -84 0
1271 -1270 84 0
1271 1270 -84 0
-1272 1271 86 0
-1272 -1271 -86 0
1272 -1271 86 0
1272 1271 -86 0
-1273 1272 87 0
-1273 -1272 -87 0
1273 -1272 87 0
1273 1272 -87 0
-1274 1273 91 0
-1274 -1273 -91 0
1274 -1273 91 0
1274 1273 -91 0
-1275 1274 92 0
-1275 -1274 -92 0
1275 -1274 92 0
1275 1274 -92 0
-1276 1275 93 0
-1276 -1275 -93 0
1276 -1275 93 0
1276 1275 -93 0
-1277 1276 95 0
-1277 -1276 -95 0
1277 -1276 95 0
1277 1276 -95 0
-1278 1277 97 0
-1278 -1277 -97 0
1278 -1277 97 0
1278 1277 -97 0
-1279 1278 98 0
-1279 -1278 -98 0
1279 -1278 98 0
1279 1278 -98 0
-1280 1279 99 0
-1280 -1279 -99 0
1280 -1279 99 0
1280 1279 -99 0
-1281 1280 100 0
-1281 -1280 -100 0
1281 -1280 100 0
1281 1280 -100 0
-1282 1281 101 0
-1282 -1281 -101 0
1282 -1281 101 0
1282 1281 -101 0
-1283 1282 103 0
-1283 -1282 -103 0
1283 -1282 103 0
1283 1282 -103 0
-1284 1283 106 0
-1284 -1283 -106 0
1284 -1283 106 0
1284 1283 -106 0
-1285 1284 107 0
-1285 -1284 -107 0
1285 -1284 107 0
1285 1284 -107 0
-1286 1285 127 0
-1286 -1285 -127 0
1286 -1285 127 0
1286 1285 -127 0
-1287 1286 154 0
-1287 -1286 -154 0
1287 -1286 154 0
1287 1286 -154 0
-1288 1287 160 0
-1288 -1287 -160 0
1288 -1287 160 0
1288 1287 -160 0
-1289 1288 165 0
-1289 -1288 -165 0
1289 -1288 165 0
1289 1288 -165 0
-1290 1289 167 0
-1290 -1289 -167 0
1290 -1289 167 0
1290 1289 -167 0
-1291 1290 168 0
-1291 -1290 -168 0
1291 -1290 168 0
1291 1290 -168 0
-1292 1291 169 0
-1292 -1291 -169 0
1292 -1291 169 0
1292 1291 -169 0
-1293 1292 176 0
-1293 -1292 -176 0
1293 -1292 176 0
1293 1292 -176 0
-1294 1293 177 0
-1294 -1293 -177 0
1294 -1293 177 0
1294 1293 -177 0
-1295 1294 180 0
-1295 -1294 -180 0
1295 -1294 180 0
1295 1294 -180 0
-1296 1295 183 0
-1296 -1295 -183 0
1296 -1295 183 0
1296 1295 -183 0
-1297 1296 184 0
-1297 -1296 -184 0
1297 -1296 184 0
1297 1296 -184 0
-1298 1297 185 0
-1298 -1297 -185 0
1298 -1297 185 0
1298 1297 -185 0
-1299 1298 186 0
-1299 -1298 -186 0
1299 -1298 186 0
1299 1298 -186 0
-1300 1299 187 0
-1300 -1299 -187 0
1300 -1299 187 0
1300 1299 -187 0
-1301 1300 188 0
-1301 -1300 -188 0
1301 -1300 188 0
1301 1300 -188 0
-1302 1301 191 0
-1302 -1301 -191 0
1302 -1301 191 0
1302 1301 -191 0
-1303 1302 193 0
-1303 -1302 -193 0
1303 -1302 193 0
1303 1302 -193 0
-1304 1303 196 0
-1304 -1303 -196 0
1304 -1303 196 0
1304 1303 -196 0
-1305 1304 198 0
-1305 -1304 -198 0
1305 -1304 198 0
1305 1304 -198 0
-1306 1305 200 0
-1306 -1305 -200 0
1306 -1305 200 0
1306 1305 -200 0
-1307 1306 203 0
-1307 -1306 -203 0
1307 -1306 203 0
1307 1306 -203 0
-1308 1307 205 0
-1308 -1307 -205 0
1308 -1307 205 0
1308 1307 -205 0
-1309 1308 206 0
-1309 -1308 -206 0
1309 -1308 206 0
1309 1308 -206 0
-1310 1309 207 0
-1310 -1309 -207 0
1310 -1309 207 0
1310 1309 -207 0
-1311 1310 208 0
-1311 -1310 -208 0
1311 -1310 208 0
1311 1310 -208 0
-1312 1311 209 0
-1312 -1311 -209 0
1312 -1311 209 0
1312 1311 -209 0
-1313 1312 211 0
-1313 -1312 -211 0
1313 -1312 211 0
1313 1312 -211 0
-1314 1313 214 0
-1314 -1313 -214 0
1314 -1313 214 0
1314 1313 -214 0
-1315 1314 216 0
-1315 -1314 -216 0
1315 -1314 216 0
1315 1314 -216 0
-1315 0
-1316 46 47 0
-1316 -46 -47 0
1316 -46 47 0
1316 46 -47 0
-1317 1316 54 0
-1317 -1316 -54 0
1317 -1316 54 0
1317 1316 -54 0
-1318 1317 58 0
-1318 -1317 -58 0
1318 -1317 58 0
1318 1317 -58 0
-1319 1318 60 0
-1319 -1318 -60 0
1319 -1318 60 0
1319 1318 -60 0
-1320 1319 63 0
-1320 -1319 -63 0
1320 -1319 63 0
1320 1319 -63 0
-1321 1320 64 0
-1321 -1320 -64 0
1321 -1320 64 0
1321 1320 -64 0
-1322 1321 65 0
-1322 -1321 -65 0
1322 -1321 65 0
1322 1321 -65 0
-1323 1322 67 0
-1323 -1322 -67 0
1323 -1322 67 0
1323 1322 -67 0
-1324 1323 68 0
-1324 -1323 -68 0
1324 -1323 68 0
1324 1323 -68 0
-1325 1324 70 0
-1325 -1324 -70 0
1325 -1324 70 0
1325 1324 -70 0
-1326 1325 72 0
-1326 -1325 -72 0
1326 -1325 72 0
1326 1325 -72 0
-1327 1326 73 0
-1327 -1326 -73 0
1327 -1326 73 0
1327 1326 -73 0
-1328 1327 74 0
-1328 -1327 -74 0
1328 -1327 74 0
1328 1327 -74 0
-1329 1328 76 0
-1329 -1328 -76 0
1329 -1328 76 0
1329 1328 -76 0
-1330 1329 78 0
-1330 -1329 -78 0
1330 -1329 78 0
1330 1329 -78 0
-1331 1330 80 0
-1331 -1330 -80 0
1331 -1330 80 0
1331 1330 -80 0
-1332 1331 81 0
-1332 -1331 -81 0
1332 -1331 81 0
1332 1331 -81 0
-1333 1332 85 0
-1333 -1332 -85 0
1333 -1332 85 0
1333 1332 -85 0
-1334 1333 88 0
-1334 -1333 -88 0
1334 -1333 88 0
1334 1333 -88 0
-1335 1334 89 0
-1335 -1334 -89 0
1335 -1334 89 0
1335 1334 -89 0
-1336 1335 90 0
-1336 -1335 -90 0
1336 -1335 90 0
1336 1335 -90 0
-1337 1336 91 0
-1337 -1336 -91 0
1337 -1336 91 0
1337 1336 -91 0
-1338 1337 92 0
-1338 -1337 -92 0
1338 -1337 92 0
1338 1337 -92 0
-1339 1338 93 0
-1339 -1338 -93 0
1339 -1338 93 0
1339 1338 -93 0
-1340 1339 94 0
-1340 -1339 -94 0
1340 -1339 94 0
1340 1339 -94 0
-1341 1340 95 0
-1341 -1340 -95 0
1341 -1340 95 0
1341 1340 -95 0
-1342 1341 96 0
-1342 -1341 -96 0
1342 -1341 96 0
1342 1341 -96 0
-1343 1342 101 0
-1343 -1342 -101 0
1343 -1342 101 0
1343 1342 -101 0
-1344 1343 104 0
-1344 -1343 -104 0
1344 -1343 104 0
1344 1343 -104 0
-1345 1344 105 0
-1345 -1344 -105 0
1345 -1344 105 0
1345 1344 -105 0
-1346 1345 106 0
-1346 -1345 -106 0
1346 -1345 106 0
1346 1345 -106 0
-1347 1346 128 0
-1347 -1346 -128 0
1347 -1346 128 0
1347 1346 -128 0
-1348 1347 155 0
-1348 -1347 -155 0
1348 -1347 155 0
1348 1347 -155 0
-1349 1348 161 0
-1349 -1348 -161 0
1349 -1348 161 0
1349 1348 -161 0
-1350 1349 165 0
-1350 -1349 -165 0
1350 -1349 165 0
1350 1349 -165 0
-1351 1350 171 0
-1351 -1350 -171 0
1351 -1350 171 0
1351 1350 -171 0
-1352 1351 173 0
-1352 -1351 -173 0
1352 -1351 173 0
1352 1351 -173 0
-1353 1352 174 0
-1353 -1352 -174 0
1353 -1352 174 0
1353 1352 -174 0
-1354 1353 176 0
-1354 -1353 -176 0
1354 -1353 176 0
1354 1353 -176 0
-1355 1354 177 0
-1355 -1354 -177 0
1355 -1354 177 0
1355 1354 -177 0
-1356 1355 179 0
-1356 -1355 -179 0
1356 -1355 179 0
1356 1355 -179 0
-1357 1356 183 0
-1357 -1356 -183 0
1357 -1356 183 0
1357 1356 -183 0
-1358 1357 185 0
-1358 -1357 -185 0
1358 -1357 185 0
1358 1357 -185 0
-1359 1358 191 0
-1359 -1358 -191 0
1359 -1358 191 0
1359 1358 -191 0
-1360 1359 196 0
-1360 -1359 -196 0
1360 -1359 196 0
1360 1359 -196 0
-1361 1360 199 0
-1361 -1360 -199 0
1361 -1360 199 0
1361 1360 -199 0
-1362 1361 202 0
-1362 -1361 -202 0
1362 -1361 202 0
1362 1361 -202 0
-1363 1362 208 0
-1363 -1362 -208 0
1363 -1362 208 0
1363 1362 -208 0
-1364 1363 214 0
-1364 -1363 -214 0
1364 -1363 214 0
1364 1363 -214 0
-1364 0
-1365 47 48 0
-1365 -47 -48 0
1365 -47 48 0
1365 47 -48 0
-1366 1365 52 0
-1366 -1365 -52 0
1366 -1365 52 0
1366 1365 -52 0
-1367 1366 63 0
-1367 -1366 -63 0
1367 -1366 63 0
1367 1366 -63 0
-1368 1367 67 0
-1368 -1367 -67 0
1368 -1367 67 0
1368 1367 -67 0
-1369 1368 69 0
-1369 -1368 -69 0
1369 -1368 69 0
1369 1368 -69 0
-1370 1369 70 0
-1370 -1369 -70 0
1370 -1369 70 0
1370 1369 -70 0
-1371 1370 71 0
-1371 -1370 -71 0
1371 -1370 71 0
1371 1370 -71 0
-1372 1371 75 0
-1372 -1371 -75 0
1372 -1371 75 0
1372 1371 -75 0
-1373 1372 77 0
-1373 -1372 -77 0
1373 -1372 77 0
1373 1372 -77 0
-1374 1373 80 0
-1374 -1373 -80 0
1374 -1373 80 0
1374 1373 -80 0
-1375 1374 84 0
-1375 -1374 -84 0
1375 -1374 84 0
1375 1374 -84 0
-1376 1375 85 0
-1376 -1375 -85 0
1376 -1375 85 0
1376 1375 -85 0
-1377 1376 86 0
-1377 -1376 -86 0
1377 -1376 86 0
1377 1376 -86 0
-1378 1377 88 0
-1378 -1377 -88 0
1378 -1377 88 0
1378 1377 -88 0
-1379 1378 90 0
-1379 -1378 -90 0
1379 -1378 90 0
1379 1378 -90 0
-1380 1379 91 0
-1380 -1379 -91 0
1380 -1379 91 0
1380 1379 -91 0
-1381 1380 92 0
-1381 -1380 -92 0
1381 -1380 92 0
1381 1380 -92 0
-1382 1381 93 0
-1382 -1381 -93 0
1382 -1381 93 0
1382 1381 -93 0
-1383 1382 96 0
-1383 -1382 -96 0
1383 -1382 96 0
1383 1382 -96 0
-1384 1383 97 0
-1384 -1383 -97 0
1384 -1383 97 0
1384 1383 -97 0
-1385 1384 99 0
-1385 -1384 -99 0
1385 -1384 99 0
1385 1384 -99 0
-1386 1385 101 0
-1386 -1385 -101 0
1386 -1385 101 0
1386 1385 -101 0
-1387 1386 103 0
-1387 -1386 -103 0
1387 -1386 103 0
1387 1386 -103 0
-1388 1387 105 0
-1388 -1387 -105 0
1388 -1387 105 0
1388 1387 -105 0
-1389 1388 106 0
-1389 -1388 -106 0
1389 -1388 106 0
1389 1388 -106 0
-1390 1389 129 0
-1390 -1389 -129 0
1390 -1389 129 0
1390 1389 -129 0
-1391 1390 156 0
-1391 -1390 -156 0
1391 -1390 156 0
1391 1390 -156 0
-1392 1391 162 0
-1392 -1391 -162 0
1392 -1391 162 0
1392 1391 -162 0
-1393 1392 166 0
-1393 -1392 -166 0
1393 -1392 166 0
1393 1392 -166 0
-1394 1393 169 0
-1394 -1393 -169 0
1394 -1393 169 0
1394 1393 -169 0
-1395 1394 172 0
-1395 -1394 -172 0
1395 -1394 172 0
1395 1394 -172 0
-1396 1395 174 0
-1396 -1395 -174 0
1396 -1395 174 0
1396 1395 -174 0
-1397 1396 177 0
-1397 -1396 -177 0
1397 -1396 177 0
1397 1396 -177 0
-1398 1397 178 0
-1398 -1397 -178 0
1398 -1397 178 0
1398 1397 -178 0
-1399 1398 180 0
-1399 -1398 -180 0
1399 -1398 180 0
1399 1398 -180 0
-1400 1399 184 0
-1400 -1399 -184 0
1400 -1399 184 0
1400 1399 -184 0
-1401 1400 186 0
-1401 -1400 -186 0
1401 -1400 186 0
1401 1400 -186 0
-1402 1401 192 0
-1402 -1401 -192 0
1402 -1401 192 0
1402 1401 -192 0
-1403 1402 197 0
-1403 -1402 -197 0
1403 -1402 197 0
1403 1402 -197 0
-1404 1403 200 0
-1404 -1403 -200 0
1404 -1403 200 0
1404 1403 -200 0
-1405 1404 203 0
-1405 -1404 -203 0
1405 -1404 203 0
1405 1404 -203 0
-1406 1405 209 0
-1406 -1405 -209 0
1406 -1405 209 0
1406 1405 -209 0
-1407 1406 215 0
-1407 -1406 -215 0
1407 -1406 215 0
1407 1406 -215 0
-1407 0
-1408 63 65 0
-1408 -63 -65 0
1408 -63 65 0
1408 63 -65 0
-1409 1408 66 0
-1409 -1408 -66 0
1409 -1408 66 0
1409 1408 -66 0
-1410 1409 69 0
-1410 -1409 -69 0
1410 -1409 69 0
1410 1409 -69 0
-1411 1410 72 0
-1411 -1410 -72 0
1411 -1410 72 0
1411 1410 -72 0
-1412 1411 74 0
-1412 -1411 -74 0
1412 -1411 74 0
1412 1411 -74 0
-1413 1412 81 0
-1413 -1412 -81 0
1413 -1412 81 0
1413 1412 -81 0
-1414 1413 82 0
-1414 -1413 -82 0
1414 -1413 82 0
1414 1413 -82 0
-1415 1414 84 0
-1415 -1414 -84 0
1415 -1414 84 0
1415 1414 -84 0
-1416 1415 85 0
-1416 -1415 -85 0
1416 -1415 85 0
1416 1415 -85 0
-1417 1416 87 0
-1417 -1416 -87 0
1417 -1416 87 0
1417 1416 -87 0
-1418 1417 88 0
-1418 -1417 -88 0
1418 -1417 88 0
1418 1417 -88 0
-1419 1418 89 0
-1419 -1418 -89 0
1419 -1418 89 0
1419 1418 -89 0
-1420 1419 90 0
-1420 -1419 -90 0
1420 -1419 90 0
1420 1419 -90 0
-1421 1420 94 0
-1421 -1420 -94 0
1421 -1420 94 0
1421 1420 -94 0
-1422 1421 97 0
-1422 -1421 -97 0
1422 -1421 97 0
1422 1421 -97 0
-1423 1422 99 0
-1423 -1422 -99 0
1423 -1422 99 0
1423 1422 -99 0
-1424 1423 100 0
-1424 -1423 -100 0
1424 -1423 100 0
1424 1423 -100 0
-1425 1424 102 0
-1425 -1424 -102 0
1425 -1424 102 0
1425 1424 -102 0
-1426 1425 105 0
-1426 -1425 -105 0
1426 -1425 105 0
1426 1425 -105 0
-1427 1426 106 0
-1427 -1426 -106 0
1427 -1426 106 0
1427 1426 -106 0
-1428 1427 108 0
-1428 -1427 -108 0
1428 -1427 108 0
1428 1427 -108 0
-1429 1428 130 0
-1429 -1428 -130 0
1429 -1428 130 0
1429 1428 -130 0
-1430 1429 154 0
-1430 -1429 -154 0
1430 -1429 154 0
1430 1429 -154 0
-1431 1430 160 0
-1431 -1430 -160 0
1431 -1430 160 0
1431 1430 -160 0
-1432 1431 168 0
-1432 -1431 -168 0
1432 -1431 168 0
1432 1431 -168 0
-1433 1432 170 0
-1433 -1432 -170 0
1433 -1432 170 0
1433 1432 -170 0
-1434 1433 171 0
-1434 -1433 -171 0
1434 -1433 171 0
1434 1433 -171 0
-1435 1434 174 0
-1435 -1434 -174 0
1435 -1434 174 0
1435 1434 -174 0
-1436 1435 178 0
-1436 -1435 -178 0
1436 -1435 178 0
1436 1435 -178 0
-1437 1436 179 0
-1437 -1436 -179 0
1437 -1436 179 0
1437 1436 -179 0
-1438 1437 180 0
-1438 -1437 -180 0
1438 -1437 180 0
1438 1437 -180 0
-1439 1438 181 0
-1439 -1438 -181 0
1439 -1438 181 0
1439 1438 -181 0
-1440 1439 182 0
-1440 -1439 -182 0
1440 -1439 182 0
1440 1439 -182 0
-1441 1440 185 0
-1441 -1440 -185 0
1441 -1440 185 0
1441 1440 -185 0
-1442 1441 186 0
-1442 -1441 -186 0
1442 -1441 186 0
1442 1441 -186 0
-1443 1442 187 0
-1443 -1442 -187 0
1443 -1442 187 0
1443 1442 -187 0
-1444 1443 190 0
-1444 -1443 -190 0
1444 -1443 190 0
1444 1443 -190 0
-1445 1444 191 0
-1445 -1444 -191 0
1445 -1444 191 0
1445 1444 -191 0
-1446 1445 193 0
-1446 -1445 -193 0
1446 -1445 193 0
1446 1445 -193 0
-1447 1446 194 0
-1447 -1446 -194 0
1447 -1446 194 0
1447 1446 -194 0
-1448 1447 197 0
-1448 -1447 -197 0
1448 -1447 197 0
1448 1447 -197 0
-1449 1448 199 0
-1449 -1448 -199 0
1449 -1448 199 0
1449 1448 -199 0
-1450 1449 201 0
-1450 -1449 -201 0
1450 -1449 201 0
1450 1449 -201 0
-1451 1450 202 0
-1451 -1450 -202 0
1451 -1450 202 0
1451 1450 -202 0
-1452 1451 203 0
-1452 -1451 -203 0
1452 -1451 203 0
1452 1451 -203 0
-1453 1452 205 0
-1453 -1452 -205 0
1453 -1452 205 0
1453 1452 -205 0
-1454 1453 209 0
-1454 -1453 -209 0
1454 -1453 209 0
1454 1453 -209 0
-1455 1454 210 0
-1455 -1454 -210 0
1455 -1454 210 0
1455 1454 -210 0
-1456 1455 211 0
-1456 -1455 -211 0
1456 -1455 211 0
1456 1455 -211 0
-1457 1456 213 0
-1457 -1456 -213 0
1457 -1456 213 0
1457 1456 -213 0
-1458 1457 216 0
-1458 -1457 -216 0
1458 -1457 216 0
1458 1457 -216 0
-1458 0
-1459 62 65 0
-1459 -62 -65 0
1459 -62 65 0
1459 62 -65 0
-1460 1459 66 0
-1460 -1459 -66 0
1460 -1459 66 0
1460 1459 -66 0
-1461 1460 67 0
-1461 -1460 -67 0
1461 -1460 67 0
1461 1460 -67 0
-1462 1461 68 0
-1462 -1461 -68 0
1462 -1461 68 0
1462 1461 -68 0
-1463 1462 69 0
-1463 -1462 -69 0
1463 -1462 69 0
1463 1462 -69 0
-1464 1463 70 0
-1464 -1463 -70 0
1464 -1463 70 0
1464 1463 -70 0
-1465 1464 71 0
-1465 -1464 -71 0
1465 -1464 71 0
1465 1464 -71 0
-1466 1465 72 0
-1466 -1465 -72 0
1466 -1465 72 0
1466 1465 -72 0
-1467 1466 75 0
-1467 -1466 -75 0
1467 -1466 75 0
1467 1466 -75 0
-1468 1467 80 0
-1468 -1467 -80 0
1468 -1467 80 0
1468 1467 -80 0
-1469 1468 85 0
-1469 -1468 -85 0
1469 -1468 85 0
1469 1468 -85 0
-1470 1469 87 0
-1470 -1469 -87 0
1470 -1469 87 0
1470 1469 -87 0
-1471 1470 88 0
-1471 -1470 -88 0
1471 -1470 88 0
1471 1470 -88 0
-1472 1471 95 0
-1472 -1471 -95 0
1472 -1471 95 0
1472 1471 -95 0
-1473 1472 103 0
-1473 -1472 -103 0
1473 -1472 103 0
1473 1472 -103 0
-1474 1473 104 0
-1474 -1473 -104 0
1474 -1473 104 0
1474 1473 -104 0
-1475 1474 105 0
-1475 -1474 -105 0
1475 -1474 105 0
1475 1474 -105 0
-1476 1475 106 0
-1476 -1475 -106 0
1476 -1475 106 0
1476 1475 -106 0
-1477 1476 108 0
-1477 -1476 -108 0
1477 -1476 108 0
1477 1476 -108 0
-1478 1477 131 0
-1478 -1477 -131 0
1478 -1477 131 0
1478 1477 -131 0
-1479 1478 155 0
-1479 -1478 -155 0
1479 -1478 155 0
1479 1478 -155 0
-1480 1479 161 0
-1480 -1479 -161 0
1480 -1479 161 0
1480 1479 -161 0
-1481 1480 165 0
-1481 -1480 -165 0
1481 -1480 165 0
1481 1480 -165 0
-1482 1481 166 0
-1482 -1481 -166 0
1482 -1481 166 0
1482 1481 -166 0
-1483 1482 168 0
-1483 -1482 -168 0
1483 -1482 168 0
1483 1482 -168 0
-1484 1483 169 0
-1484 -1483 -169 0
1484 -1483 169 0
1484 1483 -169 0
-1485 1484 170 0
-1485 -1484 -170 0
1485 -1484 170 0
1485 1484 -170 0
-1486 1485 172 0
-1486 -1485 -172 0
1486 -1485 172 0
1486 1485 -172 0
-1487 1486 173 0
-1487 -1486 -173 0
1487 -1486 173 0
1487 1486 -173 0
-1488 1487 174 0
-1488 -1487 -174 0
1488 -1487 174 0
1488 1487 -174 0
-1489 1488 176 0
-1489 -1488 -176 0
1489 -1488 176 0
1489 1488 -176 0
-1490 1489 178 0
-1490 -1489 -178 0
1490 -1489 178 0
1490 1489 -178 0
-1491 1490 180 0
-1491 -1490 -180 0
1491 -1490 180 0
1491 1490 -180 0
-1492 1491 182 0
-1492 -1491 -182 0
1492 -1491 182 0
1492 1491 -182 0
-1493 1492 184 0
-1493 -1492 -184 0
1493 -1492 184 0
1493 1492 -184 0
-1494 1493 189 0
-1494 -1493 -189 0
1494 -1493 189 0
1494 1493 -189 0
-1495 1494 193 0
-1495 -1494 -193 0
1495 -1494 193 0
1495 1494 -193 0
-1496 1495 195 0
-1496 -1495 -195 0
1496 -1495 195 0
1496 1495 -195 0
-1497 1496 196 0
-1497 -1496 -196 0
1497 -1496 196 0
1497 1496 -196 0
-1498 1497 197 0
-1498 -1497 -197 0
1498 -1497 197 0
1498 1497 -197 0
-1499 1498 198 0
-1499 -1498 -198 0
1499 -1498 198 0
1499 1498 -198 0
-1500 1499 199 0
-1500 -1499 -199 0
1500 -1499 199 0
1500 1499 -199 0
-1501 1500 200 0
-1501 -1500 -200 0
1501 -1500 200 0
1501 1500 -200 0
-1502 1501 201 0
-1502 -1501 -201 0
1502 -1501 201 0
1502 1501 -201 0
-1503 1502 203 0
-1503 -1502 -203 0
1503 -1502 203 0
1503 1502 -203 0
-1504 1503 205 0
-1504 -1503 -205 0
1504 -1503 205 0
1504 1503 -205 0
-1505 1504 207 0
-1505 -1504 -207 0
1505 -1504 207 0
1505 1504 -207 0
-1506 1505 209 0
-1506 -1505 -209 0
1506 -1505 209 0
1506 1505 -209 0
-1507 1506 215 0
-1507 -1506 -215 0
1507 -1506 215 0
1507 1506 -215 0
-1507 0
-1508 62 63 0
-1508 -62 -63 0
1508 -62 63 0
1508 62 -63 0
-1509 1508 64 0
-1509 -1508 -64 0
1509 -1508 64 0
1509 1508 -64 0
-1510 1509 65 0
-1510 -1509 -65 0
1510 -1509 65 0
1510 1509 -65 0
-1511 1510 66 0
-1511 -1510 -66 0
1511 -1510 66 0
1511 1510 -66 0
-1512 1511 67 0
-1512 -1511 -67 0
1512 -1511 67 0
1512 1511 -67 0
-1513 1512 70 0
-1513 -1512 -70 0
1513 -1512 70 0
1513 1512 -70 0
-1514 1513 76 0
-1514 -1513 -76 0
1514 -1513 76 0
1514 1513 -76 0
-1515 1514 79 0
-1515 -1514 -79 0
1515 -1514 79 0
1515 1514 -79 0
-1516 1515 80 0
-1516 -1515 -80 0
1516 -1515 80 0
1516 1515 -80 0
-1517 1516 81 0
-1517 -1516 -81 0
1517 -1516 81 0
1517 1516 -81 0
-1518 1517 82 0
-1518 -1517 -82 0
1518 -1517 82 0
1518 1517 -82 0
-1519 1518 83 0
-1519 -1518 -83 0
1519 -1518 83 0
1519 1518 -83 0
-1520 1519 87 0
-1520 -1519 -87 0
1520 -1519 87 0
1520 1519 -87 0
-1521 1520 88 0
-1521 -1520 -88 0
1521 -1520 88 0
1521 1520 -88 0
-1522 1521 90 0
-1522 -1521 -90 0
1522 -1521 90 0
1522 1521 -90 0
-1523 1522 96 0
-1523 -1522 -96 0
1523 -1522 96 0
1523 1522 -96 0
-1524 1523 97 0
-1524 -1523 -97 0
1524 -1523 97 0
1524 1523 -97 0
-1525 1524 98 0
-1525 -1524 -98 0
1525 -1524 98 0
1525 1524 -98 0
-1526 1525 100 0
-1526 -1525 -100 0
1526 -1525 100 0
1526 1525 -100 0
-1527 1526 101 0
-1527 -1526 -101 0
1527 -1526 101 0
1527 1526 -101 0
-1528 1527 103 0
-1528 -1527 -103 0
1528 -1527 103 0
1528 1527 -103 0
-1529 1528 106 0
-1529 -1528 -106 0
1529 -1528 106 0
1529 1528 -106 0
-1530 1529 108 0
-1530 -1529 -108 0
1530 -1529 108 0
1530 1529 -108 0
-1531 1530 132 0
-1531 -1530 -132 0
1531 -1530 132 0
1531 1530 -132 0
-1532 1531 156 0
-1532 -1531 -156 0
1532 -1531 156 0
1532 1531 -156 0
-1533 1532 162 0
-1533 -1532 -162 0
1533 -1532 162 0
1533 1532 -162 0
-1534 1533 165 0
-1534 -1533 -165 0
1534 -1533 165 0
1534 1533 -165 0
-1535 1534 167 0
-1535 -1534 -167 0
1535 -1534 167 0
1535 1534 -167 0
-1536 1535 168 0
-1536 -1535 -168 0
1536 -1535 168 0
1536 1535 -168 0
-1537 1536 169 0
-1537 -1536 -169 0
1537 -1536 169 0
1537 1536 -169 0
-1538 1537 176 0
-1538 -1537 -176 0
1538 -1537 176 0
1538 1537 -176 0
-1539 1538 177 0
-1539 -1538 -177 0
1539 -1538 177 0
1539 1538 -177 0
-1540 1539 178 0
-1540 -1539 -178 0
1540 -1539 178 0
1540 1539 -178 0
-1541 1540 181 0
-1541 -1540 -181 0
1541 -1540 181 0
1541 1540 -181 0
-1542 1541 184 0
-1542 -1541 -184 0
1542 -1541 184 0
1542 1541 -184 0
-1543 1542 185 0
-1543 -1542 -185 0
1543 -1542 185 0
1543 1542 -185 0
-1544 1543 186 0
-1544 -1543 -186 0
1544 -1543 186 0
1544 1543 -186 0
-1545 1544 188 0
-1545 -1544 -188 0
1545 -1544 188 0
1545 1544 -188 0
-1546 1545 189 0
-1546 -1545 -189 0
1546 -1545 189 0
1546 1545 -189 0
-1547 1546 190 0
-1547 -1546 -190 0
1547 -1546 190 0
1547 1546 -190 0
-1548 1547 191 0
-1548 -1547 -191 0
1548 -1547 191 0
1548 1547 -191 0
-1549 1548 192 0
-1549 -1548 -192 0
1549 -1548 192 0
1549 1548 -192 0
-1550 1549 198 0
-1550 -1549 -198 0
1550 -1549 198 0
1550 1549 -198 0
-1551 1550 199 0
-1551 -1550 -199 0
1551 -1550 199 0
1551 1550 -199 0
-1552 1551 200 0
-1552 -1551 -200 0
1552 -1551 200 0
1552 1551 -200 0
-1553 1552 207 0
-1553 -1552 -207 0
1553 -1552 207 0
1553 1552 -207 0
-1554 1553 208 0
-1554 -1553 -208 0
1554 -1553 208 0
1554 1553 -208 0
-1555 1554 209 0
-1555 -1554 -209 0
1555 -1554 209 0
1555 1554 -209 0
-1556 1555 211 0
-1556 -1555 -211 0
1556 -1555 211 0
1556 1555 -211 0
-1557 1556 212 0
-1557 -1556 -212 0
1557 -1556 212 0
1557 1556 -212 0
-1558 1557 214 0
-1558 -1557 -214 0
1558 -1557 214 0
1558 1557 -214 0
-1559 1558 215 0
-1559 -1558 -215 0
1559 -1558 215 0
1559 1558 -215 0
-1560 1559 216 0
-1560 -1559 -216 0
1560 -1559 216 0
1560 1559 -216 0
-1560 0
-1561 46 52 0
-1561 -46 -52 0
1561 -46 52 0
1561 46 -52 0
-1562 1561 58 0
-1562 -1561 -58 0
1562 -1561 58 0
1562 1561 -58 0
-1563 1562 62 0
-1563 -1562 -62 0
1563 -1562 62 0
1563 1562 -62 0
-1564 1563 65 0
-1564 -1563 -65 0
1564 -1563 65 0
1564 1563 -65 0
-1565 1564 67 0
-1565 -1564 -67 0
1565 -1564 67 0
1565 1564 -67 0
-1566 1565 69 0
-1566 -1565 -69 0
1566 -1565 69 0
1566 1565 -69 0
-1567 1566 71 0
-1567 -1566 -71 0
1567 -1566 71 0
1567 1566 -71 0
-1568 1567 72 0
-1568 -1567 -72 0
1568 -1567 72 0
1568 1567 -72 0
-1569 1568 73 0
-1569 -1568 -73 0
1569 -1568 73 0
1569 1568 -73 0
-1570 1569 74 0
-1570 -1569 -74 0
1570 -1569 74 0
1570 1569 -74 0
-1571 1570 76 0
-1571 -1570 -76 0
1571 -1570 76 0
1571 1570 -76 0
-1572 1571 79 0
-1572 -1571 -79 0
1572 -1571 79 0
1572 1571 -79 0
-1573 1572 80 0
-1573 -1572 -80 0
1573 -1572 80 0
1573 1572 -80 0
-1574 1573 82 0
-1574 -1573 -82 0
1574 -1573 82 0
1574 1573 -82 0
-1575 1574 83 0
-1575 -1574 -83 0
1575 -1574 83 0
1575 1574 -83 0
-1576 1575 86 0
-1576 -1575 -86 0
1576 -1575 86 0
1576 1575 -86 0
-1577 1576 87 0
-1577 -1576 -87 0
1577 -1576 87 0
1577 1576 -87 0
-1578 1577 88 0
-1578 -1577 -88 0
1578 -1577 88 0
1578 1577 -88 0
-1579 1578 89 0
-1579 -1578 -89 0
1579 -1578 89 0
1579 1578 -89 0
-1580 1579 90 0
-1580 -1579 -90 0
1580 -1579 90 0
1580 1579 -90 0
-1581 1580 91 0
-1581 -1580 -91 0
1581 -1580 91 0
1581 1580 -91 0
-1582 1581 95 0
-1582 -1581 -95 0
1582 -1581 95 0
1582 1581 -95 0
-1583 1582 97 0
-1583 -1582 -97 0
1583 -1582 97 0
1583 1582 -97 0
-1584 1583 98 0
-1584 -1583 -98 0
1584 -1583 98 0
1584 1583 -98 0
-1585 1584 100 0
-1585 -1584 -100 0
1585 -1584 100 0
1585 1584 -100 0
-1586 1585 104 0
-1586 -1585 -104 0
1586 -1585 104 0
1586 1585 -104 0
-1587 1586 105 0
-1587 -1586 -105 0
1587 -1586 105 0
1587 1586 -105 0
-1588 1587 107 0
-1588 -1587 -107 0
1588 -1587 107 0
1588 1587 -107 0
-1589 1588 108 0
-1589 -1588 -108 0
1589 -1588 108 0
1589 1588 -108 0
-1590 1589 133 0
-1590 -1589 -133 0
1590 -1589 133 0
1590 1589 -133 0
-1591 1590 154 0
-1591 -1590 -154 0
1591 -1590 154 0
1591 1590 -154 0
-1592 1591 166 0
-1592 -1591 -166 0
1592 -1591 166 0
1592 1591 -166 0
-1593 1592 167 0
-1593 -1592 -167 0
1593 -1592 167 0
1593 1592 -167 0
-1594 1593 169 0
-1594 -1593 -169 0
1594 -1593 169 0
1594 1593 -169 0
-1595 1594 170 0
-1595 -1594 -170 0
1595 -1594 170 0
1595 1594 -170 0
-1596 1595 171 0
-1596 -1595 -171 0
1596 -1595 171 0
1596 1595 -171 0
-1597 1596 173 0
-1597 -1596 -173 0
1597 -1596 173 0
1597 1596 -173 0
-1598 1597 175 0
-1598 -1597 -175 0
1598 -1597 175 0
1598 1597 -175 0
-1599 1598 178 0
-1599 -1598 -178 0
1599 -1598 178 0
1599 1598 -178 0
-1600 1599 179 0
-1600 -1599 -179 0
1600 -1599 179 0
1600 1599 -179 0
-1601 1600 181 0
-1601 -1600 -181 0
1601 -1600 181 0
1601 1600 -181 0
-1602 1601 185 0
-1602 -1601 -185 0
1602 -1601 185 0
1602 1601 -185 0
-1603 1602 186 0
-1603 -1602 -186 0
1603 -1602 186 0
1603 1602 -186 0
-1604 1603 187 0
-1604 -1603 -187 0
1604 -1603 187 0
1604 1603 -187 0
-1605 1604 189 0
-1605 -1604 -189 0
1605 -1604 189 0
1605 1604 -189 0
-1606 1605 194 0
-1606 -1605 -194 0
1606 -1605 194 0
1606 1605 -194 0
-1607 1606 198 0
-1607 -1606 -198 0
1607 -1606 198 0
1607 1606 -198 0
-1608 1607 201 0
-1608 -1607 -201 0
1608 -1607 201 0
1608 1607 -201 0
-1609 1608 202 0
-1609 -1608 -202 0
1609 -1608 202 0
1609 1608 -202 0
-1610 1609 204 0
-1610 -1609 -204 0
1610 -1609 204 0
1610 1609 -204 0
-1611 1610 209 0
-1611 -1610 -209 0
1611 -1610 209 0
1611 1610 -209 0
-1612 1611 210 0
-1612 -1611 -210 0
1612 -1611 210 0
1612 1611 -210 0
-1613 1612 211 0
-1613 -1612 -211 0
1613 -1612 211 0
1613 1612 -211 0
-1614 1613 212 0
-1614 -1613 -212 0
1614 -1613 212 0
1614 1613 -212 0
-1615 1614 216 0
-1615 -1614 -216 0
1615 -1614 216 0
1615 1614 -216 0
-1615 0
-1616 47 53 0
-1616 -47 -53 0
1616 -47 53 0
1616 47 -53 0
-1617 1616 59 0
-1617 -1616 -59 0
1617 -1616 59 0
1617 1616 -59 0
-1618 1617 63 0
-1618 -1617 -63 0
1618 -1617 63 0
1618 1617 -63 0
-1619 1618 66 0
-1619 -1618 -66 0
1619 -1618 66 0
1619 1618 -66 0
-1620 1619 67 0
-1620 -1619 -67 0
1620 -1619 67 0
1620 1619 -67 0
-1621 1620 68 0
-1621 -1620 -68 0
1621 -1620 68 0
1621 1620 -68 0
-1622 1621 70 0
-1622 -1621 -70 0
1622 -1621 70 0
1622 1621 -70 0
-1623 1622 72 0
-1623 -1622 -72 0
1623 -1622 72 0
1623 1622 -72 0
-1624 1623 74 0
-1624 -1623 -74 0
1624 -1623 74 0
1624 1623 -74 0
-1625 1624 75 0
-1625 -1624 -75 0
1625 -1624 75 0
1625 1624 -75 0
-1626 1625 77 0
-1626 -1625 -77 0
1626 -1625 77 0
1626 1625 -77 0
-1627 1626 80 0
-1627 -1626 -80 0
1627 -1626 80 0
1627 1626 -80 0
-1628 1627 81 0
-1628 -1627 -81 0
1628 -1627 81 0
1628 1627 -81 0
-1629 1628 83 0
-1629 -1628 -83 0
1629 -1628 83 0
1629 1628 -83 0
-1630 1629 84 0
-1630 -1629 -84 0
1630 -1629 84 0
1630 1629 -84 0
-1631 1630 85 0
-1631 -1630 -85 0
1631 -1630 85 0
1631 1630 -85 0
-1632 1631 87 0
-1632 -1631 -87 0
1632 -1631 87 0
1632 1631 -87 0
-1633 1632 88 0
-1633 -1632 -88 0
1633 -1632 88 0
1633 1632 -88 0
-1634 1633 89 0
-1634 -1633 -89 0
1634 -1633 89 0
1634 1633 -89 0
-1635 1634 90 0
-1635 -1634 -90 0
1635 -1634 90 0
1635 1634 -90 0
-1636 1635 92 0
-1636 -1635 -92 0
1636 -1635 92 0
1636 1635 -92 0
-1637 1636 96 0
-1637 -1636 -96 0
1637 -1636 96 0
1637 1636 -96 0
-1638 1637 98 0
-1638 -1637 -98 0
1638 -1637 98 0
1638 1637 -98 0
-1639 1638 99 0
-1639 -1638 -99 0
1639 -1638 99 0
1639 1638 -99 0
-1640 1639 101 0
-1640 -1639 -101 0
1640 -1639 101 0
1640 1639 -101 0
-1641 1640 103 0
-1641 -1640 -103 0
1641 -1640 103 0
1641 1640 -103 0
-1642 1641 105 0
-1642 -1641 -105 0
1642 -1641 105 0
1642 1641 -105 0
-1643 1642 106 0
-1643 -1642 -106 0
1643 -1642 106 0
1643 1642 -106 0
-1644 1643 108 0
-1644 -1643 -108 0
1644 -1643 108 0
1644 1643 -108 0
-1645 1644 134 0
-1645 -1644 -134 0
1645 -1644 134 0
1645 1644 -134 0
-1646 1645 155 0
-1646 -1645 -155 0
1646 -1645 155 0
1646 1645 -155 0
-1647 1646 167 0
-1647 -1646 -167 0
1647 -1646 167 0
1647 1646 -167 0
-1648 1647 168 0
-1648 -1647 -168 0
1648 -1647 168 0
1648 1647 -168 0
-1649 1648 170 0
-1649 -1648 -170 0
1649 -1648 170 0
1649 1648 -170 0
-1650 1649 171 0
-1650 -1649 -171 0
1650 -1649 171 0
1650 1649 -171 0
-1651 1650 172 0
-1651 -1650 -172 0
1651 -1650 172 0
1651 1650 -172 0
-1652 1651 174 0
-1652 -1651 -174 0
1652 -1651 174 0
1652 1651 -174 0
-1653 1652 176 0
-1653 -1652 -176 0
1653 -1652 176 0
1653 1652 -176 0
-1654 1653 179 0
-1654 -1653 -179 0
1654 -1653 179 0
1654 1653 -179 0
-1655 1654 180 0
-1655 -1654 -180 0
1655 -1654 180 0
1655 1654 -180 0
-1656 1655 181 0
-1656 -1655 -181 0
1656 -1655 181 0
1656 1655 -181 0
-1657 1656 182 0
-1657 -1656 -182 0
1657 -1656 182 0
1657 1656 -182 0
-1658 1657 186 0
-1658 -1657 -186 0
1658 -1657 186 0
1658 1657 -186 0
-1659 1658 188 0
-1659 -1658 -188 0
1659 -1658 188 0
1659 1658 -188 0
-1660 1659 190 0
-1660 -1659 -190 0
1660 -1659 190 0
1660 1659 -190 0
-1661 1660 193 0
-1661 -1660 -193 0
1661 -1660 193 0
1661 1660 -193 0
-1662 1661 195 0
-1662 -1661 -195 0
1662 -1661 195 0
1662 1661 -195 0
-1663 1662 199 0
-1663 -1662 -199 0
1663 -1662 199 0
1663 1662 -199 0
-1664 1663 202 0
-1664 -1663 -202 0
1664 -1663 202 0
1664 1663 -202 0
-1665 1664 203 0
-1665 -1664 -203 0
1665 -1664 203 0
1665 1664 -203 0
-1666 1665 205 0
-1666 -1665 -205 0
1666 -1665 205 0
1666 1665 -205 0
-1667 1666 210 0
-1667 -1666 -210 0
1667 -1666 210 0
1667 1666 -210 0
-1668 1667 211 0
-1668 -1667 -211 0
1668 -1667 211 0
1668 1667 -211 0
-1669 1668 212 0
-1669 -1668 -212 0
1669 -1668 212 0
1669 1668 -212 0
-1670 1669 213 0
-1670 -1669 -213 0
1670 -1669 213 0
1670 1669 -213 0
-1670 0
-1671 48 54 0
-1671 -48 -54 0
1671 -48 54 0
1671 48 -54 0
-1672 1671 60 0
-1672 -1671 -60 0
1672 -1671 60 0
1672 1671 -60 0
-1673 1672 62 0
-1673 -1672 -62 0
1673 -1672 62 0
1673 1672 -62 0
-1674 1673 65 0
-1674 -1673 -65 0
1674 -1673 65 0
1674 1673 -65 0
-1675 1674 67 0
-1675 -1674 -67 0
1675 -1674 67 0
1675 1674 -67 0
-1676 1675 72 0
-1676 -1675 -72 0
1676 -1675 72 0
1676 1675 -72 0
-1677 1676 75 0
-1677 -1676 -75 0
1677 -1676 75 0
1677 1676 -75 0
-1678 1677 76 0
-1678 -1677 -76 0
1678 -1677 76 0
1678 1677 -76 0
-1679 1678 78 0
-1679 -1678 -78 0
1679 -1678 78 0
1679 1678 -78 0
-1680 1679 80 0
-1680 -1679 -80 0
1680 -1679 80 0
1680 1679 -80 0
-1681 1680 81 0
-1681 -1680 -81 0
1681 -1680 81 0
1681 1680 -81 0
-1682 1681 83 0
-1682 -1681 -83 0
1682 -1681 83 0
1682 1681 -83 0
-1683 1682 84 0
-1683 -1682 -84 0
1683 -1682 84 0
1683 1682 -84 0
-1684 1683 85 0
-1684 -1683 -85 0
1684 -1683 85 0
1684 1683 -85 0
-1685 1684 87 0
-1685 -1684 -87 0
1685 -1684 87 0
1685 1684 -87 0
-1686 1685 88 0
-1686 -1685 -88 0
1686 -1685 88 0
1686 1685 -88 0
-1687 1686 91 0
-1687 -1686 -91 0
1687 -1686 91 0
1687 1686 -91 0
-1688 1687 93 0
-1688 -1687 -93 0
1688 -1687 93 0
1688 1687 -93 0
-1689 1688 97 0
-1689 -1688 -97 0
1689 -1688 97 0
1689 1688 -97 0
-1690 1689 98 0
-1690 -1689 -98 0
1690 -1689 98 0
1690 1689 -98 0
-1691 1690 99 0
-1691 -1690 -99 0
1691 -1690 99 0
1691 1690 -99 0
-1692 1691 101 0
-1692 -1691 -101 0
1692 -1691 101 0
1692 1691 -101 0
-1693 1692 102 0
-1693 -1692 -102 0
1693 -1692 102 0
1693 1692 -102 0
-1694 1693 103 0
-1694 -1693 -103 0
1694 -1693 103 0
1694 1693 -103 0
-1695 1694 105 0
-1695 -1694 -105 0
1695 -1694 105 0
1695 1694 -105 0
-1696 1695 106 0
-1696 -1695 -106 0
1696 -1695 106 0
1696 1695 -106 0
-1697 1696 108 0
-1697 -1696 -108 0
1697 -1696 108 0
1697 1696 -108 0
-1698 1697 135 0
-1698 -1697 -135 0
1698 -1697 135 0
1698 1697 -135 0
-1699 1698 156 0
-1699 -1698 -156 0
1699 -1698 156 0
1699 1698 -156 0
-1700 1699 165 0
-1700 -1699 -165 0
1700 -1699 165 0
1700 1699 -165 0
-1701 1700 166 0
-1701 -1700 -166 0
1701 -1700 166 0
1701 1700 -166 0
-1702 1701 169 0
-1702 -1701 -169 0
1702 -1701 169 0
1702 1701 -169 0
-1703 1702 170 0
-1703 -1702 -170 0
1703 -1702 170 0
1703 1702 -170 0
-1704 1703 172 0
-1704 -1703 -172 0
1704 -1703 172 0
1704 1703 -172 0
-1705 1704 174 0
-1705 -1704 -174 0
1705 -1704 174 0
1705 1704 -174 0
-1706 1705 176 0
-1706 -1705 -176 0
1706 -1705 176 0
1706 1705 -176 0
-1707 1706 177 0
-1707 -1706 -177 0
1707 -1706 177 0
1707 1706 -177 0
-1708 1707 178 0
-1708 -1707 -178 0
1708 -1707 178 0
1708 1707 -178 0
-1709 1708 179 0
-1709 -1708 -179 0
1709 -1708 179 0
1709 1708 -179 0
-1710 1709 180 0
-1710 -1709 -180 0
1710 -1709 180 0
1710 1709 -180 0
-1711 1710 182 0
-1711 -1710 -182 0
1711 -1710 182 0
1711 1710 -182 0
-1712 1711 184 0
-1712 -1711 -184 0
1712 -1711 184 0
1712 1711 -184 0
-1713 1712 186 0
-1713 -1712 -186 0
1713 -1712 186 0
1713 1712 -186 0
-1714 1713 188 0
-1714 -1713 -188 0
1714 -1713 188 0
1714 1713 -188 0
-1715 1714 192 0
-1715 -1714 -192 0
1715 -1714 192 0
1715 1714 -192 0
-1716 1715 193 0
-1716 -1715 -193 0
1716 -1715 193 0
1716 1715 -193 0
-1717 1716 197 0
-1717 -1716 -197 0
1717 -1716 197 0
1717 1716 -197 0
-1718 1717 199 0
-1718 -1717 -199 0
1718 -1717 199 0
1718 1717 -199 0
-1719 1718 200 0
-1719 -1718 -200 0
1719 -1718 200 0
1719 1718 -200 0
-1720 1719 201 0
-1720 -1719 -201 0
1720 -1719 201 0
1720 1719 -201 0
-1721 1720 202 0
-1721 -1720 -202 0
1721 -1720 202 0
1721 1720 -202 0
-1722 1721 203 0
-1722 -1721 -203 0
1722 -1721 203 0
1722 1721 -203 0
-1723 1722 205 0
-1723 -1722 -205 0
1723 -1722 205 0
1723 1722 -205 0
-1724 1723 207 0
-1724 -1723 -207 0
1724 -1723 207 0
1724 1723 -207 0
-1725 1724 209 0
-1725 -1724 -209 0
1725 -1724 209 0
1725 1724 -209 0
-1726 1725 210 0
-1726 -1725 -210 0
1726 -1725 210 0
1726 1725 -210 0
-1727 1726 211 0
-1727 -1726 -211 0
1727 -1726 211 0
1727 1726 -211 0
-1728 1727 213 0
-1728 -1727 -213 0
1728 -1727 213 0
1728 1727 -213 0
-1729 1728 215 0
-1729 -1728 -215 0
1729 -1728 215 0
1729 1728 -215 0
-1729 0
-1730 58 62 0
-1730 -58 -62 0
1730 -58 62 0
1730 58 -62 0
-1731 1730 63 0
-1731 -1730 -63 0
1731 -1730 63 0
1731 1730 -63 0
-1732 1731 65 0
-1732 -1731 -65 0
1732 -1731 65 0
1732 1731 -65 0
-1733 1732 66 0
-1733 -1732 -66 0
1733 -1732 66 0
1733 1732 -66 0
-1734 1733 67 0
-1734 -1733 -67 0
1734 -1733 67 0
1734 1733 -67 0
-1735 1734 73 0
-1735 -1734 -73 0
1735 -1734 73 0
1735 1734 -73 0
-1736 1735 74 0
-1736 -1735 -74 0
1736 -1735 74 0
1736 1735 -74 0
-1737 1736 76 0
-1737 -1736 -76 0
1737 -1736 76 0
1737 1736 -76 0
-1738 1737 79 0
-1738 -1737 -79 0
1738 -1737 79 0
1738 1737 -79 0
-1739 1738 80 0
-1739 -1738 -80 0
1739 -1738 80 0
1739 1738 -80 0
-1740 1739 81 0
-1740 -1739 -81 0
1740 -1739 81 0
1740 1739 -81 0
-1741 1740 82 0
-1741 -1740 -82 0
1741 -1740 82 0
1741 1740 -82 0
-1742 1741 83 0
-1742 -1741 -83 0
1742 -1741 83 0
1742 1741 -83 0
-1743 1742 84 0
-1743 -1742 -84 0
1743 -1742 84 0
1743 1742 -84 0
-1744 1743 89 0
-1744 -1743 -89 0
1744 -1743 89 0
1744 1743 -89 0
-1745 1744 94 0
-1745 -1744 -94 0
1745 -1744 94 0
1745 1744 -94 0
-1746 1745 95 0
-1746 -1745 -95 0
1746 -1745 95 0
1746 1745 -95 0
-1747 1746 98 0
-1747 -1746 -98 0
1747 -1746 98 0
1747 1746 -98 0
-1748 1747 99 0
-1748 -1747 -99 0
1748 -1747 99 0
1748 1747 -99 0
-1749 1748 101 0
-1749 -1748 -101 0
1749 -1748 101 0
1749 1748 -101 0
-1750 1749 102 0
-1750 -1749 -102 0
1750 -1749 102 0
1750 1749 -102 0
-1751 1750 103 0
-1751 -1750 -103 0
1751 -1750 103 0
1751 1750 -103 0
-1752 1751 104 0
-1752 -1751 -104 0
1752 -1751 104 0
1752 1751 -104 0
-1753 1752 136 0
-1753 -1752 -136 0
1753 -1752 136 0
1753 1752 -136 0
-1754 1753 154 0
-1754 -1753 -154 0
1754 -1753 154 0
1754 1753 -154 0
-1755 1754 165 0
-1755 -1754 -165 0
1755 -1754 165 0
1755 1754 -165 0
-1756 1755 167 0
-1756 -1755 -167 0
1756 -1755 167 0
1756 1755 -167 0
-1757 1756 169 0
-1757 -1756 -169 0
1757 -1756 169 0
1757 1756 -169 0
-1758 1757 170 0
-1758 -1757 -170 0
1758 -1757 170 0
1758 1757 -170 0
-1759 1758 176 0
-1759 -1758 -176 0
1759 -1758 176 0
1759 1758 -176 0
-1760 1759 177 0
-1760 -1759 -177 0
1760 -1759 177 0
1760 1759 -177 0
-1761 1760 178 0
-1761 -1760 -178 0
1761 -1760 178 0
1761 1760 -178 0
-1762 1761 179 0
-1762 -1761 -179 0
1762 -1761 179 0
1762 1761 -179 0
-1763 1762 180 0
-1763 -1762 -180 0
1763 -1762 180 0
1763 1762 -180 0
-1764 1763 181 0
-1764 -1763 -181 0
1764 -1763 181 0
1764 1763 -181 0
-1765 1764 182 0
-1765 -1764 -182 0
1765 -1764 182 0
1765 1764 -182 0
-1766 1765 183 0
-1766 -1765 -183 0
1766 -1765 183 0
1766 1765 -183 0
-1767 1766 184 0
-1767 -1766 -184 0
1767 -1766 184 0
1767 1766 -184 0
-1768 1767 186 0
-1768 -1767 -186 0
1768 -1767 186 0
1768 1767 -186 0
-1769 1768 188 0
-1769 -1768 -188 0
1769 -1768 188 0
1769 1768 -188 0
-1770 1769 190 0
-1770 -1769 -190 0
1770 -1769 190 0
1770 1769 -190 0
-1771 1770 196 0
-1771 -1770 -196 0
1771 -1770 196 0
1771 1770 -196 0
-1772 1771 198 0
-1772 -1771 -198 0
1772 -1771 198 0
1772 1771 -198 0
-1773 1772 200 0
-1773 -1772 -200 0
1773 -1772 200 0
1773 1772 -200 0
-1774 1773 201 0
-1774 -1773 -201 0
1774 -1773 201 0
1774 1773 -201 0
-1775 1774 203 0
-1775 -1774 -203 0
1775 -1774 203 0
1775 1774 -203 0
-1776 1775 205 0
-1776 -1775 -205 0
1776 -1775 205 0
1776 1775 -205 0
-1777 1776 206 0
-1777 -1776 -206 0
1777 -1776 206 0
1777 1776 -206 0
-1778 1777 207 0
-1778 -1777 -207 0
1778 -1777 207 0
1778 1777 -207 0
-1779 1778 208 0
-1779 -1778 -208 0
1779 -1778 208 0
1779 1778 -208 0
-1780 1779 209 0
-1780 -1779 -209 0
1780 -1779 209 0
1780 1779 -209 0
-1781 1780 210 0
-1781 -1780 -210 0
1781 -1780 210 0
1781 1780 -210 0
-1782 1781 211 0
-1782 -1781 -211 0
1782 -1781 211 0
1782 1781 -211 0
-1783 1782 213 0
-1783 -1782 -213 0
1783 -1782 213 0
1783 1782 -213 0
-1784 1783 214 0
-1784 -1783 -214 0
1784 -1783 214 0
1784 1783 -214 0
-1784 0
-1785 59 62 0
-1785 -59 -62 0
1785 -59 62 0
1785 59 -62 0
-1786 1785 65 0
-1786 -1785 -65 0
1786 -1785 65 0
1786 1785 -65 0
-1787 1786 67 0
-1787 -1786 -67 0
1787 -1786 67 0
1787 1786 -67 0
-1788 1787 69 0
-1788 -1787 -69 0
1788 -1787 69 0
1788 1787 -69 0
-1789 1788 70 0
-1789 -1788 -70 0
1789 -1788 70 0
1789 1788 -70 0
-1790 1789 71 0
-1790 -1789 -71 0
1790 -1789 71 0
1790 1789 -71 0
-1791 1790 72 0
-1791 -1790 -72 0
1791 -1790 72 0
1791 1790 -72 0
-1792 1791 74 0
-1792 -1791 -74 0
1792 -1791 74 0
1792 1791 -74 0
-1793 1792 75 0
-1793 -1792 -75 0
1793 -1792 75 0
1793 1792 -75 0
-1794 1793 77 0
-1794 -1793 -77 0
1794 -1793 77 0
1794 1793 -77 0
-1795 1794 85 0
-1795 -1794 -85 0
1795 -1794 85 0
1795 1794 -85 0
-1796 1795 86 0
-1796 -1795 -86 0
1796 -1795 86 0
1796 1795 -86 0
-1797 1796 87 0
-1797 -1796 -87 0
1797 -1796 87 0
1797 1796 -87 0
-1798 1797 88 0
-1798 -1797 -88 0
1798 -1797 88 0
1798 1797 -88 0
-1799 1798 89 0
-1799 -1798 -89 0
1799 -1798 89 0
1799 1798 -89 0
-1800 1799 95 0
-1800 -1799 -95 0
1800 -1799 95 0
1800 1799 -95 0
-1801 1800 96 0
-1801 -1800 -96 0
1801 -1800 96 0
1801 1800 -96 0
-1802 1801 98 0
-1802 -1801 -98 0
1802 -1801 98 0
1802 1801 -98 0
-1803 1802 101 0
-1803 -1802 -101 0
1803 -1802 101 0
1803 1802 -101 0
-1804 1803 103 0
-1804 -1803 -103 0
1804 -1803 103 0
1804 1803 -103 0
-1805 1804 106 0
-1805 -1804 -106 0
1805 -1804 106 0
1805 1804 -106 0
-1806 1805 107 0
-1806 -1805 -107 0
1806 -1805 107 0
1806 1805 -107 0
-1807 1806 108 0
-1807 -1806 -108 0
1807 -1806 108 0
1807 1806 -108 0
-1808 1807 137 0
-1808 -1807 -137 0
1808 -1807 137 0
1808 1807 -137 0
-1809 1808 155 0
-1809 -1808 -155 0
1809 -1808 155 0
1809 1808 -155 0
-1810 1809 166 0
-1810 -1809 -166 0
1810 -1809 166 0
1810 1809 -166 0
-1811 1810 168 0
-1811 -1810 -168 0
1811 -1810 168 0
1811 1810 -168 0
-1812 1811 170 0
-1812 -1811 -170 0
1812 -1811 170 0
1812 1811 -170 0
-1813 1812 171 0
-1813 -1812 -171 0
1813 -1812 171 0
1813 1812 -171 0
-1814 1813 175 0
-1814 -1813 -175 0
1814 -1813 175 0
1814 1813 -175 0
-1815 1814 177 0
-1815 -1814 -177 0
1815 -1814 177 0
1815 1814 -177 0
-1816 1815 178 0
-1816 -1815 -178 0
1816 -1815 178 0
1816 1815 -178 0
-1817 1816 179 0
-1817 -1816 -179 0
1817 -1816 179 0
1817 1816 -179 0
-1818 1817 180 0
-1818 -1817 -180 0
1818 -1817 180 0
1818 1817 -180 0
-1819 1818 181 0
-1819 -1818 -181 0
1819 -1818 181 0
1819 1818 -181 0
-1820 1819 182 0
-1820 -1819 -182 0
1820 -1819 182 0
1820 1819 -182 0
-1821 1820 183 0
-1821 -1820 -183 0
1821 -1820 183 0
1821 1820 -183 0
-1822 1821 184 0
-1822 -1821 -184 0
1822 -1821 184 0
1822 1821 -184 0
-1823 1822 185 0
-1823 -1822 -185 0
1823 -1822 185 0
1823 1822 -185 0
-1824 1823 189 0
-1824 -1823 -189 0
1824 -1823 189 0
1824 1823 -189 0
-1825 1824 191 0
-1825 -1824 -191 0
1825 -1824 191 0
1825 1824 -191 0
-1826 1825 193 0
-1826 -1825 -193 0
1826 -1825 193 0
1826 1825 -193 0
-1827 1826 197 0
-1827 -1826 -197 0
1827 -1826 197 0
1827 1826 -197 0
-1828 1827 201 0
-1828 -1827 -201 0
1828 -1827 201 0
1828 1827 -201 0
-1829 1828 202 0
-1829 -1828 -202 0
1829 -1828 202 0
1829 1828 -202 0
-1830 1829 204 0
-1830 -1829 -204 0
1830 -1829 204 0
1830 1829 -204 0
-1831 1830 205 0
-1831 -1830 -205 0
1831 -1830 205 0
1831 1830 -205 0
-1832 1831 206 0
-1832 -1831 -206 0
1832 -1831 206 0
1832 1831 -206 0
-1833 1832 207 0
-1833 -1832 -207 0
1833 -1832 207 0
1833 1832 -207 0
-1834 1833 208 0
-1834 -1833 -208 0
1834 -1833 208 0
1834 1833 -208 0
-1835 1834 209 0
-1835 -1834 -209 0
1835 -1834 209 0
1835 1834 -209 0
-1836 1835 210 0
-1836 -1835 -210 0
1836 -1835 210 0
1836 1835 -210 0
-1837 1836 212 0
-1837 -1836 -212 0
1837 -1836 212 0
1837 1836 -212 0
-1838 1837 214 0
-1838 -1837 -214 0
1838 -1837 214 0
1838 1837 -214 0
-1839 1838 215 0
-1839 -1838 -215 0
1839 -1838 215 0
1839 1838 -215 0
-1839 0
-1840 60 68 0
-1840 -60 -68 0
1840 -60 68 0
1840 60 -68 0
-1841 1840 71 0
-1841 -1840 -71 0
1841 -1840 71 0
1841 1840 -71 0
-1842 1841 72 0
-1842 -1841 -72 0
1842 -1841 72 0
1842 1841 -72 0
-1843 1842 75 0
-1843 -1842 -75 0
1843 -1842 75 0
1843 1842 -75 0
-1844 1843 76 0
-1844 -1843 -76 0
1844 -1843 76 0
1844 1843 -76 0
-1845 1844 78 0
-1845 -1844 -78 0
1845 -1844 78 0
1845 1844 -78 0
-1846 1845 81 0
-1846 -1845 -81 0
1846 -1845 81 0
1846 1845 -81 0
-1847 1846 84 0
-1847 -1846 -84 0
1847 -1846 84 0
1847 1846 -84 0
-1848 1847 85 0
-1848 -1847 -85 0
1848 -1847 85 0
1848 1847 -85 0
-1849 1848 86 0
-1849 -1848 -86 0
1849 -1848 86 0
1849 1848 -86 0
-1850 1849 87 0
-1850 -1849 -87 0
1850 -1849 87 0
1850 1849 -87 0
-1851 1850 89 0
-1851 -1850 -89 0
1851 -1850 89 0
1851 1850 -89 0
-1852 1851 90 0
-1852 -1851 -90 0
1852 -1851 90 0
1852 1851 -90 0
-1853 1852 91 0
-1853 -1852 -91 0
1853 -1852 91 0
1853 1852 -91 0
-1854 1853 96 0
-1854 -1853 -96 0
1854 -1853 96 0
1854 1853 -96 0
-1855 1854 104 0
-1855 -1854 -104 0
1855 -1854 104 0
1855 1854 -104 0
-1856 1855 106 0
-1856 -1855 -106 0
1856 -1855 106 0
1856 1855 -106 0
-1857 1856 107 0
-1857 -1856 -107 0
1857 -1856 107 0
1857 1856 -107 0
-1858 1857 108 0
-1858 -1857 -108 0
1858 -1857 108 0
1858 1857 -108 0
-1859 1858 138 0
-1859 -1858 -138 0
1859 -1858 138 0
1859 1858 -138 0
-1860 1859 156 0
-1860 -1859 -156 0
1860 -1859 156 0
1860 1859 -156 0
-1861 1860 165 0
-1861 -1860 -165 0
1861 -1860 165 0
1861 1860 -165 0
-1862 1861 166 0
-1862 -1861 -166 0
1862 -1861 166 0
1862 1861 -166 0
-1863 1862 167 0
-1863 -1862 -167 0
1863 -1862 167 0
1863 1862 -167 0
-1864 1863 168 0
-1864 -1863 -168 0
1864 -1863 168 0
1864 1863 -168 0
-1865 1864 170 0
-1865 -1864 -170 0
1865 -1864 170 0
1865 1864 -170 0
-1866 1865 172 0
-1866 -1865 -172 0
1866 -1865 172 0
1866 1865 -172 0
-1867 1866 173 0
-1867 -1866 -173 0
1867 -1866 173 0
1867 1866 -173 0
-1868 1867 174 0
-1868 -1867 -174 0
1868 -1867 174 0
1868 1867 -174 0
-1869 1868 180 0
-1869 -1868 -180 0
1869 -1868 180 0
1869 1868 -180 0
-1870 1869 181 0
-1870 -1869 -181 0
1870 -1869 181 0
1870 1869 -181 0
-1871 1870 182 0
-1871 -1870 -182 0
1871 -1870 182 0
1871 1870 -182 0
-1872 1871 185 0
-1872 -1871 -185 0
1872 -1871 185 0
1872 1871 -185 0
-1873 1872 188 0
-1873 -1872 -188 0
1873 -1872 188 0
1873 1872 -188 0
-1874 1873 189 0
-1874 -1873 -189 0
1874 -1873 189 0
1874 1873 -189 0
-1875 1874 190 0
-1875 -1874 -190 0
1875 -1874 190 0
1875 1874 -190 0
-1876 1875 191 0
-1876 -1875 -191 0
1876 -1875 191 0
1876 1875 -191 0
-1877 1876 193 0
-1877 -1876 -193 0
1877 -1876 193 0
1877 1876 -193 0
-1878 1877 196 0
-1878 -1877 -196 0
1878 -1877 196 0
1878 1877 -196 0
-1879 1878 197 0
-1879 -1878 -197 0
1879 -1878 197 0
1879 1878 -197 0
-1880 1879 198 0
-1880 -1879 -198 0
1880 -1879 198 0
1880 1879 -198 0
-1881 1880 201 0
-1881 -1880 -201 0
1881 -1880 201 0
1881 1880 -201 0
-1882 1881 203 0
-1882 -1881 -203 0
1882 -1881 203 0
1882 1881 -203 0
-1883 1882 204 0
-1883 -1882 -204 0
1883 -1882 204 0
1883 1882 -204 0
-1884 1883 205 0
-1884 -1883 -205 0
1884 -1883 205 0
1884 1883 -205 0
-1885 1884 208 0
-1885 -1884 -208 0
1885 -1884 208 0
1885 1884 -208 0
-1886 1885 211 0
-1886 -1885 -211 0
1886 -1885 211 0
1886 1885 -211 0
-1887 1886 212 0
-1887 -1886 -212 0
1887 -1886 212 0
1887 1886 -212 0
-1888 1887 213 0
-1888 -1887 -213 0
1888 -1887 213 0
1888 1887 -213 0
-1889 1888 214 0
-1889 -1888 -214 0
1889 -1888 214 0
1889 1888 -214 0
-1890 1889 216 0
-1890 -1889 -216 0
1890 -1889 216 0
1890 1889 -216 0
-1890 0
-1891 48 52 0
-1891 -48 -52 0
1891 -48 52 0
1891 48 -52 0
-1892 1891 53 0
-1892 -1891 -53 0
1892 -1891 53 0
1892 1891 -53 0
-1893 1892 64 0
-1893 -1892 -64 0
1893 -1892 64 0
1893 1892 -64 0
-1894 1893 68 0
-1894 -1893 -68 0
1894 -1893 68 0
1894 1893 -68 0
-1895 1894 69 0
-1895 -1894 -69 0
1895 -1894 69 0
1895 1894 -69 0
-1896 1895 71 0
-1896 -1895 -71 0
1896 -1895 71 0
1896 1895 -71 0
-1897 1896 73 0
-1897 -1896 -73 0
1897 -1896 73 0
1897 1896 -73 0
-1898 1897 74 0
-1898 -1897 -74 0
1898 -1897 74 0
1898 1897 -74 0
-1899 1898 77 0
-1899 -1898 -77 0
1899 -1898 77 0
1899 1898 -77 0
-1900 1899 78 0
-1900 -1899 -78 0
1900 -1899 78 0
1900 1899 -78 0
-1901 1900 79 0
-1901 -1900 -79 0
1901 -1900 79 0
1901 1900 -79 0
-1902 1901 80 0
-1902 -1901 -80 0
1902 -1901 80 0
1902 1901 -80 0
-1903 1902 81 0
-1903 -1902 -81 0
1903 -1902 81 0
1903 1902 -81 0
-1904 1903 83 0
-1904 -1903 -83 0
1904 -1903 83 0
1904 1903 -83 0
-1905 1904 85 0
-1905 -1904 -85 0
1905 -1904 85 0
1905 1904 -85 0
-1906 1905 89 0
-1906 -1905 -89 0
1906 -1905 89 0
1906 1905 -89 0
-1907 1906 90 0
-1907 -1906 -90 0
1907 -1906 90 0
1907 1906 -90 0
-1908 1907 91 0
-1908 -1907 -91 0
1908 -1907 91 0
1908 1907 -91 0
-1909 1908 92 0
-1909 -1908 -92 0
1909 -1908 92 0
1909 1908 -92 0
-1910 1909 93 0
-1910 -1909 -93 0
1910 -1909 93 0
1910 1909 -93 0
-1911 1910 94 0
-1911 -1910 -94 0
1911 -1910 94 0
1911 1910 -94 0
-1912 1911 97 0
-1912 -1911 -97 0
1912 -1911 97 0
1912 1911 -97 0
-1913 1912 98 0
-1913 -1912 -98 0
1913 -1912 98 0
1913 1912 -98 0
-1914 1913 101 0
-1914 -1913 -101 0
1914 -1913 101 0
1914 1913 -101 0
-1915 1914 102 0
-1915 -1914 -102 0
1915 -1914 102 0
1915 1914 -102 0
-1916 1915 103 0
-1916 -1915 -103 0
1916 -1915 103 0
1916 1915 -103 0
-1917 1916 104 0
-1917 -1916 -104 0
1917 -1916 104 0
1917 1916 -104 0
-1918 1917 105 0
-1918 -1917 -105 0
1918 -1917 105 0
1918 1917 -105 0
-1919 1918 106 0
-1919 -1918 -106 0
1919 -1918 106 0
1919 1918 -106 0
-1920 1919 107 0
-1920 -1919 -107 0
1920 -1919 107 0
1920 1919 -107 0
-1921 1920 108 0
-1921 -1920 -108 0
1921 -1920 108 0
1921 1920 -108 0
-1922 1921 139 0
-1922 -1921 -139 0
1922 -1921 139 0
1922 1921 -139 0
-1923 1922 160 0
-1923 -1922 -160 0
1923 -1922 160 0
1923 1922 -160 0
-1924 1923 166 0
-1924 -1923 -166 0
1924 -1923 166 0
1924 1923 -166 0
-1925 1924 167 0
-1925 -1924 -167 0
1925 -1924 167 0
1925 1924 -167 0
-1926 1925 168 0
-1926 -1925 -168 0
1926 -1925 168 0
1926 1925 -168 0
-1927 1926 169 0
-1927 -1926 -169 0
1927 -1926 169 0
1927 1926 -169 0
-1928 1927 171 0
-1928 -1927 -171 0
1928 -1927 171 0
1928 1927 -171 0
-1929 1928 173 0
-1929 -1928 -173 0
1929 -1928 173 0
1929 1928 -173 0
-1930 1929 174 0
-1930 -1929 -174 0
1930 -1929 174 0
1930 1929 -174 0
-1931 1930 175 0
-1931 -1930 -175 0
1931 -1930 175 0
1931 1930 -175 0
-1932 1931 180 0
-1932 -1931 -180 0
1932 -1931 180 0
1932 1931 -180 0
-1933 1932 182 0
-1933 -1932 -182 0
1933 -1932 182 0
1933 1932 -182 0
-1934 1933 189 0
-1934 -1933 -189 0
1934 -1933 189 0
1934 1933 -189 0
-1935 1934 190 0
-1935 -1934 -190 0
1935 -1934 190 0
1935 1934 -190 0
-1936 1935 191 0
-1936 -1935 -191 0
1936 -1935 191 0
1936 1935 -191 0
-1937 1936 193 0
-1937 -1936 -193 0
1937 -1936 193 0
1937 1936 -193 0
-1938 1937 194 0
-1938 -1937 -194 0
1938 -1937 194 0
1938 1937 -194 0
-1939 1938 197 0
-1939 -1938 -197 0
1939 -1938 197 0
1939 1938 -197 0
-1940 1939 198 0
-1940 -1939 -198 0
1940 -1939 198 0
1940 1939 -198 0
-1941 1940 199 0
-1941 -1940 -199 0
1941 -1940 199 0
1941 1940 -199 0
-1942 1941 202 0
-1942 -1941 -202 0
1942 -1941 202 0
1942 1941 -202 0
-1943 1942 203 0
-1943 -1942 -203 0
1943 -1942 203 0
1943 1942 -203 0
-1944 1943 204 0
-1944 -1943 -204 0
1944 -1943 204 0
1944 1943 -204 0
-1945 1944 205 0
-1945 -1944 -205 0
1945 -1944 205 0
1945 1944 -205 0
-1946 1945 212 0
-1946 -1945 -212 0
1946 -1945 212 0
1946 1945 -212 0
-1947 1946 213 0
-1947 -1946 -213 0
1947 -1946 213 0
1947 1946 -213 0
-1947 0
-1948 46 53 0
-1948 -46 -53 0
1948 -46 53 0
1948 46 -53 0
-1949 1948 54 0
-1949 -1948 -54 0
1949 -1948 54 0
1949 1948 -54 0
-1950 1949 58 0
-1950 -1949 -58 0
1950 -1949 58 0
1950 1949 -58 0
-1951 1950 59 0
-1951 -1950 -59 0
1951 -1950 59 0
1951 1950 -59 0
-1952 1951 62 0
-1952 -1951 -62 0
1952 -1951 62 0
1952 1951 -62 0
-1953 1952 64 0
-1953 -1952 -64 0
1953 -1952 64 0
1953 1952 -64 0
-1954 1953 65 0
-1954 -1953 -65 0
1954 -1953 65 0
1954 1953 -65 0
-1955 1954 67 0
-1955 -1954 -67 0
1955 -1954 67 0
1955 1954 -67 0
-1956 1955 69 0
-1956 -1955 -69 0
1956 -1955 69 0
1956 1955 -69 0
-1957 1956 70 0
-1957 -1956 -70 0
1957 -1956 70 0
1957 1956 -70 0
-1958 1957 71 0
-1958 -1957 -71 0
1958 -1957 71 0
1958 1957 -71 0
-1959 1958 72 0
-1959 -1958 -72 0
1959 -1958 72 0
1959 1958 -72 0
-1960 1959 73 0
-1960 -1959 -73 0
1960 -1959 73 0
1960 1959 -73 0
-1961 1960 75 0
-1961 -1960 -75 0
1961 -1960 75 0
1961 1960 -75 0
-1962 1961 76 0
-1962 -1961 -76 0
1962 -1961 76 0
1962 1961 -76 0
-1963 1962 78 0
-1963 -1962 -78 0
1963 -1962 78 0
1963 1962 -78 0
-1964 1963 80 0
-1964 -1963 -80 0
1964 -1963 80 0
1964 1963 -80 0
-1965 1964 81 0
-1965 -1964 -81 0
1965 -1964 81 0
1965 1964 -81 0
-1966 1965 83 0
-1966 -1965 -83 0
1966 -1965 83 0
1966 1965 -83 0
-1967 1966 84 0
-1967 -1966 -84 0
1967 -1966 84 0
1967 1966 -84 0
-1968 1967 85 0
-1968 -1967 -85 0
1968 -1967 85 0
1968 1967 -85 0
-1969 1968 88 0
-1969 -1968 -88 0
1969 -1968 88 0
1969 1968 -88 0
-1970 1969 90 0
-1970 -1969 -90 0
1970 -1969 90 0
1970 1969 -90 0
-1971 1970 91 0
-1971 -1970 -91 0
1971 -1970 91 0
1971 1970 -91 0
-1972 1971 92 0
-1972 -1971 -92 0
1972 -1971 92 0
1972 1971 -92 0
-1973 1972 93 0
-1973 -1972 -93 0
1973 -1972 93 0
1973 1972 -93 0
-1974 1973 94 0
-1974 -1973 -94 0
1974 -1973 94 0
1974 1973 -94 0
-1975 1974 98 0
-1975 -1974 -98 0
1975 -1974 98 0
1975 1974 -98 0
-1976 1975 99 0
-1976 -1975 -99 0
1976 -1975 99 0
1976 1975 -99 0
-1977 1976 101 0
-1977 -1976 -101 0
1977 -1976 101 0
1977 1976 -101 0
-1978 1977 102 0
-1978 -1977 -102 0
1978 -1977 102 0
1978 1977 -102 0
-1979 1978 105 0
-1979 -1978 -105 0
1979 -1978 105 0
1979 1978 -105 0
-1980 1979 106 0
-1980 -1979 -106 0
1980 -1979 106 0
1980 1979 -106 0
-1981 1980 107 0
-1981 -1980 -107 0
1981 -1980 107 0
1981 1980 -107 0
-1982 1981 108 0
-1982 -1981 -108 0
1982 -1981 108 0
1982 1981 -108 0
-1983 1982 140 0
-1983 -1982 -140 0
1983 -1982 140 0
1983 1982 -140 0
-1984 1983 161 0
-1984 -1983 -161 0
1984 -1983 161 0
1984 1983 -161 0
-1985 1984 165 0
-1985 -1984 -165 0
1985 -1984 165 0
1985 1984 -165 0
-1986 1985 166 0
-1986 -1985 -166 0
1986 -1985 166 0
1986 1985 -166 0
-1987 1986 167 0
-1987 -1986 -167 0
1987 -1986 167 0
1987 1986 -167 0
-1988 1987 169 0
-1988 -1987 -169 0
1988 -1987 169 0
1988 1987 -169 0
-1989 1988 171 0
-1989 -1988 -171 0
1989 -1988 171 0
1989 1988 -171 0
-1990 1989 172 0
-1990 -1989 -172 0
1990 -1989 172 0
1990 1989 -172 0
-1991 1990 173 0
-1991 -1990 -173 0
1991 -1990 173 0
1991 1990 -173 0
-1992 1991 178 0
-1992 -1991 -178 0
1992 -1991 178 0
1992 1991 -178 0
-1993 1992 179 0
-1993 -1992 -179 0
1993 -1992 179 0
1993 1992 -179 0
-1994 1993 181 0
-1994 -1993 -181 0
1994 -1993 181 0
1994 1993 -181 0
-1995 1994 184 0
-1995 -1994 -184 0
1995 -1994 184 0
1995 1994 -184 0
-1996 1995 186 0
-1996 -1995 -186 0
1996 -1995 186 0
1996 1995 -186 0
-1997 1996 188 0
-1997 -1996 -188 0
1997 -1996 188 0
1997 1996 -188 0
-1998 1997 189 0
-1998 -1997 -189 0
1998 -1997 189 0
1998 1997 -189 0
-1999 1998 190 0
-1999 -1998 -190 0
1999 -1998 190 0
1999 1998 -190 0
-2000 1999 195 0
-2000 -1999 -195 0
2000 -1999 195 0
2000 1999 -195 0
-2001 2000 196 0
-2001 -2000 -196 0
2001 -2000 196 0
2001 2000 -196 0
-2002 2001 197 0
-2002 -2001 -197 0
2002 -2001 197 0
2002 2001 -197 0
-2003 2002 198 0
-2003 -2002 -198 0
2003 -2002 198 0
2003 2002 -198 0
-2004 2003 200 0
-2004 -2003 -200 0
2004 -2003 200 0
2004 2003 -200 0
-2005 2004 201 0
-2005 -2004 -201 0
2005 -2004 201 0
2005 2004 -201 0
-2006 2005 202 0
-2006 -2005 -202 0
2006 -2005 202 0
2006 2005 -202 0
-2007 2006 203 0
-2007 -2006 -203 0
2007 -2006 203 0
2007 2006 -203 0
-2008 2007 207 0
-2008 -2007 -207 0
2008 -2007 207 0
2008 2007 -207 0
-2009 2008 209 0
-2009 -2008 -209 0
2009 -2008 209 0
2009 2008 -209 0
-2010 2009 210 0
-2010 -2009 -210 0
2010 -2009 210 0
2010 2009 -210 0
-2011 2010 211 0
-2011 -2010 -211 0
2011 -2010 211 0
2011 2010 -211 0
-2012 2011 212 0
-2012 -2011 -212 0
2012 -2011 212 0
2012 2011 -212 0
-2013 2012 213 0
-2013 -2012 -213 0
2013 -2012 213 0
2013 2012 -213 0
-2014 2013 215 0
-2014 -2013 -215 0
2014 -2013 215 0
2014 2013 -215 0
-2014 0
-2015 47 52 0
-2015 -47 -52 0
2015 -47 52 0
2015 47 -52 0
-2016 2015 54 0
-2016 -2015 -54 0
2016 -2015 54 0
2016 2015 -54 0
-2017 2016 58 0
-2017 -2016 -58 0
2017 -2016 58 0
2017 2016 -58 0
-2018 2017 60 0
-2018 -2017 -60 0
2018 -2017 60 0
2018 2017 -60 0
-2019 2018 62 0
-2019 -2018 -62 0
2019 -2018 62 0
2019 2018 -62 0
-2020 2019 63 0
-2020 -2019 -63 0
2020 -2019 63 0
2020 2019 -63 0
-2021 2020 64 0
-2021 -2020 -64 0
2021 -2020 64 0
2021 2020 -64 0
-2022 2021 65 0
-2022 -2021 -65 0
2022 -2021 65 0
2022 2021 -65 0
-2023 2022 66 0
-2023 -2022 -66 0
2023 -2022 66 0
2023 2022 -66 0
-2024 2023 70 0
-2024 -2023 -70 0
2024 -2023 70 0
2024 2023 -70 0
-2025 2024 71 0
-2025 -2024 -71 0
2025 -2024 71 0
2025 2024 -71 0
-2026 2025 72 0
-2026 -2025 -72 0
2026 -2025 72 0
2026 2025 -72 0
-2027 2026 73 0
-2027 -2026 -73 0
2027 -2026 73 0
2027 2026 -73 0
-2028 2027 77 0
-2028 -2027 -77 0
2028 -2027 77 0
2028 2027 -77 0
-2029 2028 79 0
-2029 -2028 -79 0
2029 -2028 79 0
2029 2028 -79 0
-2030 2029 81 0
-2030 -2029 -81 0
2030 -2029 81 0
2030 2029 -81 0
-2031 2030 83 0
-2031 -2030 -83 0
2031 -2030 83 0
2031 2030 -83 0
-2032 2031 84 0
-2032 -2031 -84 0
2032 -2031 84 0
2032 2031 -84 0
-2033 2032 86 0
-2033 -2032 -86 0
2033 -2032 86 0
2033 2032 -86 0
-2034 2033 91 0
-2034 -2033 -91 0
2034 -2033 91 0
2034 2033 -91 0
-2035 2034 92 0
-2035 -2034 -92 0
2035 -2034 92 0
2035 2034 -92 0
-2036 2035 93 0
-2036 -2035 -93 0
2036 -2035 93 0
2036 2035 -93 0
-2037 2036 94 0
-2037 -2036 -94 0
2037 -2036 94 0
2037 2036 -94 0
-2038 2037 98 0
-2038 -2037 -98 0
2038 -2037 98 0
2038 2037 -98 0
-2039 2038 99 0
-2039 -2038 -99 0
2039 -2038 99 0
2039 2038 -99 0
-2040 2039 100 0
-2040 -2039 -100 0
2040 -2039 100 0
2040 2039 -100 0
-2041 2040 102 0
-2041 -2040 -102 0
2041 -2040 102 0
2041 2040 -102 0
-2042 2041 103 0
-2042 -2041 -103 0
2042 -2041 103 0
2042 2041 -103 0
-2043 2042 108 0
-2043 -2042 -108 0
2043 -2042 108 0
2043 2042 -108 0
-2044 2043 141 0
-2044 -2043 -141 0
2044 -2043 141 0
2044 2043 -141 0
-2045 2044 162 0
-2045 -2044 -162 0
2045 -2044 162 0
2045 2044 -162 0
-2046 2045 166 0
-2046 -2045 -166 0
2046 -2045 166 0
2046 2045 -166 0
-2047 2046 167 0
-2047 -2046 -167 0
2047 -2046 167 0
2047 2046 -167 0
-2048 2047 168 0
-2048 -2047 -168 0
2048 -2047 168 0
2048 2047 -168 0
-2049 2048 170 0
-2049 -2048 -170 0
2049 -2048 170 0
2049 2048 -170 0
-2050 2049 172 0
-2050 -2049 -172 0
2050 -2049 172 0
2050 2049 -172 0
-2051 2050 173 0
-2051 -2050 -173 0
2051 -2050 173 0
2051 2050 -173 0
-2052 2051 174 0
-2052 -2051 -174 0
2052 -2051 174 0
2052 2051 -174 0
-2053 2052 179 0
-2053 -2052 -179 0
2053 -2052 179 0
2053 2052 -179 0
-2054 2053 180 0
-2054 -2053 -180 0
2054 -2053 180 0
2054 2053 -180 0
-2055 2054 181 0
-2055 -2054 -181 0
2055 -2054 181 0
2055 2054 -181 0
-2056 2055 182 0
-2056 -2055 -182 0
2056 -2055 182 0
2056 2055 -182 0
-2057 2056 185 0
-2057 -2056 -185 0
2057 -2056 185 0
2057 2056 -185 0
-2058 2057 189 0
-2058 -2057 -189 0
2058 -2057 189 0
2058 2057 -189 0
-2059 2058 190 0
-2059 -2058 -190 0
2059 -2058 190 0
2059 2058 -190 0
-2060 2059 191 0
-2060 -2059 -191 0
2060 -2059 191 0
2060 2059 -191 0
-2061 2060 193 0
-2061 -2060 -193 0
2061 -2060 193 0
2061 2060 -193 0
-2062 2061 196 0
-2062 -2061 -196 0
2062 -2061 196 0
2062 2061 -196 0
-2063 2062 197 0
-2063 -2062 -197 0
2063 -2062 197 0
2063 2062 -197 0
-2064 2063 198 0
-2064 -2063 -198 0
2064 -2063 198 0
2064 2063 -198 0
-2065 2064 201 0
-2065 -2064 -201 0
2065 -2064 201 0
2065 2064 -201 0
-2066 2065 202 0
-2066 -2065 -202 0
2066 -2065 202 0
2066 2065 -202 0
-2067 2066 203 0
-2067 -2066 -203 0
2067 -2066 203 0
2067 2066 -203 0
-2068 2067 204 0
-2068 -2067 -204 0
2068 -2067 204 0
2068 2067 -204 0
-2069 2068 205 0
-2069 -2068 -205 0
2069 -2068 205 0
2069 2068 -205 0
-2070 2069 208 0
-2070 -2069 -208 0
2070 -2069 208 0
2070 2069 -208 0
-2071 2070 210 0
-2071 -2070 -210 0
2071 -2070 210 0
2071 2070 -210 0
-2072 2071 212 0
-2072 -2071 -212 0
2072 -2071 212 0
2072 2071 -212 0
-2073 2072 213 0
-2073 -2072 -213 0
2073 -2072 213 0
2073 2072 -213 0
-2074 2073 214 0
-2074 -2073 -214 0
2074 -2073 214 0
2074 2073 -214 0
-2075 2074 216 0
-2075 -2074 -216 0
2075 -2074 216 0
2075 2074 -216 0
-2075 0
-2076 58 59 0
-2076 -58 -59 0
2076 -58 59 0
2076 58 -59 0
-2077 2076 64 0
-2077 -2076 -64 0
2077 -2076 64 0
2077 2076 -64 0
-2078 2077 67 0
-2078 -2077 -67 0
2078 -2077 67 0
2078 2077 -67 0
-2079 2078 68 0
-2079 -2078 -68 0
2079 -2078 68 0
2079 2078 -68 0
-2080 2079 70 0
-2080 -2079 -70 0
2080 -2079 70 0
2080 2079 -70 0
-2081 2080 71 0
-2081 -2080 -71 0
2081 -2080 71 0
2081 2080 -71 0
-2082 2081 74 0
-2082 -2081 -74 0
2082 -2081 74 0
2082 2081 -74 0
-2083 2082 76 0
-2083 -2082 -76 0
2083 -2082 76 0
2083 2082 -76 0
-2084 2083 77 0
-2084 -2083 -77 0
2084 -2083 77 0
2084 2083 -77 0
-2085 2084 79 0
-2085 -2084 -79 0
2085 -2084 79 0
2085 2084 -79 0
-2086 2085 80 0
-2086 -2085 -80 0
2086 -2085 80 0
2086 2085 -80 0
-2087 2086 82 0
-2087 -2086 -82 0
2087 -2086 82 0
2087 2086 -82 0
-2088 2087 86 0
-2088 -2087 -86 0
2088 -2087 86 0
2088 2087 -86 0
-2089 2088 89 0
-2089 -2088 -89 0
2089 -2088 89 0
2089 2088 -89 0
-2090 2089 91 0
-2090 -2089 -91 0
2090 -2089 91 0
2090 2089 -91 0
-2091 2090 92 0
-2091 -2090 -92 0
2091 -2090 92 0
2091 2090 -92 0
-2092 2091 94 0
-2092 -2091 -94 0
2092 -2091 94 0
2092 2091 -94 0
-2093 2092 100 0
-2093 -2092 -100 0
2093 -2092 100 0
2093 2092 -100 0
-2094 2093 101 0
-2094 -2093 -101 0
2094 -2093 101 0
2094 2093 -101 0
-2095 2094 103 0
-2095 -2094 -103 0
2095 -2094 103 0
2095 2094 -103 0
-2096 2095 104 0
-2096 -2095 -104 0
2096 -2095 104 0
2096 2095 -104 0
-2097 2096 106 0
-2097 -2096 -106 0
2097 -2096 106 0
2097 2096 -106 0
-2098 2097 107 0
-2098 -2097 -107 0
2098 -2097 107 0
2098 2097 -107 0
-2099 2098 142 0
-2099 -2098 -142 0
2099 -2098 142 0
2099 2098 -142 0
-2100 2099 160 0
-2100 -2099 -160 0
2100 -2099 160 0
2100 2099 -160 0
-2101 2100 168 0
-2101 -2100 -168 0
2101 -2100 168 0
2101 2100 -168 0
-2102 2101 170 0
-2102 -2101 -170 0
2102 -2101 170 0
2102 2101 -170 0
-2103 2102 174 0
-2103 -2102 -174 0
2103 -2102 174 0
2103 2102 -174 0
-2104 2103 178 0
-2104 -2103 -178 0
2104 -2103 178 0
2104 2103 -178 0
-2105 2104 179 0
-2105 -2104 -179 0
2105 -2104 179 0
2105 2104 -179 0
-2106 2105 181 0
-2106 -2105 -181 0
2106 -2105 181 0
2106 2105 -181 0
-2107 2106 182 0
-2107 -2106 -182 0
2107 -2106 182 0
2107 2106 -182 0
-2108 2107 185 0
-2108 -2107 -185 0
2108 -2107 185 0
2108 2107 -185 0
-2109 2108 187 0
-2109 -2108 -187 0
2109 -2108 187 0
2109 2108 -187 0
-2110 2109 190 0
-2110 -2109 -190 0
2110 -2109 190 0
2110 2109 -190 0
-2111 2110 191 0
-2111 -2110 -191 0
2111 -2110 191 0
2111 2110 -191 0
-2112 2111 193 0
-2112 -2111 -193 0
2112 -2111 193 0
2112 2111 -193 0
-2113 2112 197 0
-2113 -2112 -197 0
2113 -2112 197 0
2113 2112 -197 0
-2114 2113 199 0
-2114 -2113 -199 0
2114 -2113 199 0
2114 2113 -199 0
-2115 2114 201 0
-2115 -2114 -201 0
2115 -2114 201 0
2115 2114 -201 0
-2116 2115 210 0
-2116 -2115 -210 0
2116 -2115 210 0
2116 2115 -210 0
-2117 2116 213 0
-2117 -2116 -213 0
2117 -2116 213 0
2117 2116 -213 0
-2118 2117 216 0
-2118 -2117 -216 0
2118 -2117 216 0
2118 2117 -216 0
-2118 0
-2119 59 60 0
-2119 -59 -60 0
2119 -59 60 0
2119 59 -60 0
-2120 2119 63 0
-2120 -2119 -63 0
2120 -2119 63 0
2120 2119 -63 0
-2121 2120 65 0
-2121 -2120 -65 0
2121 -2120 65 0
2121 2120 -65 0
-2122 2121 66 0
-2122 -2121 -66 0
2122 -2121 66 0
2122 2121 -66 0
-2123 2122 67 0
-2123 -2122 -67 0
2123 -2122 67 0
2123 2122 -67 0
-2124 2123 68 0
-2124 -2123 -68 0
2124 -2123 68 0
2124 2123 -68 0
-2125 2124 69 0
-2125 -2124 -69 0
2125 -2124 69 0
2125 2124 -69 0
-2126 2125 70 0
-2126 -2125 -70 0
2126 -2125 70 0
2126 2125 -70 0
-2127 2126 71 0
-2127 -2126 -71 0
2127 -2126 71 0
2127 2126 -71 0
-2128 2127 72 0
-2128 -2127 -72 0
2128 -2127 72 0
2128 2127 -72 0
-2129 2128 75 0
-2129 -2128 -75 0
2129 -2128 75 0
2129 2128 -75 0
-2130 2129 77 0
-2130 -2129 -77 0
2130 -2129 77 0
2130 2129 -77 0
-2131 2130 78 0
-2131 -2130 -78 0
2131 -2130 78 0
2131 2130 -78 0
-2132 2131 80 0
-2132 -2131 -80 0
2132 -2131 80 0
2132 2131 -80 0
-2133 2132 83 0
-2133 -2132 -83 0
2133 -2132 83 0
2133 2132 -83 0
-2134 2133 84 0
-2134 -2133 -84 0
2134 -2133 84 0
2134 2133 -84 0
-2135 2134 85 0
-2135 -2134 -85 0
2135 -2134 85 0
2135 2134 -85 0
-2136 2135 87 0
-2136 -2135 -87 0
2136 -2135 87 0
2136 2135 -87 0
-2137 2136 88 0
-2137 -2136 -88 0
2137 -2136 88 0
2137 2136 -88 0
-2138 2137 90 0
-2138 -2137 -90 0
2138 -2137 90 0
2138 2137 -90 0
-2139 2138 92 0
-2139 -2138 -92 0
2139 -2138 92 0
2139 2138 -92 0
-2140 2139 93 0
-2140 -2139 -93 0
2140 -2139 93 0
2140 2139 -93 0
-2141 2140 95 0
-2141 -2140 -95 0
2141 -2140 95 0
2141 2140 -95 0
-2142 2141 99 0
-2142 -2141 -99 0
2142 -2141 99 0
2142 2141 -99 0
-2143 2142 101 0
-2143 -2142 -101 0
2143 -2142 101 0
2143 2142 -101 0
-2144 2143 103 0
-2144 -2143 -103 0
2144 -2143 103 0
2144 2143 -103 0
-2145 2144 104 0
-2145 -2144 -104 0
2145 -2144 104 0
2145 2144 -104 0
-2146 2145 105 0
-2146 -2145 -105 0
2146 -2145 105 0
2146 2145 -105 0
-2147 2146 106 0
-2147 -2146 -106 0
2147 -2146 106 0
2147 2146 -106 0
-2148 2147 107 0
-2148 -2147 -107 0
2148 -2147 107 0
2148 2147 -107 0
-2149 2148 108 0
-2149 -2148 -108 0
2149 -2148 108 0
2149 2148 -108 0
-2150 2149 143 0
-2150 -2149 -143 0
2150 -2149 143 0
2150 2149 -143 0
-2151 2150 161 0
-2151 -2150 -161 0
2151 -2150 161 0
2151 2150 -161 0
-2152 2151 165 0
-2152 -2151 -165 0
2152 -2151 165 0
2152 2151 -165 0
-2153 2152 166 0
-2153 -2152 -166 0
2153 -2152 166 0
2153 2152 -166 0
-2154 2153 168 0
-2154 -2153 -168 0
2154 -2153 168 0
2154 2153 -168 0
-2155 2154 169 0
-2155 -2154 -169 0
2155 -2154 169 0
2155 2154 -169 0
-2156 2155 170 0
-2156 -2155 -170 0
2156 -2155 170 0
2156 2155 -170 0
-2157 2156 173 0
-2157 -2156 -173 0
2157 -2156 173 0
2157 2156 -173 0
-2158 2157 174 0
-2158 -2157 -174 0
2158 -2157 174 0
2158 2157 -174 0
-2159 2158 175 0
-2159 -2158 -175 0
2159 -2158 175 0
2159 2158 -175 0
-2160 2159 176 0
-2160 -2159 -176 0
2160 -2159 176 0
2160 2159 -176 0
-2161 2160 178 0
-2161 -2160 -178 0
2161 -2160 178 0
2161 2160 -178 0
-2162 2161 180 0
-2162 -2161 -180 0
2162 -2161 180 0
2162 2161 -180 0
-2163 2162 181 0
-2163 -2162 -181 0
2163 -2162 181 0
2163 2162 -181 0
-2164 2163 182 0
-2164 -2163 -182 0
2164 -2163 182 0
2164 2163 -182 0
-2165 2164 184 0
-2165 -2164 -184 0
2165 -2164 184 0
2165 2164 -184 0
-2166 2165 189 0
-2166 -2165 -189 0
2166 -2165 189 0
2166 2165 -189 0
-2167 2166 193 0
-2167 -2166 -193 0
2167 -2166 193 0
2167 2166 -193 0
-2168 2167 196 0
-2168 -2167 -196 0
2168 -2167 196 0
2168 2167 -196 0
-2169 2168 197 0
-2169 -2168 -197 0
2169 -2168 197 0
2169 2168 -197 0
-2170 2169 198 0
-2170 -2169 -198 0
2170 -2169 198 0
2170 2169 -198 0
-2171 2170 199 0
-2171 -2170 -199 0
2171 -2170 199 0
2171 2170 -199 0
-2172 2171 200 0
-2172 -2171 -200 0
2172 -2171 200 0
2172 2171 -200 0
-2173 2172 201 0
-2173 -2172 -201 0
2173 -2172 201 0
2173 2172 -201 0
-2174 2173 204 0
-2174 -2173 -204 0
2174 -2173 204 0
2174 2173 -204 0
-2175 2174 205 0
-2175 -2174 -205 0
2175 -2174 205 0
2175 2174 -205 0
-2176 2175 206 0
-2176 -2175 -206 0
2176 -2175 206 0
2176 2175 -206 0
-2177 2176 207 0
-2177 -2176 -207 0
2177 -2176 207 0
2177 2176 -207 0
-2178 2177 209 0
-2178 -2177 -209 0
2178 -2177 209 0
2178 2177 -209 0
-2179 2178 210 0
-2179 -2178 -210 0
2179 -2178 210 0
2179 2178 -210 0
-2180 2179 212 0
-2180 -2179 -212 0
2180 -2179 212 0
2180 2179 -212 0
-2181 2180 215 0
-2181 -2180 -215 0
2181 -2180 215 0
2181 2180 -215 0
-2181 0
-2182 58 60 0
-2182 -58 -60 0
2182 -58 60 0
2182 58 -60 0
-2183 2182 63 0
-2183 -2182 -63 0
2183 -2182 63 0
2183 2182 -63 0
-2184 2183 78 0
-2184 -2183 -78 0
2184 -2183 78 0
2184 2183 -78 0
-2185 2184 82 0
-2185 -2184 -82 0
2185 -2184 82 0
2185 2184 -82 0
-2186 2185 87 0
-2186 -2185 -87 0
2186 -2185 87 0
2186 2185 -87 0
-2187 2186 90 0
-2187 -2186 -90 0
2187 -2186 90 0
2187 2186 -90 0
-2188 2187 91 0
-2188 -2187 -91 0
2188 -2187 91 0
2188 2187 -91 0
-2189 2188 93 0
-2189 -2188 -93 0
2189 -2188 93 0
2189 2188 -93 0
-2190 2189 96 0
-2190 -2189 -96 0
2190 -2189 96 0
2190 2189 -96 0
-2191 2190 97 0
-2191 -2190 -97 0
2191 -2190 97 0
2191 2190 -97 0
-2192 2191 99 0
-2192 -2191 -99 0
2192 -2191 99 0
2192 2191 -99 0
-2193 2192 144 0
-2193 -2192 -144 0
2193 -2192 144 0
2193 2192 -144 0
-2194 2193 162 0
-2194 -2193 -162 0
2194 -2193 162 0
2194 2193 -162 0
-2195 2194 165 0
-2195 -2194 -165 0
2195 -2194 165 0
2195 2194 -165 0
-2196 2195 167 0
-2196 -2195 -167 0
2196 -2195 167 0
2196 2195 -167 0
-2197 2196 168 0
-2197 -2196 -168 0
2197 -2196 168 0
2197 2196 -168 0
-2198 2197 169 0
-2198 -2197 -169 0
2198 -2197 169 0
2198 2197 -169 0
-2199 2198 173 0
-2199 -2198 -173 0
2199 -2198 173 0
2199 2198 -173 0
-2200 2199 177 0
-2200 -2199 -177 0
2200 -2199 177 0
2200 2199 -177 0
-2201 2200 178 0
-2201 -2200 -178 0
2201 -2200 178 0
2201 2200 -178 0
-2202 2201 181 0
-2202 -2201 -181 0
2202 -2201 181 0
2202 2201 -181 0
-2203 2202 182 0
-2203 -2202 -182 0
2203 -2202 182 0
2203 2202 -182 0
-2204 2203 184 0
-2204 -2203 -184 0
2204 -2203 184 0
2204 2203 -184 0
-2205 2204 185 0
-2205 -2204 -185 0
2205 -2204 185 0
2205 2204 -185 0
-2206 2205 186 0
-2206 -2205 -186 0
2206 -2205 186 0
2206 2205 -186 0
-2207 2206 188 0
-2207 -2206 -188 0
2207 -2206 188 0
2207 2206 -188 0
-2208 2207 189 0
-2208 -2207 -189 0
2208 -2207 189 0
2208 2207 -189 0
-2209 2208 190 0
-2209 -2208 -190 0
2209 -2208 190 0
2209 2208 -190 0
-2210 2209 191 0
-2210 -2209 -191 0
2210 -2209 191 0
2210 2209 -191 0
-2211 2210 192 0
-2211 -2210 -192 0
2211 -2210 192 0
2211 2210 -192 0
-2212 2211 196 0
-2212 -2211 -196 0
2212 -2211 196 0
2212 2211 -196 0
-2213 2212 198 0
-2213 -2212 -198 0
2213 -2212 198 0
2213 2212 -198 0
-2214 2213 200 0
-2214 -2213 -200 0
2214 -2213 200 0
2214 2213 -200 0
-2215 2214 204 0
-2215 -2214 -204 0
2215 -2214 204 0
2215 2214 -204 0
-2216 2215 205 0
-2216 -2215 -205 0
2216 -2215 205 0
2216 2215 -205 0
-2217 2216 208 0
-2217 -2216 -208 0
2217 -2216 208 0
2217 2216 -208 0
-2218 2217 209 0
-2218 -2217 -209 0
2218 -2217 209 0
2218 2217 -209 0
-2219 2218 211 0
-2219 -2218 -211 0
2219 -2218 211 0
2219 2218 -211 0
-2220 2219 212 0
-2220 -2219 -212 0
2220 -2219 212 0
2220 2219 -212 0
-2221 2220 213 0
-2221 -2220 -213 0
2221 -2220 213 0
2221 2220 -213 0
-2222 2221 214 0
-2222 -2221 -214 0
2222 -2221 214 0
2222 2221 -214 0
-2223 2222 215 0
-2223 -2222 -215 0
2223 -2222 215 0
2223 2222 -215 0
-2224 2223 216 0
-2224 -2223 -216 0
2224 -2223 216 0
2224 2223 -216 0
-2224 0
-2225 46 48 0
-2225 -46 -48 0
2225 -46 48 0
2225 46 -48 0
-2226 2225 53 0
-2226 -2225 -53 0
2226 -2225 53 0
2226 2225 -53 0
-2227 2226 58 0
-2227 -2226 -58 0
2227 -2226 58 0
2227 2226 -58 0
-2228 2227 59 0
-2228 -2227 -59 0
2228 -2227 59 0
2228 2227 -59 0
-2229 2228 62 0
-2229 -2228 -62 0
2229 -2228 62 0
2229 2228 -62 0
-2230 2229 64 0
-2230 -2229 -64 0
2230 -2229 64 0
2230 2229 -64 0
-2231 2230 67 0
-2231 -2230 -67 0
2231 -2230 67 0
2231 2230 -67 0
-2232 2231 69 0
-2232 -2231 -69 0
2232 -2231 69 0
2232 2231 -69 0
-2233 2232 70 0
-2233 -2232 -70 0
2233 -2232 70 0
2233 2232 -70 0
-2234 2233 73 0
-2234 -2233 -73 0
2234 -2233 73 0
2234 2233 -73 0
-2235 2234 76 0
-2235 -2234 -76 0
2235 -2234 76 0
2235 2234 -76 0
-2236 2235 77 0
-2236 -2235 -77 0
2236 -2235 77 0
2236 2235 -77 0
-2237 2236 78 0
-2237 -2236 -78 0
2237 -2236 78 0
2237 2236 -78 0
-2238 2237 81 0
-2238 -2237 -81 0
2238 -2237 81 0
2238 2237 -81 0
-2239 2238 85 0
-2239 -2238 -85 0
2239 -2238 85 0
2239 2238 -85 0
-2240 2239 86 0
-2240 -2239 -86 0
2240 -2239 86 0
2240 2239 -86 0
-2241 2240 89 0
-2241 -2240 -89 0
2241 -2240 89 0
2241 2240 -89 0
-2242 2241 90 0
-2242 -2241 -90 0
2242 -2241 90 0
2242 2241 -90 0
-2243 2242 91 0
-2243 -2242 -91 0
2243 -2242 91 0
2243 2242 -91 0
-2244 2243 92 0
-2244 -2243 -92 0
2244 -2243 92 0
2244 2243 -92 0
-2245 2244 93 0
-2245 -2244 -93 0
2245 -2244 93 0
2245 2244 -93 0
-2246 2245 95 0
-2246 -2245 -95 0
2246 -2245 95 0
2246 2245 -95 0
-2247 2246 97 0
-2247 -2246 -97 0
2247 -2246 97 0
2247 2246 -97 0
-2248 2247 101 0
-2248 -2247 -101 0
2248 -2247 101 0
2248 2247 -101 0
-2249 2248 102 0
-2249 -2248 -102 0
2249 -2248 102 0
2249 2248 -102 0
-2250 2249 104 0
-2250 -2249 -104 0
2250 -2249 104 0
2250 2249 -104 0
-2251 2250 105 0
-2251 -2250 -105 0
2251 -2250 105 0
2251 2250 -105 0
-2252 2251 106 0
-2252 -2251 -106 0
2252 -2251 106 0
2252 2251 -106 0
-2253 2252 108 0
-2253 -2252 -108 0
2253 -2252 108 0
2253 2252 -108 0
-2254 2253 145 0
-2254 -2253 -145 0
2254 -2253 145 0
2254 2253 -145 0
-2255 2254 154 0
-2255 -2254 -154 0
2255 -2254 154 0
2255 2254 -154 0
-2256 2255 160 0
-2256 -2255 -160 0
2256 -2255 160 0
2256 2255 -160 0
-2257 2256 165 0
-2257 -2256 -165 0
2257 -2256 165 0
2257 2256 -165 0
-2258 2257 166 0
-2258 -2257 -166 0
2258 -2257 166 0
2258 2257 -166 0
-2259 2258 168 0
-2259 -2258 -168 0
2259 -2258 168 0
2259 2258 -168 0
-2260 2259 170 0
-2260 -2259 -170 0
2260 -2259 170 0
2260 2259 -170 0
-2261 2260 171 0
-2261 -2260 -171 0
2261 -2260 171 0
2261 2260 -171 0
-2262 2261 173 0
-2262 -2261 -173 0
2262 -2261 173 0
2262 2261 -173 0
-2263 2262 174 0
-2263 -2262 -174 0
2263 -2262 174 0
2263 2262 -174 0
-2264 2263 175 0
-2264 -2263 -175 0
2264 -2263 175 0
2264 2263 -175 0
-2265 2264 176 0
-2265 -2264 -176 0
2265 -2264 176 0
2265 2264 -176 0
-2266 2265 178 0
-2266 -2265 -178 0
2266 -2265 178 0
2266 2265 -178 0
-2267 2266 179 0
-2267 -2266 -179 0
2267 -2266 179 0
2267 2266 -179 0
-2268 2267 181 0
-2268 -2267 -181 0
2268 -2267 181 0
2268 2267 -181 0
-2269 2268 183 0
-2269 -2268 -183 0
2269 -2268 183 0
2269 2268 -183 0
-2270 2269 184 0
-2270 -2269 -184 0
2270 -2269 184 0
2270 2269 -184 0
-2271 2270 186 0
-2271 -2270 -186 0
2271 -2270 186 0
2271 2270 -186 0
-2272 2271 188 0
-2272 -2271 -188 0
2272 -2271 188 0
2272 2271 -188 0
-2273 2272 189 0
-2273 -2272 -189 0
2273 -2272 189 0
2273 2272 -189 0
-2274 2273 191 0
-2274 -2273 -191 0
2274 -2273 191 0
2274 2273 -191 0
-2275 2274 193 0
-2275 -2274 -193 0
2275 -2274 193 0
2275 2274 -193 0
-2276 2275 194 0
-2276 -2275 -194 0
2276 -2275 194 0
2276 2275 -194 0
-2277 2276 196 0
-2277 -2276 -196 0
2277 -2276 196 0
2277 2276 -196 0
-2278 2277 197 0
-2278 -2277 -197 0
2278 -2277 197 0
2278 2277 -197 0
-2279 2278 199 0
-2279 -2278 -199 0
2279 -2278 199 0
2279 2278 -199 0
-2280 2279 201 0
-2280 -2279 -201 0
2280 -2279 201 0
2280 2279 -201 0
-2281 2280 202 0
-2281 -2280 -202 0
2281 -2280 202 0
2281 2280 -202 0
-2282 2281 204 0
-2282 -2281 -204 0
2282 -2281 204 0
2282 2281 -204 0
-2283 2282 206 0
-2283 -2282 -206 0
2283 -2282 206 0
2283 2282 -206 0
-2284 2283 207 0
-2284 -2283 -207 0
2284 -2283 207 0
2284 2283 -207 0
-2285 2284 209 0
-2285 -2284 -209 0
2285 -2284 209 0
2285 2284 -209 0
-2286 2285 210 0
-2286 -2285 -210 0
2286 -2285 210 0
2286 2285 -210 0
-2287 2286 211 0
-2287 -2286 -211 0
2287 -2286 211 0
2287 2286 -211 0
-2288 2287 212 0
-2288 -2287 -212 0
2288 -2287 212 0
2288 2287 -212 0
-2289 2288 214 0
-2289 -2288 -214 0
2289 -2288 214 0
2289 2288 -214 0
-2289 0
-2290 46 47 0
-2290 -46 -47 0
2290 -46 47 0
2290 46 -47 0
-2291 2290 54 0
-2291 -2290 -54 0
2291 -2290 54 0
2291 2290 -54 0
-2292 2291 58 0
-2292 -2291 -58 0
2292 -2291 58 0
2292 2291 -58 0
-2293 2292 60 0
-2293 -2292 -60 0
2293 -2292 60 0
2293 2292 -60 0
-2294 2293 62 0
-2294 -2293 -62 0
2294 -2293 62 0
2294 2293 -62 0
-2295 2294 63 0
-2295 -2294 -63 0
2295 -2294 63 0
2295 2294 -63 0
-2296 2295 64 0
-2296 -2295 -64 0
2296 -2295 64 0
2296 2295 -64 0
-2297 2296 65 0
-2297 -2296 -65 0
2297 -2296 65 0
2297 2296 -65 0
-2298 2297 67 0
-2298 -2297 -67 0
2298 -2297 67 0
2298 2297 -67 0
-2299 2298 68 0
-2299 -2298 -68 0
2299 -2298 68 0
2299 2298 -68 0
-2300 2299 70 0
-2300 -2299 -70 0
2300 -2299 70 0
2300 2299 -70 0
-2301 2300 73 0
-2301 -2300 -73 0
2301 -2300 73 0
2301 2300 -73 0
-2302 2301 76 0
-2302 -2301 -76 0
2302 -2301 76 0
2302 2301 -76 0
-2303 2302 77 0
-2303 -2302 -77 0
2303 -2302 77 0
2303 2302 -77 0
-2304 2303 78 0
-2304 -2303 -78 0
2304 -2303 78 0
2304 2303 -78 0
-2305 2304 83 0
-2305 -2304 -83 0
2305 -2304 83 0
2305 2304 -83 0
-2306 2305 85 0
-2306 -2305 -85 0
2306 -2305 85 0
2306 2305 -85 0
-2307 2306 87 0
-2307 -2306 -87 0
2307 -2306 87 0
2307 2306 -87 0
-2308 2307 88 0
-2308 -2307 -88 0
2308 -2307 88 0
2308 2307 -88 0
-2309 2308 90 0
-2309 -2308 -90 0
2309 -2308 90 0
2309 2308 -90 0
-2310 2309 91 0
-2310 -2309 -91 0
2310 -2309 91 0
2310 2309 -91 0
-2311 2310 92 0
-2311 -2310 -92 0
2311 -2310 92 0
2311 2310 -92 0
-2312 2311 93 0
-2312 -2311 -93 0
2312 -2311 93 0
2312 2311 -93 0
-2313 2312 94 0
-2313 -2312 -94 0
2313 -2312 94 0
2313 2312 -94 0
-2314 2313 95 0
-2314 -2313 -95 0
2314 -2313 95 0
2314 2313 -95 0
-2315 2314 96 0
-2315 -2314 -96 0
2315 -2314 96 0
2315 2314 -96 0
-2316 2315 98 0
-2316 -2315 -98 0
2316 -2315 98 0
2316 2315 -98 0
-2317 2316 101 0
-2317 -2316 -101 0
2317 -2316 101 0
2317 2316 -101 0
-2318 2317 102 0
-2318 -2317 -102 0
2318 -2317 102 0
2318 2317 -102 0
-2319 2318 104 0
-2319 -2318 -104 0
2319 -2318 104 0
2319 2318 -104 0
-2320 2319 105 0
-2320 -2319 -105 0
2320 -2319 105 0
2320 2319 -105 0
-2321 2320 106 0
-2321 -2320 -106 0
2321 -2320 106 0
2321 2320 -106 0
-2322 2321 107 0
-2322 -2321 -107 0
2322 -2321 107 0
2322 2321 -107 0
-2323 2322 146 0
-2323 -2322 -146 0
2323 -2322 146 0
2323 2322 -146 0
-2324 2323 155 0
-2324 -2323 -155 0
2324 -2323 155 0
2324 2323 -155 0
-2325 2324 161 0
-2325 -2324 -161 0
2325 -2324 161 0
2325 2324 -161 0
-2326 2325 165 0
-2326 -2325 -165 0
2326 -2325 165 0
2326 2325 -165 0
-2327 2326 167 0
-2327 -2326 -167 0
2327 -2326 167 0
2327 2326 -167 0
-2328 2327 168 0
-2328 -2327 -168 0
2328 -2327 168 0
2328 2327 -168 0
-2329 2328 169 0
-2329 -2328 -169 0
2329 -2328 169 0
2329 2328 -169 0
-2330 2329 170 0
-2330 -2329 -170 0
2330 -2329 170 0
2330 2329 -170 0
-2331 2330 172 0
-2331 -2330 -172 0
2331 -2330 172 0
2331 2330 -172 0
-2332 2331 173 0
-2332 -2331 -173 0
2332 -2331 173 0
2332 2331 -173 0
-2333 2332 175 0
-2333 -2332 -175 0
2333 -2332 175 0
2333 2332 -175 0
-2334 2333 177 0
-2334 -2333 -177 0
2334 -2333 177 0
2334 2333 -177 0
-2335 2334 178 0
-2335 -2334 -178 0
2335 -2334 178 0
2335 2334 -178 0
-2336 2335 180 0
-2336 -2335 -180 0
2336 -2335 180 0
2336 2335 -180 0
-2337 2336 182 0
-2337 -2336 -182 0
2337 -2336 182 0
2337 2336 -182 0
-2338 2337 183 0
-2338 -2337 -183 0
2338 -2337 183 0
2338 2337 -183 0
-2339 2338 185 0
-2339 -2338 -185 0
2339 -2338 185 0
2339 2338 -185 0
-2340 2339 186 0
-2340 -2339 -186 0
2340 -2339 186 0
2340 2339 -186 0
-2341 2340 188 0
-2341 -2340 -188 0
2341 -2340 188 0
2341 2340 -188 0
-2342 2341 190 0
-2342 -2341 -190 0
2342 -2341 190 0
2342 2341 -190 0
-2343 2342 191 0
-2343 -2342 -191 0
2343 -2342 191 0
2343 2342 -191 0
-2344 2343 193 0
-2344 -2343 -193 0
2344 -2343 193 0
2344 2343 -193 0
-2345 2344 195 0
-2345 -2344 -195 0
2345 -2344 195 0
2345 2344 -195 0
-2346 2345 196 0
-2346 -2345 -196 0
2346 -2345 196 0
2346 2345 -196 0
-2347 2346 198 0
-2347 -2346 -198 0
2347 -2346 198 0
2347 2346 -198 0
-2348 2347 200 0
-2348 -2347 -200 0
2348 -2347 200 0
2348 2347 -200 0
-2349 2348 201 0
-2349 -2348 -201 0
2349 -2348 201 0
2349 2348 -201 0
-2350 2349 203 0
-2350 -2349 -203 0
2350 -2349 203 0
2350 2349 -203 0
-2351 2350 204 0
-2351 -2350 -204 0
2351 -2350 204 0
2351 2350 -204 0
-2352 2351 205 0
-2352 -2351 -205 0
2352 -2351 205 0
2352 2351 -205 0
-2353 2352 206 0
-2353 -2352 -206 0
2353 -2352 206 0
2353 2352 -206 0
-2354 2353 208 0
-2354 -2353 -208 0
2354 -2353 208 0
2354 2353 -208 0
-2355 2354 209 0
-2355 -2354 -209 0
2355 -2354 209 0
2355 2354 -209 0
-2356 2355 211 0
-2356 -2355 -211 0
2356 -2355 211 0
2356 2355 -211 0
-2357 2356 213 0
-2357 -2356 -213 0
2357 -2356 213 0
2357 2356 -213 0
-2358 2357 214 0
-2358 -2357 -214 0
2358 -2357 214 0
2358 2357 -214 0
-2358 0
-2359 47 48 0
-2359 -47 -48 0
2359 -47 48 0
2359 47 -48 0
-2360 2359 52 0
-2360 -2359 -52 0
2360 -2359 52 0
2360 2359 -52 0
-2361 2360 63 0
-2361 -2360 -63 0
2361 -2360 63 0
2361 2360 -63 0
-2362 2361 66 0
-2362 -2361 -66 0
2362 -2361 66 0
2362 2361 -66 0
-2363 2362 67 0
-2363 -2362 -67 0
2363 -2362 67 0
2363 2362 -67 0
-2364 2363 69 0
-2364 -2363 -69 0
2364 -2363 69 0
2364 2363 -69 0
-2365 2364 71 0
-2365 -2364 -71 0
2365 -2364 71 0
2365 2364 -71 0
-2366 2365 77 0
-2366 -2365 -77 0
2366 -2365 77 0
2366 2365 -77 0
-2367 2366 78 0
-2367 -2366 -78 0
2367 -2366 78 0
2367 2366 -78 0
-2368 2367 80 0
-2368 -2367 -80 0
2368 -2367 80 0
2368 2367 -80 0
-2369 2368 82 0
-2369 -2368 -82 0
2369 -2368 82 0
2369 2368 -82 0
-2370 2369 84 0
-2370 -2369 -84 0
2370 -2369 84 0
2370 2369 -84 0
-2371 2370 86 0
-2371 -2370 -86 0
2371 -2370 86 0
2371 2370 -86 0
-2372 2371 88 0
-2372 -2371 -88 0
2372 -2371 88 0
2372 2371 -88 0
-2373 2372 91 0
-2373 -2372 -91 0
2373 -2372 91 0
2373 2372 -91 0
-2374 2373 92 0
-2374 -2373 -92 0
2374 -2373 92 0
2374 2373 -92 0
-2375 2374 93 0
-2375 -2374 -93 0
2375 -2374 93 0
2375 2374 -93 0
-2376 2375 96 0
-2376 -2375 -96 0
2376 -2375 96 0
2376 2375 -96 0
-2377 2376 99 0
-2377 -2376 -99 0
2377 -2376 99 0
2377 2376 -99 0
-2378 2377 101 0
-2378 -2377 -101 0
2378 -2377 101 0
2378 2377 -101 0
-2379 2378 102 0
-2379 -2378 -102 0
2379 -2378 102 0
2379 2378 -102 0
-2380 2379 105 0
-2380 -2379 -105 0
2380 -2379 105 0
2380 2379 -105 0
-2381 2380 108 0
-2381 -2380 -108 0
2381 -2380 108 0
2381 2380 -108 0
-2382 2381 147 0
-2382 -2381 -147 0
2382 -2381 147 0
2382 2381 -147 0
-2383 2382 156 0
-2383 -2382 -156 0
2383 -2382 156 0
2383 2382 -156 0
-2384 2383 162 0
-2384 -2383 -162 0
2384 -2383 162 0
2384 2383 -162 0
-2385 2384 165 0
-2385 -2384 -165 0
2385 -2384 165 0
2385 2384 -165 0
-2386 2385 188 0
-2386 -2385 -188 0
2386 -2385 188 0
2386 2385 -188 0
-2387 2386 211 0
-2387 -2386 -211 0
2387 -2386 211 0
2387 2386 -211 0
-2387 0
-2388 62 64 0
-2388 -62 -64 0
2388 -62 64 0
2388 62 -64 0
-2389 2388 67 0
-2389 -2388 -67 0
2389 -2388 67 0
2389 2388 -67 0
-2390 2389 68 0
-2390 -2389 -68 0
2390 -2389 68 0
2390 2389 -68 0
-2391 2390 70 0
-2391 -2390 -70 0
2391 -2390 70 0
2391 2390 -70 0
-2392 2391 73 0
-2392 -2391 -73 0
2392 -2391 73 0
2392 2391 -73 0
-2393 2392 74 0
-2393 -2392 -74 0
2393 -2392 74 0
2393 2392 -74 0
-2394 2393 76 0
-2394 -2393 -76 0
2394 -2393 76 0
2394 2393 -76 0
-2395 2394 79 0
-2395 -2394 -79 0
2395 -2394 79 0
2395 2394 -79 0
-2396 2395 80 0
-2396 -2395 -80 0
2396 -2395 80 0
2396 2395 -80 0
-2397 2396 85 0
-2397 -2396 -85 0
2397 -2396 85 0
2397 2396 -85 0
-2398 2397 94 0
-2398 -2397 -94 0
2398 -2397 94 0
2398 2397 -94 0
-2399 2398 97 0
-2399 -2398 -97 0
2399 -2398 97 0
2399 2398 -97 0
-2400 2399 101 0
-2400 -2399 -101 0
2400 -2399 101 0
2400 2399 -101 0
-2401 2400 148 0
-2401 -2400 -148 0
2401 -2400 148 0
2401 2400 -148 0
-2402 2401 154 0
-2402 -2401 -154 0
2402 -2401 154 0
2402 2401 -154 0
-2403 2402 160 0
-2403 -2402 -160 0
2403 -2402 160 0
2403 2402 -160 0
-2404 2403 166 0
-2404 -2403 -166 0
2404 -2403 166 0
2404 2403 -166 0
-2405 2404 167 0
-2405 -2404 -167 0
2405 -2404 167 0
2405 2404 -167 0
-2406 2405 168 0
-2406 -2405 -168 0
2406 -2405 168 0
2406 2405 -168 0
-2407 2406 169 0
-2407 -2406 -169 0
2407 -2406 169 0
2407 2406 -169 0
-2408 2407 171 0
-2408 -2407 -171 0
2408 -2407 171 0
2408 2407 -171 0
-2409 2408 173 0
-2409 -2408 -173 0
2409 -2408 173 0
2409 2408 -173 0
-2410 2409 174 0
-2410 -2409 -174 0
2410 -2409 174 0
2410 2409 -174 0
-2411 2410 175 0
-2411 -2410 -175 0
2411 -2410 175 0
2411 2410 -175 0
-2412 2411 180 0
-2412 -2411 -180 0
2412 -2411 180 0
2412 2411 -180 0
-2413 2412 182 0
-2413 -2412 -182 0
2413 -2412 182 0
2413 2412 -182 0
-2414 2413 186 0
-2414 -2413 -186 0
2414 -2413 186 0
2414 2413 -186 0
-2415 2414 189 0
-2415 -2414 -189 0
2415 -2414 189 0
2415 2414 -189 0
-2416 2415 190 0
-2416 -2415 -190 0
2416 -2415 190 0
2416 2415 -190 0
-2417 2416 191 0
-2417 -2416 -191 0
2417 -2416 191 0
2417 2416 -191 0
-2418 2417 193 0
-2418 -2417 -193 0
2418 -2417 193 0
2418 2417 -193 0
-2419 2418 194 0
-2419 -2418 -194 0
2419 -2418 194 0
2419 2418 -194 0
-2420 2419 197 0
-2420 -2419 -197 0
2420 -2419 197 0
2420 2419 -197 0
-2421 2420 198 0
-2421 -2420 -198 0
2421 -2420 198 0
2421 2420 -198 0
-2422 2421 199 0
-2422 -2421 -199 0
2422 -2421 199 0
2422 2421 -199 0
-2423 2422 202 0
-2423 -2422 -202 0
2423 -2422 202 0
2423 2422 -202 0
-2424 2423 203 0
-2424 -2423 -203 0
2424 -2423 203 0
2424 2423 -203 0
-2425 2424 204 0
-2425 -2424 -204 0
2425 -2424 204 0
2425 2424 -204 0
-2426 2425 205 0
-2426 -2425 -205 0
2426 -2425 205 0
2426 2425 -205 0
-2427 2426 209 0
-2427 -2426 -209 0
2427 -2426 209 0
2427 2426 -209 0
-2428 2427 211 0
-2428 -2427 -211 0
2428 -2427 211 0
2428 2427 -211 0
-2429 2428 212 0
-2429 -2428 -212 0
2429 -2428 212 0
2429 2428 -212 0
-2430 2429 213 0
-2430 -2429 -213 0
2430 -2429 213 0
2430 2429 -213 0
-2430 0
-2431 65 66 0
-2431 -65 -66 0
2431 -65 66 0
2431 65 -66 0
-2432 2431 67 0
-2432 -2431 -67 0
2432 -2431 67 0
2432 2431 -67 0
-2433 2432 68 0
-2433 -2432 -68 0
2433 -2432 68 0
2433 2432 -68 0
-2434 2433 69 0
-2434 -2433 -69 0
2434 -2433 69 0
2434 2433 -69 0
-2435 2434 70 0
-2435 -2434 -70 0
2435 -2434 70 0
2435 2434 -70 0
-2436 2435 71 0
-2436 -2435 -71 0
2436 -2435 71 0
2436 2435 -71 0
-2437 2436 74 0
-2437 -2436 -74 0
2437 -2436 74 0
2437 2436 -74 0
-2438 2437 75 0
-2438 -2437 -75 0
2438 -2437 75 0
2438 2437 -75 0
-2439 2438 77 0
-2439 -2438 -77 0
2439 -2438 77 0
2439 2438 -77 0
-2440 2439 80 0
-2440 -2439 -80 0
2440 -2439 80 0
2440 2439 -80 0
-2441 2440 84 0
-2441 -2440 -84 0
2441 -2440 84 0
2441 2440 -84 0
-2442 2441 85 0
-2442 -2441 -85 0
2442 -2441 85 0
2442 2441 -85 0
-2443 2442 86 0
-2443 -2442 -86 0
2443 -2442 86 0
2443 2442 -86 0
-2444 2443 88 0
-2444 -2443 -88 0
2444 -2443 88 0
2444 2443 -88 0
-2445 2444 95 0
-2445 -2444 -95 0
2445 -2444 95 0
2445 2444 -95 0
-2446 2445 98 0
-2446 -2445 -98 0
2446 -2445 98 0
2446 2445 -98 0
-2447 2446 99 0
-2447 -2446 -99 0
2447 -2446 99 0
2447 2446 -99 0
-2448 2447 103 0
-2448 -2447 -103 0
2448 -2447 103 0
2448 2447 -103 0
-2449 2448 106 0
-2449 -2448 -106 0
2449 -2448 106 0
2449 2448 -106 0
-2450 2449 149 0
-2450 -2449 -149 0
2450 -2449 149 0
2450 2449 -149 0
-2451 2450 155 0
-2451 -2450 -155 0
2451 -2450 155 0
2451 2450 -155 0
-2452 2451 161 0
-2452 -2451 -161 0
2452 -2451 161 0
2452 2451 -161 0
-2453 2452 165 0
-2453 -2452 -165 0
2453 -2452 165 0
2453 2452 -165 0
-2454 2453 166 0
-2454 -2453 -166 0
2454 -2453 166 0
2454 2453 -166 0
-2455 2454 167 0
-2455 -2454 -167 0
2455 -2454 167 0
2455 2454 -167 0
-2456 2455 169 0
-2456 -2455 -169 0
2456 -2455 169 0
2456 2455 -169 0
-2457 2456 171 0
-2457 -2456 -171 0
2457 -2456 171 0
2457 2456 -171 0
-2458 2457 172 0
-2458 -2457 -172 0
2458 -2457 172 0
2458 2457 -172 0
-2459 2458 173 0
-2459 -2458 -173 0
2459 -2458 173 0
2459 2458 -173 0
-2460 2459 178 0
-2460 -2459 -178 0
2460 -2459 178 0
2460 2459 -178 0
-2461 2460 179 0
-2461 -2460 -179 0
2461 -2460 179 0
2461 2460 -179 0
-2462 2461 184 0
-2462 -2461 -184 0
2462 -2461 184 0
2462 2461 -184 0
-2463 2462 186 0
-2463 -2462 -186 0
2463 -2462 186 0
2463 2462 -186 0
-2464 2463 188 0
-2464 -2463 -188 0
2464 -2463 188 0
2464 2463 -188 0
-2465 2464 189 0
-2465 -2464 -189 0
2465 -2464 189 0
2465 2464 -189 0
-2466 2465 190 0
-2466 -2465 -190 0
2466 -2465 190 0
2466 2465 -190 0
-2467 2466 195 0
-2467 -2466 -195 0
2467 -2466 195 0
2467 2466 -195 0
-2468 2467 196 0
-2468 -2467 -196 0
2468 -2467 196 0
2468 2467 -196 0
-2469 2468 197 0
-2469 -2468 -197 0
2469 -2468 197 0
2469 2468 -197 0
-2470 2469 198 0
-2470 -2469 -198 0
2470 -2469 198 0
2470 2469 -198 0
-2471 2470 200 0
-2471 -2470 -200 0
2471 -2470 200 0
2471 2470 -200 0
-2472 2471 201 0
-2472 -2471 -201 0
2472 -2471 201 0
2472 2471 -201 0
-2473 2472 202 0
-2473 -2472 -202 0
2473 -2472 202 0
2473 2472 -202 0
-2474 2473 203 0
-2474 -2473 -203 0
2474 -2473 203 0
2474 2473 -203 0
-2475 2474 207 0
-2475 -2474 -207 0
2475 -2474 207 0
2475 2474 -207 0
-2476 2475 209 0
-2476 -2475 -209 0
2476 -2475 209 0
2476 2475 -209 0
-2477 2476 211 0
-2477 -2476 -211 0
2477 -2476 211 0
2477 2476 -211 0
-2478 2477 213 0
-2478 -2477 -213 0
2478 -2477 213 0
2478 2477 -213 0
-2479 2478 215 0
-2479 -2478 -215 0
2479 -2478 215 0
2479 2478 -215 0
-2479 0
-2480 62 63 0
-2480 -62 -63 0
2480 -62 63 0
2480 62 -63 0
-2481 2480 64 0
-2481 -2480 -64 0
2481 -2480 64 0
2481 2480 -64 0
-2482 2481 65 0
-2482 -2481 -65 0
2482 -2481 65 0
2482 2481 -65 0
-2483 2482 67 0
-2483 -2482 -67 0
2483 -2482 67 0
2483 2482 -67 0
-2484 2483 75 0
-2484 -2483 -75 0
2484 -2483 75 0
2484 2483 -75 0
-2485 2484 76 0
-2485 -2484 -76 0
2485 -2484 76 0
2485 2484 -76 0
-2486 2485 78 0
-2486 -2485 -78 0
2486 -2485 78 0
2486 2485 -78 0
-2487 2486 80 0
-2487 -2486 -80 0
2487 -2486 80 0
2487 2486 -80 0
-2488 2487 82 0
-2488 -2487 -82 0
2488 -2487 82 0
2488 2487 -82 0
-2489 2488 83 0
-2489 -2488 -83 0
2489 -2488 83 0
2489 2488 -83 0
-2490 2489 84 0
-2490 -2489 -84 0
2490 -2489 84 0
2490 2489 -84 0
-2491 2490 85 0
-2491 -2490 -85 0
2491 -2490 85 0
2491 2490 -85 0
-2492 2491 88 0
-2492 -2491 -88 0
2492 -2491 88 0
2492 2491 -88 0
-2493 2492 90 0
-2493 -2492 -90 0
2493 -2492 90 0
2493 2492 -90 0
-2494 2493 96 0
-2494 -2493 -96 0
2494 -2493 96 0
2494 2493 -96 0
-2495 2494 97 0
-2495 -2494 -97 0
2495 -2494 97 0
2495 2494 -97 0
-2496 2495 98 0
-2496 -2495 -98 0
2496 -2495 98 0
2496 2495 -98 0
-2497 2496 101 0
-2497 -2496 -101 0
2497 -2496 101 0
2497 2496 -101 0
-2498 2497 102 0
-2498 -2497 -102 0
2498 -2497 102 0
2498 2497 -102 0
-2499 2498 103 0
-2499 -2498 -103 0
2499 -2498 103 0
2499 2498 -103 0
-2500 2499 105 0
-2500 -2499 -105 0
2500 -2499 105 0
2500 2499 -105 0
-2501 2500 106 0
-2501 -2500 -106 0
2501 -2500 106 0
2501 2500 -106 0
-2502 2501 108 0
-2502 -2501 -108 0
2502 -2501 108 0
2502 2501 -108 0
-2503 2502 150 0
-2503 -2502 -150 0
2503 -2502 150 0
2503 2502 -150 0
-2504 2503 156 0
-2504 -2503 -156 0
2504 -2503 156 0
2504 2503 -156 0
-2505 2504 162 0
-2505 -2504 -162 0
2505 -2504 162 0
2505 2504 -162 0
-2506 2505 166 0
-2506 -2505 -166 0
2506 -2505 166 0
2506 2505 -166 0
-2507 2506 167 0
-2507 -2506 -167 0
2507 -2506 167 0
2507 2506 -167 0
-2508 2507 168 0
-2508 -2507 -168 0
2508 -2507 168 0
2508 2507 -168 0
-2509 2508 170 0
-2509 -2508 -170 0
2509 -2508 170 0
2509 2508 -170 0
-2510 2509 172 0
-2510 -2509 -172 0
2510 -2509 172 0
2510 2509 -172 0
-2511 2510 173 0
-2511 -2510 -173 0
2511 -2510 173 0
2511 2510 -173 0
-2512 2511 174 0
-2512 -2511 -174 0
2512 -2511 174 0
2512 2511 -174 0
-2513 2512 179 0
-2513 -2512 -179 0
2513 -2512 179 0
2513 2512 -179 0
-2514 2513 180 0
-2514 -2513 -180 0
2514 -2513 180 0
2514 2513 -180 0
-2515 2514 181 0
-2515 -2514 -181 0
2515 -2514 181 0
2515 2514 -181 0
-2516 2515 185 0
-2516 -2515 -185 0
2516 -2515 185 0
2516 2515 -185 0
-2517 2516 189 0
-2517 -2516 -189 0
2517 -2516 189 0
2517 2516 -189 0
-2518 2517 190 0
-2518 -2517 -190 0
2518 -2517 190 0
2518 2517 -190 0
-2519 2518 191 0
-2519 -2518 -191 0
2519 -2518 191 0
2519 2518 -191 0
-2520 2519 193 0
-2520 -2519 -193 0
2520 -2519 193 0
2520 2519 -193 0
-2521 2520 196 0
-2521 -2520 -196 0
2521 -2520 196 0
2521 2520 -196 0
-2522 2521 197 0
-2522 -2521 -197 0
2522 -2521 197 0
2522 2521 -197 0
-2523 2522 198 0
-2523 -2522 -198 0
2523 -2522 198 0
2523 2522 -198 0
-2524 2523 201 0
-2524 -2523 -201 0
2524 -2523 201 0
2524 2523 -201 0
-2525 2524 202 0
-2525 -2524 -202 0
2525 -2524 202 0
2525 2524 -202 0
-2526 2525 203 0
-2526 -2525 -203 0
2526 -2525 203 0
2526 2525 -203 0
-2527 2526 204 0
-2527 -2526 -204 0
2527 -2526 204 0
2527 2526 -204 0
-2528 2527 208 0
-2528 -2527 -208 0
2528 -2527 208 0
2528 2527 -208 0
-2529 2528 210 0
-2529 -2528 -210 0
2529 -2528 210 0
2529 2528 -210 0
-2530 2529 212 0
-2530 -2529 -212 0
2530 -2529 212 0
2530 2529 -212 0
-2531 2530 214 0
-2531 -2530 -214 0
2531 -2530 214 0
2531 2530 -214 0
-2532 2531 216 0
-2532 -2531 -216 0
2532 -2531 216 0
2532 2531 -216 0
-2532 0
-2533 46 52 0
-2533 -46 -52 0
2533 -46 52 0
2533 46 -52 0
-2534 2533 71 0
-2534 -2533 -71 0
2534 -2533 71 0
2534 2533 -71 0
-2535 2534 73 0
-2535 -2534 -73 0
2535 -2534 73 0
2535 2534 -73 0
-2536 2535 74 0
-2536 -2535 -74 0
2536 -2535 74 0
2536 2535 -74 0
-2537 2536 76 0
-2537 -2536 -76 0
2537 -2536 76 0
2537 2536 -76 0
-2538 2537 77 0
-2538 -2537 -77 0
2538 -2537 77 0
2538 2537 -77 0
-2539 2538 85 0
-2539 -2538 -85 0
2539 -2538 85 0
2539 2538 -85 0
-2540 2539 89 0
-2540 -2539 -89 0
2540 -2539 89 0
2540 2539 -89 0
-2541 2540 91 0
-2541 -2540 -91 0
2541 -2540 91 0
2541 2540 -91 0
-2542 2541 92 0
-2542 -2541 -92 0
2542 -2541 92 0
2542 2541 -92 0
-2543 2542 94 0
-2543 -2542 -94 0
2543 -2542 94 0
2543 2542 -94 0
-2544 2543 95 0
-2544 -2543 -95 0
2544 -2543 95 0
2544 2543 -95 0
-2545 2544 97 0
-2545 -2544 -97 0
2545 -2544 97 0
2545 2544 -97 0
-2546 2545 100 0
-2546 -2545 -100 0
2546 -2545 100 0
2546 2545 -100 0
-2547 2546 101 0
-2547 -2546 -101 0
2547 -2546 101 0
2547 2546 -101 0
-2548 2547 103 0
-2548 -2547 -103 0
2548 -2547 103 0
2548 2547 -103 0
-2549 2548 104 0
-2549 -2548 -104 0
2549 -2548 104 0
2549 2548 -104 0
-2550 2549 151 0
-2550 -2549 -151 0
2550 -2549 151 0
2550 2549 -151 0
-2551 2550 154 0
-2551 -2550 -154 0
2551 -2550 154 0
2551 2550 -154 0
-2552 2551 165 0
-2552 -2551 -165 0
2552 -2551 165 0
2552 2551 -165 0
-2553 2552 166 0
-2553 -2552 -166 0
2553 -2552 166 0
2553 2552 -166 0
-2554 2553 171 0
-2554 -2553 -171 0
2554 -2553 171 0
2554 2553 -171 0
-2555 2554 173 0
-2555 -2554 -173 0
2555 -2554 173 0
2555 2554 -173 0
-2556 2555 175 0
-2556 -2555 -175 0
2556 -2555 175 0
2556 2555 -175 0
-2557 2556 176 0
-2557 -2556 -176 0
2557 -2556 176 0
2557 2556 -176 0
-2558 2557 182 0
-2558 -2557 -182 0
2558 -2557 182 0
2558 2557 -182 0
-2559 2558 184 0
-2559 -2558 -184 0
2559 -2558 184 0
2559 2558 -184 0
-2560 2559 185 0
-2560 -2559 -185 0
2560 -2559 185 0
2560 2559 -185 0
-2561 2560 186 0
-2561 -2560 -186 0
2561 -2560 186 0
2561 2560 -186 0
-2562 2561 187 0
-2562 -2561 -187 0
2562 -2561 187 0
2562 2561 -187 0
-2563 2562 188 0
-2563 -2562 -188 0
2563 -2562 188 0
2563 2562 -188 0
-2564 2563 189 0
-2564 -2563 -189 0
2564 -2563 189 0
2564 2563 -189 0
-2565 2564 190 0
-2565 -2564 -190 0
2565 -2564 190 0
2565 2564 -190 0
-2566 2565 194 0
-2566 -2565 -194 0
2566 -2565 194 0
2566 2565 -194 0
-2567 2566 196 0
-2567 -2566 -196 0
2567 -2566 196 0
2567 2566 -196 0
-2568 2567 202 0
-2568 -2567 -202 0
2568 -2567 202 0
2568 2567 -202 0
-2569 2568 204 0
-2569 -2568 -204 0
2569 -2568 204 0
2569 2568 -204 0
-2570 2569 207 0
-2570 -2569 -207 0
2570 -2569 207 0
2570 2569 -207 0
-2571 2570 209 0
-2571 -2570 -209 0
2571 -2570 209 0
2571 2570 -209 0
-2572 2571 211 0
-2572 -2571 -211 0
2572 -2571 211 0
2572 2571 -211 0
-2573 2572 212 0
-2573 -2572 -212 0
2573 -2572 212 0
2573 2572 -212 0
-2574 2573 213 0
-2574 -2573 -213 0
2574 -2573 213 0
2574 2573 -213 0
-2575 2574 216 0
-2575 -2574 -216 0
2575 -2574 216 0
2575 2574 -216 0
-2575 0
-2576 47 53 0
-2576 -47 -53 0
2576 -47 53 0
2576 47 -53 0
-2577 2576 72 0
-2577 -2576 -72 0
2577 -2576 72 0
2577 2576 -72 0
-2578 2577 74 0
-2578 -2577 -74 0
2578 -2577 74 0
2578 2577 -74 0
-2579 2578 75 0
-2579 -2578 -75 0
2579 -2578 75 0
2579 2578 -75 0
-2580 2579 77 0
-2580 -2579 -77 0
2580 -2579 77 0
2580 2579 -77 0
-2581 2580 78 0
-2581 -2580 -78 0
2581 -2580 78 0
2581 2580 -78 0
-2582 2581 86 0
-2582 -2581 -86 0
2582 -2581 86 0
2582 2581 -86 0
-2583 2582 90 0
-2583 -2582 -90 0
2583 -2582 90 0
2583 2582 -90 0
-2584 2583 92 0
-2584 -2583 -92 0
2584 -2583 92 0
2584 2583 -92 0
-2585 2584 93 0
-2585 -2584 -93 0
2585 -2584 93 0
2585 2584 -93 0
-2586 2585 95 0
-2586 -2585 -95 0
2586 -2585 95 0
2586 2585 -95 0
-2587 2586 96 0
-2587 -2586 -96 0
2587 -2586 96 0
2587 2586 -96 0
-2588 2587 98 0
-2588 -2587 -98 0
2588 -2587 98 0
2588 2587 -98 0
-2589 2588 101 0
-2589 -2588 -101 0
2589 -2588 101 0
2589 2588 -101 0
-2590 2589 102 0
-2590 -2589 -102 0
2590 -2589 102 0
2590 2589 -102 0
-2591 2590 104 0
-2591 -2590 -104 0
2591 -2590 104 0
2591 2590 -104 0
-2592 2591 105 0
-2592 -2591 -105 0
2592 -2591 105 0
2592 2591 -105 0
-2593 2592 152 0
-2593 -2592 -152 0
2593 -2592 152 0
2593 2592 -152 0
-2594 2593 155 0
-2594 -2593 -155 0
2594 -2593 155 0
2594 2593 -155 0
-2595 2594 166 0
-2595 -2594 -166 0
2595 -2594 166 0
2595 2594 -166 0
-2596 2595 167 0
-2596 -2595 -167 0
2596 -2595 167 0
2596 2595 -167 0
-2597 2596 172 0
-2597 -2596 -172 0
2597 -2596 172 0
2597 2596 -172 0
-2598 2597 174 0
-2598 -2597 -174 0
2598 -2597 174 0
2598 2597 -174 0
-2599 2598 176 0
-2599 -2598 -176 0
2599 -2598 176 0
2599 2598 -176 0
-2600 2599 177 0
-2600 -2599 -177 0
2600 -2599 177 0
2600 2599 -177 0
-2601 2600 181 0
-2601 -2600 -181 0
2601 -2600 181 0
2601 2600 -181 0
-2602 2601 183 0
-2602 -2601 -183 0
2602 -2601 183 0
2602 2601 -183 0
-2603 2602 185 0
-2603 -2602 -185 0
2603 -2602 185 0
2603 2602 -185 0
-2604 2603 186 0
-2604 -2603 -186 0
2604 -2603 186 0
2604 2603 -186 0
-2605 2604 188 0
-2605 -2604 -188 0
2605 -2604 188 0
2605 2604 -188 0
-2606 2605 189 0
-2606 -2605 -189 0
2606 -2605 189 0
2606 2605 -189 0
-2607 2606 190 0
-2607 -2606 -190 0
2607 -2606 190 0
2607 2606 -190 0
-2608 2607 191 0
-2608 -2607 -191 0
2608 -2607 191 0
2608 2607 -191 0
-2609 2608 195 0
-2609 -2608 -195 0
2609 -2608 195 0
2609 2608 -195 0
-2610 2609 197 0
-2610 -2609 -197 0
2610 -2609 197 0
2610 2609 -197 0
-2611 2610 199 0
-2611 -2610 -199 0
2611 -2610 199 0
2611 2610 -199 0
-2612 2611 203 0
-2612 -2611 -203 0
2612 -2611 203 0
2612 2611 -203 0
-2613 2612 208 0
-2613 -2612 -208 0
2613 -2612 208 0
2613 2612 -208 0
-2614 2613 210 0
-2614 -2613 -210 0
2614 -2613 210 0
2614 2613 -210 0
-2615 2614 211 0
-2615 -2614 -211 0
2615 -2614 211 0
2615 2614 -211 0
-2616 2615 212 0
-2616 -2615 -212 0
2616 -2615 212 0
2616 2615 -212 0
-2617 2616 213 0
-2617 -2616 -213 0
2617 -2616 213 0
2617 2616 -213 0
-2618 2617 214 0
-2618 -2617 -214 0
2618 -2617 214 0
2618 2617 -214 0
-2618 0
-2619 48 54 0
-2619 -48 -54 0
2619 -48 54 0
2619 48 -54 0
-2620 2619 67 0
-2620 -2619 -67 0
2620 -2619 67 0
2620 2619 -67 0
-2621 2620 73 0
-2621 -2620 -73 0
2621 -2620 73 0
2621 2620 -73 0
-2622 2621 75 0
-2622 -2621 -75 0
2622 -2621 75 0
2622 2621 -75 0
-2623 2622 76 0
-2623 -2622 -76 0
2623 -2622 76 0
2623 2622 -76 0
-2624 2623 78 0
-2624 -2623 -78 0
2624 -2623 78 0
2624 2623 -78 0
-2625 2624 85 0
-2625 -2624 -85 0
2625 -2624 85 0
2625 2624 -85 0
-2626 2625 87 0
-2626 -2625 -87 0
2626 -2625 87 0
2626 2625 -87 0
-2627 2626 91 0
-2627 -2626 -91 0
2627 -2626 91 0
2627 2626 -91 0
-2628 2627 93 0
-2628 -2627 -93 0
2628 -2627 93 0
2628 2627 -93 0
-2629 2628 94 0
-2629 -2628 -94 0
2629 -2628 94 0
2629 2628 -94 0
-2630 2629 96 0
-2630 -2629 -96 0
2630 -2629 96 0
2630 2629 -96 0
-2631 2630 97 0
-2631 -2630 -97 0
2631 -2630 97 0
2631 2630 -97 0
-2632 2631 99 0
-2632 -2631 -99 0
2632 -2631 99 0
2632 2631 -99 0
-2633 2632 102 0
-2633 -2632 -102 0
2633 -2632 102 0
2633 2632 -102 0
-2634 2633 105 0
-2634 -2633 -105 0
2634 -2633 105 0
2634 2633 -105 0
-2635 2634 106 0
-2635 -2634 -106 0
2635 -2634 106 0
2635 2634 -106 0
-2636 2635 153 0
-2636 -2635 -153 0
2636 -2635 153 0
2636 2635 -153 0
-2637 2636 156 0
-2637 -2636 -156 0
2637 -2636 156 0
2637 2636 -156 0
-2638 2637 167 0
-2638 -2637 -167 0
2638 -2637 167 0
2638 2637 -167 0
-2639 2638 168 0
-2639 -2638 -168 0
2639 -2638 168 0
2639 2638 -168 0
-2640 2639 169 0
-2640 -2639 -169 0
2640 -2639 169 0
2640 2639 -169 0
-2641 2640 173 0
-2641 -2640 -173 0
2641 -2640 173 0
2641 2640 -173 0
-2642 2641 177 0
-2642 -2641 -177 0
2642 -2641 177 0
2642 2641 -177 0
-2643 2642 178 0
-2643 -2642 -178 0
2643 -2642 178 0
2643 2642 -178 0
-2644 2643 181 0
-2644 -2643 -181 0
2644 -2643 181 0
2644 2643 -181 0
-2645 2644 182 0
-2645 -2644 -182 0
2645 -2644 182 0
2645 2644 -182 0
-2646 2645 184 0
-2646 -2645 -184 0
2646 -2645 184 0
2646 2645 -184 0
-2647 2646 186 0
-2647 -2646 -186 0
2647 -2646 186 0
2647 2646 -186 0
-2648 2647 189 0
-2648 -2647 -189 0
2648 -2647 189 0
2648 2647 -189 0
-2649 2648 190 0
-2649 -2648 -190 0
2649 -2648 190 0
2649 2648 -190 0
-2650 2649 191 0
-2650 -2649 -191 0
2650 -2649 191 0
2650 2649 -191 0
-2651 2650 192 0
-2651 -2650 -192 0
2651 -2650 192 0
2651 2650 -192 0
-2652 2651 196 0
-2652 -2651 -196 0
2652 -2651 196 0
2652 2651 -196 0
-2653 2652 198 0
-2653 -2652 -198 0
2653 -2652 198 0
2653 2652 -198 0
-2654 2653 200 0
-2654 -2653 -200 0
2654 -2653 200 0
2654 2653 -200 0
-2655 2654 204 0
-2655 -2654 -204 0
2655 -2654 204 0
2655 2654 -204 0
-2656 2655 205 0
-2656 -2655 -205 0
2656 -2655 205 0
2656 2655 -205 0
-2657 2656 209 0
-2657 -2656 -209 0
2657 -2656 209 0
2657 2656 -209 0
-2658 2657 212 0
-2658 -2657 -212 0
2658 -2657 212 0
2658 2657 -212 0
-2659 2658 213 0
-2659 -2658 -213 0
2659 -2658 213 0
2659 2658 -213 0
-2660 2659 214 0
-2660 -2659 -214 0
2660 -2659 214 0
2660 2659 -214 0
-2661 2660 215 0
-2661 -2660 -215 0
2661 -2660 215 0
2661 2660 -215 0
-2661 0
-2662 48 52 0
-2662 -48 -52 0
2662 -48 52 0
2662 48 -52 0
-2663 2662 53 0
-2663 -2662 -53 0
2663 -2662 53 0
2663 2662 -53 0
-2664 2663 58 0
-2664 -2663 -58 0
2664 -2663 58 0
2664 2663 -58 0
-2665 2664 59 0
-2665 -2664 -59 0
2665 -2664 59 0
2665 2664 -59 0
-2666 2665 62 0
-2666 -2665 -62 0
2666 -2665 62 0
2666 2665 -62 0
-2667 2666 65 0
-2667 -2666 -65 0
2667 -2666 65 0
2667 2666 -65 0
-2668 2667 68 0
-2668 -2667 -68 0
2668 -2667 68 0
2668 2667 -68 0
-2669 2668 69 0
-2669 -2668 -69 0
2669 -2668 69 0
2669 2668 -69 0
-2670 2669 71 0
-2670 -2669 -71 0
2670 -2669 71 0
2670 2669 -71 0
-2671 2670 73 0
-2671 -2670 -73 0
2671 -2670 73 0
2671 2670 -73 0
-2672 2671 74 0
-2672 -2671 -74 0
2672 -2671 74 0
2672 2671 -74 0
-2673 2672 76 0
-2673 -2672 -76 0
2673 -2672 76 0
2673 2672 -76 0
-2674 2673 77 0
-2674 -2673 -77 0
2674 -2673 77 0
2674 2673 -77 0
-2675 2674 78 0
-2675 -2674 -78 0
2675 -2674 78 0
2675 2674 -78 0
-2676 2675 79 0
-2676 -2675 -79 0
2676 -2675 79 0
2676 2675 -79 0
-2677 2676 81 0
-2677 -2676 -81 0
2677 -2676 81 0
2677 2676 -81 0
-2678 2677 83 0
-2678 -2677 -83 0
2678 -2677 83 0
2678 2677 -83 0
-2679 2678 88 0
-2679 -2678 -88 0
2679 -2678 88 0
2679 2678 -88 0
-2680 2679 89 0
-2680 -2679 -89 0
2680 -2679 89 0
2680 2679 -89 0
-2681 2680 90 0
-2681 -2680 -90 0
2681 -2680 90 0
2681 2680 -90 0
-2682 2681 91 0
-2682 -2681 -91 0
2682 -2681 91 0
2682 2681 -91 0
-2683 2682 93 0
-2683 -2682 -93 0
2683 -2682 93 0
2683 2682 -93 0
-2684 2683 94 0
-2684 -2683 -94 0
2684 -2683 94 0
2684 2683 -94 0
-2685 2684 97 0
-2685 -2684 -97 0
2685 -2684 97 0
2685 2684 -97 0
-2686 2685 98 0
-2686 -2685 -98 0
2686 -2685 98 0
2686 2685 -98 0
-2687 2686 100 0
-2687 -2686 -100 0
2687 -2686 100 0
2687 2686 -100 0
-2688 2687 102 0
-2688 -2687 -102 0
2688 -2687 102 0
2688 2687 -102 0
-2689 2688 103 0
-2689 -2688 -103 0
2689 -2688 103 0
2689 2688 -103 0
-2690 2689 104 0
-2690 -2689 -104 0
2690 -2689 104 0
2690 2689 -104 0
-2691 2690 105 0
-2691 -2690 -105 0
2691 -2690 105 0
2691 2690 -105 0
-2692 2691 106 0
-2692 -2691 -106 0
2692 -2691 106 0
2692 2691 -106 0
-2693 2692 107 0
-2693 -2692 -107 0
2693 -2692 107 0
2693 2692 -107 0
-2694 2693 108 0
-2694 -2693 -108 0
2694 -2693 108 0
2694 2693 -108 0
-2695 2694 157 0
-2695 -2694 -157 0
2695 -2694 157 0
2695 2694 -157 0
-2696 2695 160 0
-2696 -2695 -160 0
2696 -2695 160 0
2696 2695 -160 0
-2697 2696 165 0
-2697 -2696 -165 0
2697 -2696 165 0
2697 2696 -165 0
-2698 2697 166 0
-2698 -2697 -166 0
2698 -2697 166 0
2698 2697 -166 0
-2699 2698 167 0
-2699 -2698 -167 0
2699 -2698 167 0
2699 2698 -167 0
-2700 2699 168 0
-2700 -2699 -168 0
2700 -2699 168 0
2700 2699 -168 0
-2701 2700 169 0
-2701 -2700 -169 0
2701 -2700 169 0
2701 2700 -169 0
-2702 2701 174 0
-2702 -2701 -174 0
2702 -2701 174 0
2702 2701 -174 0
-2703 2702 176 0
-2703 -2702 -176 0
2703 -2702 176 0
2703 2702 -176 0
-2704 2703 180 0
-2704 -2703 -180 0
2704 -2703 180 0
2704 2703 -180 0
-2705 2704 184 0
-2705 -2704 -184 0
2705 -2704 184 0
2705 2704 -184 0
-2706 2705 185 0
-2706 -2705 -185 0
2706 -2705 185 0
2706 2705 -185 0
-2707 2706 187 0
-2707 -2706 -187 0
2707 -2706 187 0
2707 2706 -187 0
-2708 2707 188 0
-2708 -2707 -188 0
2708 -2707 188 0
2708 2707 -188 0
-2709 2708 189 0
-2709 -2708 -189 0
2709 -2708 189 0
2709 2708 -189 0
-2710 2709 191 0
-2710 -2709 -191 0
2710 -2709 191 0
2710 2709 -191 0
-2711 2710 193 0
-2711 -2710 -193 0
2711 -2710 193 0
2711 2710 -193 0
-2712 2711 196 0
-2712 -2711 -196 0
2712 -2711 196 0
2712 2711 -196 0
-2713 2712 197 0
-2713 -2712 -197 0
2713 -2712 197 0
2713 2712 -197 0
-2714 2713 198 0
-2714 -2713 -198 0
2714 -2713 198 0
2714 2713 -198 0
-2715 2714 199 0
-2715 -2714 -199 0
2715 -2714 199 0
2715 2714 -199 0
-2716 2715 203 0
-2716 -2715 -203 0
2716 -2715 203 0
2716 2715 -203 0
-2717 2716 205 0
-2717 -2716 -205 0
2717 -2716 205 0
2717 2716 -205 0
-2718 2717 207 0
-2718 -2717 -207 0
2718 -2717 207 0
2718 2717 -207 0
-2719 2718 212 0
-2719 -2718 -212 0
2719 -2718 212 0
2719 2718 -212 0
-2720 2719 216 0
-2720 -2719 -216 0
2720 -2719 216 0
2720 2719 -216 0
-2720 0
-2721 46 53 0
-2721 -46 -53 0
2721 -46 53 0
2721 46 -53 0
-2722 2721 54 0
-2722 -2721 -54 0
2722 -2721 54 0
2722 2721 -54 0
-2723 2722 58 0
-2723 -2722 -58 0
2723 -2722 58 0
2723 2722 -58 0
-2724 2723 60 0
-2724 -2723 -60 0
2724 -2723 60 0
2724 2723 -60 0
-2725 2724 62 0
-2725 -2724 -62 0
2725 -2724 62 0
2725 2724 -62 0
-2726 2725 63 0
-2726 -2725 -63 0
2726 -2725 63 0
2726 2725 -63 0
-2727 2726 64 0
-2727 -2726 -64 0
2727 -2726 64 0
2727 2726 -64 0
-2728 2727 66 0
-2728 -2727 -66 0
2728 -2727 66 0
2728 2727 -66 0
-2729 2728 67 0
-2729 -2728 -67 0
2729 -2728 67 0
2729 2728 -67 0
-2730 2729 69 0
-2730 -2729 -69 0
2730 -2729 69 0
2730 2729 -69 0
-2731 2730 70 0
-2731 -2730 -70 0
2731 -2730 70 0
2731 2730 -70 0
-2732 2731 71 0
-2732 -2731 -71 0
2732 -2731 71 0
2732 2731 -71 0
-2733 2732 72 0
-2733 -2732 -72 0
2733 -2732 72 0
2733 2732 -72 0
-2734 2733 73 0
-2734 -2733 -73 0
2734 -2733 73 0
2734 2733 -73 0
-2735 2734 75 0
-2735 -2734 -75 0
2735 -2734 75 0
2735 2734 -75 0
-2736 2735 76 0
-2736 -2735 -76 0
2736 -2735 76 0
2736 2735 -76 0
-2737 2736 77 0
-2737 -2736 -77 0
2737 -2736 77 0
2737 2736 -77 0
-2738 2737 78 0
-2738 -2737 -78 0
2738 -2737 78 0
2738 2737 -78 0
-2739 2738 80 0
-2739 -2738 -80 0
2739 -2738 80 0
2739 2738 -80 0
-2740 2739 83 0
-2740 -2739 -83 0
2740 -2739 83 0
2740 2739 -83 0
-2741 2740 84 0
-2741 -2740 -84 0
2741 -2740 84 0
2741 2740 -84 0
-2742 2741 85 0
-2742 -2741 -85 0
2742 -2741 85 0
2742 2741 -85 0
-2743 2742 86 0
-2743 -2742 -86 0
2743 -2742 86 0
2743 2742 -86 0
-2744 2743 88 0
-2744 -2743 -88 0
2744 -2743 88 0
2744 2743 -88 0
-2745 2744 89 0
-2745 -2744 -89 0
2745 -2744 89 0
2745 2744 -89 0
-2746 2745 90 0
-2746 -2745 -90 0
2746 -2745 90 0
2746 2745 -90 0
-2747 2746 91 0
-2747 -2746 -91 0
2747 -2746 91 0
2747 2746 -91 0
-2748 2747 92 0
-2748 -2747 -92 0
2748 -2747 92 0
2748 2747 -92 0
-2749 2748 94 0
-2749 -2748 -94 0
2749 -2748 94 0
2749 2748 -94 0
-2750 2749 98 0
-2750 -2749 -98 0
2750 -2749 98 0
2750 2749 -98 0
-2751 2750 99 0
-2751 -2750 -99 0
2751 -2750 99 0
2751 2750 -99 0
-2752 2751 105 0
-2752 -2751 -105 0
2752 -2751 105 0
2752 2751 -105 0
-2753 2752 106 0
-2753 -2752 -106 0
2753 -2752 106 0
2753 2752 -106 0
-2754 2753 107 0
-2754 -2753 -107 0
2754 -2753 107 0
2754 2753 -107 0
-2755 2754 108 0
-2755 -2754 -108 0
2755 -2754 108 0
2755 2754 -108 0
-2756 2755 158 0
-2756 -2755 -158 0
2756 -2755 158 0
2756 2755 -158 0
-2757 2756 161 0
-2757 -2756 -161 0
2757 -2756 161 0
2757 2756 -161 0
-2758 2757 165 0
-2758 -2757 -165 0
2758 -2757 165 0
2758 2757 -165 0
-2759 2758 167 0
-2759 -2758 -167 0
2759 -2758 167 0
2759 2758 -167 0
-2760 2759 169 0
-2760 -2759 -169 0
2760 -2759 169 0
2760 2759 -169 0
-2761 2760 171 0
-2761 -2760 -171 0
2761 -2760 171 0
2761 2760 -171 0
-2762 2761 173 0
-2762 -2761 -173 0
2762 -2761 173 0
2762 2761 -173 0
-2763 2762 174 0
-2763 -2762 -174 0
2763 -2762 174 0
2763 2762 -174 0
-2764 2763 176 0
-2764 -2763 -176 0
2764 -2763 176 0
2764 2763 -176 0
-2765 2764 177 0
-2765 -2764 -177 0
2765 -2764 177 0
2765 2764 -177 0
-2766 2765 178 0
-2766 -2765 -178 0
2766 -2765 178 0
2766 2765 -178 0
-2767 2766 179 0
-2767 -2766 -179 0
2767 -2766 179 0
2767 2766 -179 0
-2768 2767 181 0
-2768 -2767 -181 0
2768 -2767 181 0
2768 2767 -181 0
-2769 2768 183 0
-2769 -2768 -183 0
2769 -2768 183 0
2769 2768 -183 0
-2770 2769 184 0
-2770 -2769 -184 0
2770 -2769 184 0
2770 2769 -184 0
-2771 2770 185 0
-2771 -2770 -185 0
2771 -2770 185 0
2771 2770 -185 0
-2772 2771 190 0
-2772 -2771 -190 0
2772 -2771 190 0
2772 2771 -190 0
-2773 2772 191 0
-2773 -2772 -191 0
2773 -2772 191 0
2773 2772 -191 0
-2774 2773 196 0
-2774 -2773 -196 0
2774 -2773 196 0
2774 2773 -196 0
-2775 2774 198 0
-2775 -2774 -198 0
2775 -2774 198 0
2775 2774 -198 0
-2776 2775 199 0
-2776 -2775 -199 0
2776 -2775 199 0
2776 2775 -199 0
-2777 2776 200 0
-2777 -2776 -200 0
2777 -2776 200 0
2777 2776 -200 0
-2778 2777 201 0
-2778 -2777 -201 0
2778 -2777 201 0
2778 2777 -201 0
-2779 2778 202 0
-2779 -2778 -202 0
2779 -2778 202 0
2779 2778 -202 0
-2780 2779 207 0
-2780 -2779 -207 0
2780 -2779 207 0
2780 2779 -207 0
-2781 2780 208 0
-2781 -2780 -208 0
2781 -2780 208 0
2781 2780 -208 0
-2782 2781 209 0
-2782 -2781 -209 0
2782 -2781 209 0
2782 2781 -209 0
-2783 2782 210 0
-2783 -2782 -210 0
2783 -2782 210 0
2783 2782 -210 0
-2784 2783 212 0
-2784 -2783 -212 0
2784 -2783 212 0
2784 2783 -212 0
-2785 2784 213 0
-2785 -2784 -213 0
2785 -2784 213 0
2785 2784 -213 0
-2786 2785 214 0
-2786 -2785 -214 0
2786 -2785 214 0
2786 2785 -214 0
-2787 2786 215 0
-2787 -2786 -215 0
2787 -2786 215 0
2787 2786 -215 0
-2787 0
-2788 47 52 0
-2788 -47 -52 0
2788 -47 52 0
2788 47 -52 0
-2789 2788 54 0
-2789 -2788 -54 0
2789 -2788 54 0
2789 2788 -54 0
-2790 2789 62 0
-2790 -2789 -62 0
2790 -2789 62 0
2790 2789 -62 0
-2791 2790 63 0
-2791 -2790 -63 0
2791 -2790 63 0
2791 2790 -63 0
-2792 2791 64 0
-2792 -2791 -64 0
2792 -2791 64 0
2792 2791 -64 0
-2793 2792 65 0
-2793 -2792 -65 0
2793 -2792 65 0
2793 2792 -65 0
-2794 2793 68 0
-2794 -2793 -68 0
2794 -2793 68 0
2794 2793 -68 0
-2795 2794 69 0
-2795 -2794 -69 0
2795 -2794 69 0
2795 2794 -69 0
-2796 2795 70 0
-2796 -2795 -70 0
2796 -2795 70 0
2796 2795 -70 0
-2797 2796 76 0
-2797 -2796 -76 0
2797 -2796 76 0
2797 2796 -76 0
-2798 2797 77 0
-2798 -2797 -77 0
2798 -2797 77 0
2798 2797 -77 0
-2799 2798 78 0
-2799 -2798 -78 0
2799 -2798 78 0
2799 2798 -78 0
-2800 2799 81 0
-2800 -2799 -81 0
2800 -2799 81 0
2800 2799 -81 0
-2801 2800 83 0
-2801 -2800 -83 0
2801 -2800 83 0
2801 2800 -83 0
-2802 2801 84 0
-2802 -2801 -84 0
2802 -2801 84 0
2802 2801 -84 0
-2803 2802 89 0
-2803 -2802 -89 0
2803 -2802 89 0
2803 2802 -89 0
-2804 2803 92 0
-2804 -2803 -92 0
2804 -2803 92 0
2804 2803 -92 0
-2805 2804 93 0
-2805 -2804 -93 0
2805 -2804 93 0
2805 2804 -93 0
-2806 2805 94 0
-2806 -2805 -94 0
2806 -2805 94 0
2806 2805 -94 0
-2807 2806 98 0
-2807 -2806 -98 0
2807 -2806 98 0
2807 2806 -98 0
-2808 2807 99 0
-2808 -2807 -99 0
2808 -2807 99 0
2808 2807 -99 0
-2809 2808 103 0
-2809 -2808 -103 0
2809 -2808 103 0
2809 2808 -103 0
-2810 2809 104 0
-2810 -2809 -104 0
2810 -2809 104 0
2810 2809 -104 0
-2811 2810 105 0
-2811 -2810 -105 0
2811 -2810 105 0
2811 2810 -105 0
-2812 2811 107 0
-2812 -2811 -107 0
2812 -2811 107 0
2812 2811 -107 0
-2813 2812 159 0
-2813 -2812 -159 0
2813 -2812 159 0
2813 2812 -159 0
-2814 2813 162 0
-2814 -2813 -162 0
2814 -2813 162 0
2814 2813 -162 0
-2815 2814 166 0
-2815 -2814 -166 0
2815 -2814 166 0
2815 2814 -166 0
-2816 2815 168 0
-2816 -2815 -168 0
2816 -2815 168 0
2816 2815 -168 0
-2817 2816 169 0
-2817 -2816 -169 0
2817 -2816 169 0
2817 2816 -169 0
-2818 2817 170 0
-2818 -2817 -170 0
2818 -2817 170 0
2818 2817 -170 0
-2819 2818 172 0
-2819 -2818 -172 0
2819 -2818 172 0
2819 2818 -172 0
-2820 2819 174 0
-2820 -2819 -174 0
2820 -2819 174 0
2820 2819 -174 0
-2821 2820 177 0
-2821 -2820 -177 0
2821 -2820 177 0
2821 2820 -177 0
-2822 2821 178 0
-2822 -2821 -178 0
2822 -2821 178 0
2822 2821 -178 0
-2823 2822 179 0
-2823 -2822 -179 0
2823 -2822 179 0
2823 2822 -179 0
-2824 2823 180 0
-2824 -2823 -180 0
2824 -2823 180 0
2824 2823 -180 0
-2825 2824 182 0
-2825 -2824 -182 0
2825 -2824 182 0
2825 2824 -182 0
-2826 2825 184 0
-2826 -2825 -184 0
2826 -2825 184 0
2826 2825 -184 0
-2827 2826 185 0
-2827 -2826 -185 0
2827 -2826 185 0
2827 2826 -185 0
-2828 2827 186 0
-2828 -2827 -186 0
2828 -2827 186 0
2828 2827 -186 0
-2829 2828 191 0
-2829 -2828 -191 0
2829 -2828 191 0
2829 2828 -191 0
-2830 2829 192 0
-2830 -2829 -192 0
2830 -2829 192 0
2830 2829 -192 0
-2831 2830 193 0
-2831 -2830 -193 0
2831 -2830 193 0
2831 2830 -193 0
-2832 2831 197 0
-2832 -2831 -197 0
2832 -2831 197 0
2832 2831 -197 0
-2833 2832 200 0
-2833 -2832 -200 0
2833 -2832 200 0
2833 2832 -200 0
-2834 2833 201 0
-2834 -2833 -201 0
2834 -2833 201 0
2834 2833 -201 0
-2835 2834 202 0
-2835 -2834 -202 0
2835 -2834 202 0
2835 2834 -202 0
-2836 2835 203 0
-2836 -2835 -203 0
2836 -2835 203 0
2836 2835 -203 0
-2837 2836 205 0
-2837 -2836 -205 0
2837 -2836 205 0
2837 2836 -205 0
-2838 2837 208 0
-2838 -2837 -208 0
2838 -2837 208 0
2838 2837 -208 0
-2839 2838 209 0
-2839 -2838 -209 0
2839 -2838 209 0
2839 2838 -209 0
-2840 2839 210 0
-2840 -2839 -210 0
2840 -2839 210 0
2840 2839 -210 0
-2841 2840 213 0
-2841 -2840 -213 0
2841 -2840 213 0
2841 2840 -213 0
-2842 2841 214 0
-2842 -2841 -214 0
2842 -2841 214 0
2842 2841 -214 0
-2843 2842 215 0
-2843 -2842 -215 0
2843 -2842 215 0
2843 2842 -215 0
-2844 2843 216 0
-2844 -2843 -216 0
2844 -2843 216 0
2844 2843 -216 0
-2844 0
-2845 63 66 0
-2845 -63 -66 0
2845 -63 66 0
2845 63 -66 0
-2846 2845 67 0
-2846 -2845 -67 0
2846 -2845 67 0
2846 2845 -67 0
-2847 2846 70 0
-2847 -2846 -70 0
2847 -2846 70 0
2847 2846 -70 0
-2848 2847 81 0
-2848 -2847 -81 0
2848 -2847 81 0
2848 2847 -81 0
-2849 2848 84 0
-2849 -2848 -84 0
2849 -2848 84 0
2849 2848 -84 0
-2850 2849 85 0
-2850 -2849 -85 0
2850 -2849 85 0
2850 2849 -85 0
-2851 2850 88 0
-2851 -2850 -88 0
2851 -2850 88 0
2851 2850 -88 0
-2852 2851 99 0
-2852 -2851 -99 0
2852 -2851 99 0
2852 2851 -99 0
-2853 2852 102 0
-2853 -2852 -102 0
2853 -2852 102 0
2853 2852 -102 0
-2854 2853 103 0
-2854 -2853 -103 0
2854 -2853 103 0
2854 2853 -103 0
-2855 2854 106 0
-2855 -2854 -106 0
2855 -2854 106 0
2855 2854 -106 0
-2856 2855 163 0
-2856 -2855 -163 0
2856 -2855 163 0
2856 2855 -163 0
-2857 2856 165 0
-2857 -2856 -165 0
2857 -2856 165 0
2857 2856 -165 0
-2858 2857 166 0
-2858 -2857 -166 0
2858 -2857 166 0
2858 2857 -166 0
-2859 2858 168 0
-2859 -2858 -168 0
2859 -2858 168 0
2859 2858 -168 0
-2860 2859 170 0
-2860 -2859 -170 0
2860 -2859 170 0
2860 2859 -170 0
-2861 2860 171 0
-2861 -2860 -171 0
2861 -2860 171 0
2861 2860 -171 0
-2862 2861 173 0
-2862 -2861 -173 0
2862 -2861 173 0
2862 2861 -173 0
-2863 2862 174 0
-2863 -2862 -174 0
2863 -2862 174 0
2863 2862 -174 0
-2864 2863 175 0
-2864 -2863 -175 0
2864 -2863 175 0
2864 2863 -175 0
-2865 2864 176 0
-2865 -2864 -176 0
2865 -2864 176 0
2865 2864 -176 0
-2866 2865 178 0
-2866 -2865 -178 0
2866 -2865 178 0
2866 2865 -178 0
-2867 2866 179 0
-2867 -2866 -179 0
2867 -2866 179 0
2867 2866 -179 0
-2868 2867 181 0
-2868 -2867 -181 0
2868 -2867 181 0
2868 2867 -181 0
-2869 2868 183 0
-2869 -2868 -183 0
2869 -2868 183 0
2869 2868 -183 0
-2870 2869 184 0
-2870 -2869 -184 0
2870 -2869 184 0
2870 2869 -184 0
-2871 2870 186 0
-2871 -2870 -186 0
2871 -2870 186 0
2871 2870 -186 0
-2872 2871 188 0
-2872 -2871 -188 0
2872 -2871 188 0
2872 2871 -188 0
-2873 2872 189 0
-2873 -2872 -189 0
2873 -2872 189 0
2873 2872 -189 0
-2874 2873 191 0
-2874 -2873 -191 0
2874 -2873 191 0
2874 2873 -191 0
-2875 2874 192 0
-2875 -2874 -192 0
2875 -2874 192 0
2875 2874 -192 0
-2876 2875 193 0
-2876 -2875 -193 0
2876 -2875 193 0
2876 2875 -193 0
-2877 2876 194 0
-2877 -2876 -194 0
2877 -2876 194 0
2877 2876 -194 0
-2878 2877 196 0
-2878 -2877 -196 0
2878 -2877 196 0
2878 2877 -196 0
-2879 2878 197 0
-2879 -2878 -197 0
2879 -2878 197 0
2879 2878 -197 0
-2880 2879 199 0
-2880 -2879 -199 0
2880 -2879 199 0
2880 2879 -199 0
-2881 2880 201 0
-2881 -2880 -201 0
2881 -2880 201 0
2881 2880 -201 0
-2882 2881 202 0
-2882 -2881 -202 0
2882 -2881 202 0
2882 2881 -202 0
-2883 2882 204 0
-2883 -2882 -204 0
2883 -2882 204 0
2883 2882 -204 0
-2884 2883 206 0
-2884 -2883 -206 0
2884 -2883 206 0
2884 2883 -206 0
-2885 2884 207 0
-2885 -2884 -207 0
2885 -2884 207 0
2885 2884 -207 0
-2886 2885 209 0
-2886 -2885 -209 0
2886 -2885 209 0
2886 2885 -209 0
-2887 2886 210 0
-2887 -2886 -210 0
2887 -2886 210 0
2887 2886 -210 0
-2888 2887 211 0
-2888 -2887 -211 0
2888 -2887 211 0
2888 2887 -211 0
-2889 2888 212 0
-2889 -2888 -212 0
2889 -2888 212 0
2889 2888 -212 0
-2890 2889 214 0
-2890 -2889 -214 0
2890 -2889 214 0
2890 2889 -214 0
-2891 2890 215 0
-2891 -2890 -215 0
2891 -2890 215 0
2891 2890 -215 0
-2891 0
-2892 62 65 0
-2892 -62 -65 0
2892 -62 65 0
2892 62 -65 0
-2893 2892 69 0
-2893 -2892 -69 0
2893 -2892 69 0
2893 2892 -69 0
-2894 2893 72 0
-2894 -2893 -72 0
2894 -2893 72 0
2894 2893 -72 0
-2895 2894 80 0
-2895 -2894 -80 0
2895 -2894 80 0
2895 2894 -80 0
-2896 2895 83 0
-2896 -2895 -83 0
2896 -2895 83 0
2896 2895 -83 0
-2897 2896 87 0
-2897 -2896 -87 0
2897 -2896 87 0
2897 2896 -87 0
-2898 2897 90 0
-2898 -2897 -90 0
2898 -2897 90 0
2898 2897 -90 0
-2899 2898 98 0
-2899 -2898 -98 0
2899 -2898 98 0
2899 2898 -98 0
-2900 2899 101 0
-2900 -2899 -101 0
2900 -2899 101 0
2900 2899 -101 0
-2901 2900 105 0
-2901 -2900 -105 0
2901 -2900 105 0
2901 2900 -105 0
-2902 2901 108 0
-2902 -2901 -108 0
2902 -2901 108 0
2902 2901 -108 0
-2903 2902 164 0
-2903 -2902 -164 0
2903 -2902 164 0
2903 2902 -164 0
-2904 2903 165 0
-2904 -2903 -165 0
2904 -2903 165 0
2904 2903 -165 0
-2905 2904 167 0
-2905 -2904 -167 0
2905 -2904 167 0
2905 2904 -167 0
-2906 2905 168 0
-2906 -2905 -168 0
2906 -2905 168 0
2906 2905 -168 0
-2907 2906 169 0
-2907 -2906 -169 0
2907 -2906 169 0
2907 2906 -169 0
-2908 2907 170 0
-2908 -2907 -170 0
2908 -2907 170 0
2908 2907 -170 0
-2909 2908 172 0
-2909 -2908 -172 0
2909 -2908 172 0
2909 2908 -172 0
-2910 2909 173 0
-2910 -2909 -173 0
2910 -2909 173 0
2910 2909 -173 0
-2911 2910 175 0
-2911 -2910 -175 0
2911 -2910 175 0
2911 2910 -175 0
-2912 2911 177 0
-2912 -2911 -177 0
2912 -2911 177 0
2912 2911 -177 0
-2913 2912 178 0
-2913 -2912 -178 0
2913 -2912 178 0
2913 2912 -178 0
-2914 2913 180 0
-2914 -2913 -180 0
2914 -2913 180 0
2914 2913 -180 0
-2915 2914 182 0
-2915 -2914 -182 0
2915 -2914 182 0
2915 2914 -182 0
-2916 2915 183 0
-2916 -2915 -183 0
2916 -2915 183 0
2916 2915 -183 0
-2917 2916 185 0
-2917 -2916 -185 0
2917 -2916 185 0
2917 2916 -185 0
-2918 2917 186 0
-2918 -2917 -186 0
2918 -2917 186 0
2918 2917 -186 0
-2919 2918 187 0
-2919 -2918 -187 0
2919 -2918 187 0
2919 2918 -187 0
-2920 2919 188 0
-2920 -2919 -188 0
2920 -2919 188 0
2920 2919 -188 0
-2921 2920 190 0
-2921 -2920 -190 0
2921 -2920 190 0
2921 2920 -190 0
-2922 2921 191 0
-2922 -2921 -191 0
2922 -2921 191 0
2922 2921 -191 0
-2923 2922 193 0
-2923 -2922 -193 0
2923 -2922 193 0
2923 2922 -193 0
-2924 2923 195 0
-2924 -2923 -195 0
2924 -2923 195 0
2924 2923 -195 0
-2925 2924 196 0
-2925 -2924 -196 0
2925 -2924 196 0
2925 2924 -196 0
-2926 2925 198 0
-2926 -2925 -198 0
2926 -2925 198 0
2926 2925 -198 0
-2927 2926 200 0
-2927 -2926 -200 0
2927 -2926 200 0
2927 2926 -200 0
-2928 2927 201 0
-2928 -2927 -201 0
2928 -2927 201 0
2928 2927 -201 0
-2929 2928 203 0
-2929 -2928 -203 0
2929 -2928 203 0
2929 2928 -203 0
-2930 2929 204 0
-2930 -2929 -204 0
2930 -2929 204 0
2930 2929 -204 0
-2931 2930 205 0
-2931 -2930 -205 0
2931 -2930 205 0
2931 2930 -205 0
-2932 2931 206 0
-2932 -2931 -206 0
2932 -2931 206 0
2932 2931 -206 0
-2933 2932 208 0
-2933 -2932 -208 0
2933 -2932 208 0
2933 2932 -208 0
-2934 2933 209 0
-2934 -2933 -209 0
2934 -2933 209 0
2934 2933 -209 0
-2935 2934 211 0
-2935 -2934 -211 0
2935 -2934 211 0
2935 2934 -211 0
-2936 2935 213 0
-2936 -2935 -213 0
2936 -2935 213 0
2936 2935 -213 0
-2937 2936 214 0
-2937 -2936 -214 0
2937 -2936 214 0
2937 2936 -214 0
-2938 2937 216 0
-2938 -2937 -216 0
2938 -2937 216 0
2938 2937 -216 0
-2938 0
-2939 1 48 0
-2939 -1 -48 0
2939 -1 48 0
2939 1 -48 0
-2940 2939 53 0
-2940 -2939 -53 0
2940 -2939 53 0
2940 2939 -53 0
-2941 2940 58 0
-2941 -2940 -58 0
2941 -2940 58 0
2941 2940 -58 0
-2942 2941 59 0
-2942 -2941 -59 0
2942 -2941 59 0
2942 2941 -59 0
-2943 2942 64 0
-2943 -2942 -64 0
2943 -2942 64 0
2943 2942 -64 0
-2944 2943 65 0
-2944 -2943 -65 0
2944 -2943 65 0
2944 2943 -65 0
-2945 2944 67 0
-2945 -2944 -67 0
2945 -2944 67 0
2945 2944 -67 0
-2946 2945 69 0
-2946 -2945 -69 0
2946 -2945 69 0
2946 2945 -69 0
-2947 2946 71 0
-2947 -2946 -71 0
2947 -2946 71 0
2947 2946 -71 0
-2948 2947 73 0
-2948 -2947 -73 0
2948 -2947 73 0
2948 2947 -73 0
-2949 2948 74 0
-2949 -2948 -74 0
2949 -2948 74 0
2949 2948 -74 0
-2950 2949 77 0
-2950 -2949 -77 0
2950 -2949 77 0
2950 2949 -77 0
-2951 2950 78 0
-2951 -2950 -78 0
2951 -2950 78 0
2951 2950 -78 0
-2952 2951 80 0
-2952 -2951 -80 0
2952 -2951 80 0
2952 2951 -80 0
-2953 2952 81 0
-2953 -2952 -81 0
2953 -2952 81 0
2953 2952 -81 0
-2954 2953 83 0
-2954 -2953 -83 0
2954 -2953 83 0
2954 2953 -83 0
-2955 2954 85 0
-2955 -2954 -85 0
2955 -2954 85 0
2955 2954 -85 0
-2956 2955 88 0
-2956 -2955 -88 0
2956 -2955 88 0
2956 2955 -88 0
-2957 2956 90 0
-2957 -2956 -90 0
2957 -2956 90 0
2957 2956 -90 0
-2958 2957 92 0
-2958 -2957 -92 0
2958 -2957 92 0
2958 2957 -92 0
-2959 2958 93 0
-2959 -2958 -93 0
2959 -2958 93 0
2959 2958 -93 0
-2960 2959 95 0
-2960 -2959 -95 0
2960 -2959 95 0
2960 2959 -95 0
-2961 2960 97 0
-2961 -2960 -97 0
2961 -2960 97 0
2961 2960 -97 0
-2962 2961 98 0
-2962 -2961 -98 0
2962 -2961 98 0
2962 2961 -98 0
-2963 2962 101 0
-2963 -2962 -101 0
2963 -2962 101 0
2963 2962 -101 0
-2964 2963 102 0
-2964 -2963 -102 0
2964 -2963 102 0
2964 2963 -102 0
-2965 2964 105 0
-2965 -2964 -105 0
2965 -2964 105 0
2965 2964 -105 0
-2966 2965 106 0
-2966 -2965 -106 0
2966 -2965 106 0
2966 2965 -106 0
-2967 2966 108 0
-2967 -2966 -108 0
2967 -2966 108 0
2967 2966 -108 0
-2967 0
-2968 2 46 0
-2968 -2 -46 0
2968 -2 46 0
2968 2 -46 0
-2969 2968 54 0
-2969 -2968 -54 0
2969 -2968 54 0
2969 2968 -54 0
-2970 2969 58 0
-2970 -2969 -58 0
2970 -2969 58 0
2970 2969 -58 0
-2971 2970 60 0
-2971 -2970 -60 0
2971 -2970 60 0
2971 2970 -60 0
-2972 2971 62 0
-2972 -2971 -62 0
2972 -2971 62 0
2972 2971 -62 0
-2973 2972 63 0
-2973 -2972 -63 0
2973 -2972 63 0
2973 2972 -63 0
-2974 2973 64 0
-2974 -2973 -64 0
2974 -2973 64 0
2974 2973 -64 0
-2975 2974 65 0
-2975 -2974 -65 0
2975 -2974 65 0
2975 2974 -65 0
-2976 2975 68 0
-2976 -2975 -68 0
2976 -2975 68 0
2976 2975 -68 0
-2977 2976 71 0
-2977 -2976 -71 0
2977 -2976 71 0
2977 2976 -71 0
-2978 2977 72 0
-2978 -2977 -72 0
2978 -2977 72 0
2978 2977 -72 0
-2979 2978 73 0
-2979 -2978 -73 0
2979 -2978 73 0
2979 2978 -73 0
-2980 2979 75 0
-2980 -2979 -75 0
2980 -2979 75 0
2980 2979 -75 0
-2981 2980 76 0
-2981 -2980 -76 0
2981 -2980 76 0
2981 2980 -76 0
-2982 2981 78 0
-2982 -2981 -78 0
2982 -2981 78 0
2982 2981 -78 0
-2983 2982 83 0
-2983 -2982 -83 0
2983 -2982 83 0
2983 2982 -83 0
-2984 2983 89 0
-2984 -2983 -89 0
2984 -2983 89 0
2984 2983 -89 0
-2985 2984 91 0
-2985 -2984 -91 0
2985 -2984 91 0
2985 2984 -91 0
-2986 2985 93 0
-2986 -2985 -93 0
2986 -2985 93 0
2986 2985 -93 0
-2987 2986 94 0
-2987 -2986 -94 0
2987 -2986 94 0
2987 2986 -94 0
-2988 2987 95 0
-2988 -2987 -95 0
2988 -2987 95 0
2988 2987 -95 0
-2989 2988 96 0
-2989 -2988 -96 0
2989 -2988 96 0
2989 2988 -96 0
-2990 2989 98 0
-2990 -2989 -98 0
2990 -2989 98 0
2990 2989 -98 0
-2991 2990 101 0
-2991 -2990 -101 0
2991 -2990 101 0
2991 2990 -101 0
-2992 2991 103 0
-2992 -2991 -103 0
2992 -2991 103 0
2992 2991 -103 0
-2993 2992 104 0
-2993 -2992 -104 0
2993 -2992 104 0
2993 2992 -104 0
-2994 2993 107 0
-2994 -2993 -107 0
2994 -2993 107 0
2994 2993 -107 0
-2994 0
-2995 3 47 0
-2995 -3 -47 0
2995 -3 47 0
2995 3 -47 0
-2996 2995 52 0
-2996 -2995 -52 0
2996 -2995 52 0
2996 2995 -52 0
-2997 2996 67 0
-2997 -2996 -67 0
2997 -2996 67 0
2997 2996 -67 0
-2998 2997 68 0
-2998 -2997 -68 0
2998 -2997 68 0
2998 2997 -68 0
-2999 2998 69 0
-2999 -2998 -69 0
2999 -2998 69 0
2999 2998 -69 0
-3000 2999 70 0
-3000 -2999 -70 0
3000 -2999 70 0
3000 2999 -70 0
-3001 3000 72 0
-3001 -3000 -72 0
3001 -3000 72 0
3001 3000 -72 0
-3002 3001 76 0
-3002 -3001 -76 0
3002 -3001 76 0
3002 3001 -76 0
-3003 3002 77 0
-3003 -3002 -77 0
3003 -3002 77 0
3003 3002 -77 0
-3004 3003 80 0
-3004 -3003 -80 0
3004 -3003 80 0
3004 3003 -80 0
-3005 3004 81 0
-3005 -3004 -81 0
3005 -3004 81 0
3005 3004 -81 0
-3006 3005 82 0
-3006 -3005 -82 0
3006 -3005 82 0
3006 3005 -82 0
-3007 3006 88 0
-3007 -3006 -88 0
3007 -3006 88 0
3007 3006 -88 0
-3008 3007 89 0
-3008 -3007 -89 0
3008 -3007 89 0
3008 3007 -89 0
-3009 3008 90 0
-3009 -3008 -90 0
3009 -3008 90 0
3009 3008 -90 0
-3010 3009 91 0
-3010 -3009 -91 0
3010 -3009 91 0
3010 3009 -91 0
-3011 3010 92 0
-3011 -3010 -92 0
3011 -3010 92 0
3011 3010 -92 0
-3012 3011 96 0
-3012 -3011 -96 0
3012 -3011 96 0
3012 3011 -96 0
-3013 3012 97 0
-3013 -3012 -97 0
3013 -3012 97 0
3013 3012 -97 0
-3014 3013 101 0
-3014 -3013 -101 0
3014 -3013 101 0
3014 3013 -101 0
-3015 3014 103 0
-3015 -3014 -103 0
3015 -3014 103 0
3015 3014 -103 0
-3016 3015 104 0
-3016 -3015 -104 0
3016 -3015 104 0
3016 3015 -104 0
-3017 3016 105 0
-3017 -3016 -105 0
3017 -3016 105 0
3017 3016 -105 0
-3018 3017 107 0
-3018 -3017 -107 0
3018 -3017 107 0
3018 3017 -107 0
-3019 3018 108 0
-3019 -3018 -108 0
3019 -3018 108 0
3019 3018 -108 0
-3019 0
-3020 4 48 0
-3020 -4 -48 0
3020 -4 48 0
3020 4 -48 0
-3021 3020 53 0
-3021 -3020 -53 0
3021 -3020 53 0
3021 3020 -53 0
-3022 3021 67 0
-3022 -3021 -67 0
3022 -3021 67 0
3022 3021 -67 0
-3023 3022 68 0
-3023 -3022 -68 0
3023 -3022 68 0
3023 3022 -68 0
-3024 3023 69 0
-3024 -3023 -69 0
3024 -3023 69 0
3024 3023 -69 0
-3025 3024 70 0
-3025 -3024 -70 0
3025 -3024 70 0
3025 3024 -70 0
-3026 3025 71 0
-3026 -3025 -71 0
3026 -3025 71 0
3026 3025 -71 0
-3027 3026 77 0
-3027 -3026 -77 0
3027 -3026 77 0
3027 3026 -77 0
-3028 3027 78 0
-3028 -3027 -78 0
3028 -3027 78 0
3028 3027 -78 0
-3029 3028 81 0
-3029 -3028 -81 0
3029 -3028 81 0
3029 3028 -81 0
-3030 3029 82 0
-3030 -3029 -82 0
3030 -3029 82 0
3030 3029 -82 0
-3031 3030 83 0
-3031 -3030 -83 0
3031 -3030 83 0
3031 3030 -83 0
-3032 3031 85 0
-3032 -3031 -85 0
3032 -3031 85 0
3032 3031 -85 0
-3033 3032 89 0
-3033 -3032 -89 0
3033 -3032 89 0
3033 3032 -89 0
-3034 3033 90 0
-3034 -3033 -90 0
3034 -3033 90 0
3034 3033 -90 0
-3035 3034 91 0
-3035 -3034 -91 0
3035 -3034 91 0
3035 3034 -91 0
-3036 3035 92 0
-3036 -3035 -92 0
3036 -3035 92 0
3036 3035 -92 0
-3037 3036 93 0
-3037 -3036 -93 0
3037 -3036 93 0
3037 3036 -93 0
-3038 3037 98 0
-3038 -3037 -98 0
3038 -3037 98 0
3038 3037 -98 0
-3039 3038 102 0
-3039 -3038 -102 0
3039 -3038 102 0
3039 3038 -102 0
-3040 3039 103 0
-3040 -3039 -103 0
3040 -3039 103 0
3040 3039 -103 0
-3041 3040 104 0
-3041 -3040 -104 0
3041 -3040 104 0
3041 3040 -104 0
-3042 3041 105 0
-3042 -3041 -105 0
3042 -3041 105 0
3042 3041 -105 0
-3043 3042 106 0
-3043 -3042 -106 0
3043 -3042 106 0
3043 3042 -106 0
-3044 3043 108 0
-3044 -3043 -108 0
3044 -3043 108 0
3044 3043 -108 0
-3044 0
-3045 5 46 0
-3045 -5 -46 0
3045 -5 46 0
3045 5 -46 0
-3046 3045 54 0
-3046 -3045 -54 0
3046 -3045 54 0
3046 3045 -54 0
-3047 3046 58 0
-3047 -3046 -58 0
3047 -3046 58 0
3047 3046 -58 0
-3048 3047 59 0
-3048 -3047 -59 0
3048 -3047 59 0
3048 3047 -59 0
-3049 3048 62 0
-3049 -3048 -62 0
3049 -3048 62 0
3049 3048 -62 0
-3050 3049 63 0
-3050 -3049 -63 0
3050 -3049 63 0
3050 3049 -63 0
-3051 3050 64 0
-3051 -3050 -64 0
3051 -3050 64 0
3051 3050 -64 0
-3052 3051 66 0
-3052 -3051 -66 0
3052 -3051 66 0
3052 3051 -66 0
-3053 3052 68 0
-3053 -3052 -68 0
3053 -3052 68 0
3053 3052 -68 0
-3054 3053 69 0
-3054 -3053 -69 0
3054 -3053 69 0
3054 3053 -69 0
-3055 3054 72 0
-3055 -3054 -72 0
3055 -3054 72 0
3055 3054 -72 0
-3056 3055 73 0
-3056 -3055 -73 0
3056 -3055 73 0
3056 3055 -73 0
-3057 3056 74 0
-3057 -3056 -74 0
3057 -3056 74 0
3057 3056 -74 0
-3058 3057 76 0
-3058 -3057 -76 0
3058 -3057 76 0
3058 3057 -76 0
-3059 3058 78 0
-3059 -3058 -78 0
3059 -3058 78 0
3059 3058 -78 0
-3060 3059 81 0
-3060 -3059 -81 0
3060 -3059 81 0
3060 3059 -81 0
-3061 3060 90 0
-3061 -3060 -90 0
3061 -3060 90 0
3061 3060 -90 0
-3062 3061 91 0
-3062 -3061 -91 0
3062 -3061 91 0
3062 3061 -91 0
-3063 3062 92 0
-3063 -3062 -92 0
3063 -3062 92 0
3063 3062 -92 0
-3064 3063 93 0
-3064 -3063 -93 0
3064 -3063 93 0
3064 3063 -93 0
-3065 3064 94 0
-3065 -3064 -94 0
3065 -3064 94 0
3065 3064 -94 0
-3066 3065 95 0
-3066 -3065 -95 0
3066 -3065 95 0
3066 3065 -95 0
-3067 3066 101 0
-3067 -3066 -101 0
3067 -3066 101 0
3067 3066 -101 0
-3068 3067 102 0
-3068 -3067 -102 0
3068 -3067 102 0
3068 3067 -102 0
-3069 3068 103 0
-3069 -3068 -103 0
3069 -3068 103 0
3069 3068 -103 0
-3070 3069 105 0
-3070 -3069 -105 0
3070 -3069 105 0
3070 3069 -105 0
-3071 3070 107 0
-3071 -3070 -107 0
3071 -3070 107 0
3071 3070 -107 0
-3071 0
-3072 6 47 0
-3072 -6 -47 0
3072 -6 47 0
3072 6 -47 0
-3073 3072 52 0
-3073 -3072 -52 0
3073 -3072 52 0
3073 3072 -52 0
-3074 3073 58 0
-3074 -3073 -58 0
3074 -3073 58 0
3074 3073 -58 0
-3075 3074 60 0
-3075 -3074 -60 0
3075 -3074 60 0
3075 3074 -60 0
-3076 3075 64 0
-3076 -3075 -64 0
3076 -3075 64 0
3076 3075 -64 0
-3077 3076 66 0
-3077 -3076 -66 0
3077 -3076 66 0
3077 3076 -66 0
-3078 3077 67 0
-3078 -3077 -67 0
3078 -3077 67 0
3078 3077 -67 0
-3079 3078 71 0
-3079 -3078 -71 0
3079 -3078 71 0
3079 3078 -71 0
-3080 3079 72 0
-3080 -3079 -72 0
3080 -3079 72 0
3080 3079 -72 0
-3081 3080 73 0
-3081 -3080 -73 0
3081 -3080 73 0
3081 3080 -73 0
-3082 3081 75 0
-3082 -3081 -75 0
3082 -3081 75 0
3082 3081 -75 0
-3083 3082 76 0
-3083 -3082 -76 0
3083 -3082 76 0
3083 3082 -76 0
-3084 3083 77 0
-3084 -3083 -77 0
3084 -3083 77 0
3084 3083 -77 0
-3085 3084 79 0
-3085 -3084 -79 0
3085 -3084 79 0
3085 3084 -79 0
-3086 3085 80 0
-3086 -3085 -80 0
3086 -3085 80 0
3086 3085 -80 0
-3087 3086 81 0
-3087 -3086 -81 0
3087 -3086 81 0
3087 3086 -81 0
-3088 3087 82 0
-3088 -3087 -82 0
3088 -3087 82 0
3088 3087 -82 0
-3089 3088 84 0
-3089 -3088 -84 0
3089 -3088 84 0
3089 3088 -84 0
-3090 3089 85 0
-3090 -3089 -85 0
3090 -3089 85 0
3090 3089 -85 0
-3091 3090 86 0
-3091 -3090 -86 0
3091 -3090 86 0
3091 3090 -86 0
-3092 3091 87 0
-3092 -3091 -87 0
3092 -3091 87 0
3092 3091 -87 0
-3093 3092 88 0
-3093 -3092 -88 0
3093 -3092 88 0
3093 3092 -88 0
-3094 3093 90 0
-3094 -3093 -90 0
3094 -3093 90 0
3094 3093 -90 0
-3095 3094 91 0
-3095 -3094 -91 0
3095 -3094 91 0
3095 3094 -91 0
-3096 3095 92 0
-3096 -3095 -92 0
3096 -3095 92 0
3096 3095 -92 0
-3097 3096 93 0
-3097 -3096 -93 0
3097 -3096 93 0
3097 3096 -93 0
-3098 3097 94 0
-3098 -3097 -94 0
3098 -3097 94 0
3098 3097 -94 0
-3099 3098 96 0
-3099 -3098 -96 0
3099 -3098 96 0
3099 3098 -96 0
-3100 3099 97 0
-3100 -3099 -97 0
3100 -3099 97 0
3100 3099 -97 0
-3101 3100 99 0
-3101 -3100 -99 0
3101 -3100 99 0
3101 3100 -99 0
-3102 3101 100 0
-3102 -3101 -100 0
3102 -3101 100 0
3102 3101 -100 0
-3103 3102 101 0
-3103 -3102 -101 0
3103 -3102 101 0
3103 3102 -101 0
-3104 3103 103 0
-3104 -3103 -103 0
3104 -3103 103 0
3104 3103 -103 0
-3105 3104 105 0
-3105 -3104 -105 0
3105 -3104 105 0
3105 3104 -105 0
-3106 3105 106 0
-3106 -3105 -106 0
3106 -3105 106 0
3106 3105 -106 0
-3106 0
-3107 7 46 0
-3107 -7 -46 0
3107 -7 46 0
3107 7 -46 0
-3108 3107 59 0
-3108 -3107 -59 0
3108 -3107 59 0
3108 3107 -59 0
-3109 3108 62 0
-3109 -3108 -62 0
3109 -3108 62 0
3109 3108 -62 0
-3110 3109 65 0
-3110 -3109 -65 0
3110 -3109 65 0
3110 3109 -65 0
-3111 3110 67 0
-3111 -3110 -67 0
3111 -3110 67 0
3111 3110 -67 0
-3112 3111 69 0
-3112 -3111 -69 0
3112 -3111 69 0
3112 3111 -69 0
-3113 3112 72 0
-3113 -3112 -72 0
3113 -3112 72 0
3113 3112 -72 0
-3114 3113 74 0
-3114 -3113 -74 0
3114 -3113 74 0
3114 3113 -74 0
-3115 3114 76 0
-3115 -3114 -76 0
3115 -3114 76 0
3115 3114 -76 0
-3116 3115 77 0
-3116 -3115 -77 0
3116 -3115 77 0
3116 3115 -77 0
-3117 3116 79 0
-3117 -3116 -79 0
3117 -3116 79 0
3117 3116 -79 0
-3118 3117 80 0
-3118 -3117 -80 0
3118 -3117 80 0
3118 3117 -80 0
-3119 3118 83 0
-3119 -3118 -83 0
3119 -3118 83 0
3119 3118 -83 0
-3120 3119 85 0
-3120 -3119 -85 0
3120 -3119 85 0
3120 3119 -85 0
-3121 3120 87 0
-3121 -3120 -87 0
3121 -3120 87 0
3121 3120 -87 0
-3122 3121 88 0
-3122 -3121 -88 0
3122 -3121 88 0
3122 3121 -88 0
-3123 3122 90 0
-3123 -3122 -90 0
3123 -3122 90 0
3123 3122 -90 0
-3124 3123 92 0
-3124 -3123 -92 0
3124 -3123 92 0
3124 3123 -92 0
-3125 3124 95 0
-3125 -3124 -95 0
3125 -3124 95 0
3125 3124 -95 0
-3126 3125 98 0
-3126 -3125 -98 0
3126 -3125 98 0
3126 3125 -98 0
-3127 3126 103 0
-3127 -3126 -103 0
3127 -3126 103 0
3127 3126 -103 0
-3128 3127 105 0
-3128 -3127 -105 0
3128 -3127 105 0
3128 3127 -105 0
-3129 3128 106 0
-3129 -3128 -106 0
3129 -3128 106 0
3129 3128 -106 0
-3130 3129 107 0
-3130 -3129 -107 0
3130 -3129 107 0
3130 3129 -107 0
-3131 3130 108 0
-3131 -3130 -108 0
3131 -3130 108 0
3131 3130 -108 0
-3131 0
-3132 8 47 0
-3132 -8 -47 0
3132 -8 47 0
3132 8 -47 0
-3133 3132 60 0
-3133 -3132 -60 0
3133 -3132 60 0
3133 3132 -60 0
-3134 3133 63 0
-3134 -3133 -63 0
3134 -3133 63 0
3134 3133 -63 0
-3135 3134 66 0
-3135 -3134 -66 0
3135 -3134 66 0
3135 3134 -66 0
-3136 3135 67 0
-3136 -3135 -67 0
3136 -3135 67 0
3136 3135 -67 0
-3137 3136 68 0
-3137 -3136 -68 0
3137 -3136 68 0
3137 3136 -68 0
-3138 3137 70 0
-3138 -3137 -70 0
3138 -3137 70 0
3138 3137 -70 0
-3139 3138 75 0
-3139 -3138 -75 0
3139 -3138 75 0
3139 3138 -75 0
-3140 3139 77 0
-3140 -3139 -77 0
3140 -3139 77 0
3140 3139 -77 0
-3141 3140 78 0
-3141 -3140 -78 0
3141 -3140 78 0
3141 3140 -78 0
-3142 3141 80 0
-3142 -3141 -80 0
3142 -3141 80 0
3142 3141 -80 0
-3143 3142 81 0
-3143 -3142 -81 0
3143 -3142 81 0
3143 3142 -81 0
-3144 3143 84 0
-3144 -3143 -84 0
3144 -3143 84 0
3144 3143 -84 0
-3145 3144 85 0
-3145 -3144 -85 0
3145 -3144 85 0
3145 3144 -85 0
-3146 3145 86 0
-3146 -3145 -86 0
3146 -3145 86 0
3146 3145 -86 0
-3147 3146 88 0
-3147 -3146 -88 0
3147 -3146 88 0
3147 3146 -88 0
-3148 3147 89 0
-3148 -3147 -89 0
3148 -3147 89 0
3148 3147 -89 0
-3149 3148 93 0
-3149 -3148 -93 0
3149 -3148 93 0
3149 3148 -93 0
-3150 3149 96 0
-3150 -3149 -96 0
3150 -3149 96 0
3150 3149 -96 0
-3151 3150 99 0
-3151 -3150 -99 0
3151 -3150 99 0
3151 3150 -99 0
-3152 3151 103 0
-3152 -3151 -103 0
3152 -3151 103 0
3152 3151 -103 0
-3153 3152 104 0
-3153 -3152 -104 0
3153 -3152 104 0
3153 3152 -104 0
-3154 3153 106 0
-3154 -3153 -106 0
3154 -3153 106 0
3154 3153 -106 0
-3155 3154 107 0
-3155 -3154 -107 0
3155 -3154 107 0
3155 3154 -107 0
-3156 3155 108 0
-3156 -3155 -108 0
3156 -3155 108 0
3156 3155 -108 0
-3156 0
-3157 9 48 0
-3157 -9 -48 0
3157 -9 48 0
3157 9 -48 0
-3158 3157 58 0
-3158 -3157 -58 0
3158 -3157 58 0
3158 3157 -58 0
-3159 3158 72 0
-3159 -3158 -72 0
3159 -3158 72 0
3159 3158 -72 0
-3160 3159 78 0
-3160 -3159 -78 0
3160 -3159 78 0
3160 3159 -78 0
-3161 3160 81 0
-3161 -3160 -81 0
3161 -3160 81 0
3161 3160 -81 0
-3162 3161 97 0
-3162 -3161 -97 0
3162 -3161 97 0
3162 3161 -97 0
-3163 3162 103 0
-3163 -3162 -103 0
3163 -3162 103 0
3163 3162 -103 0
-3163 0
-3164 10 46 0
-3164 -10 -46 0
3164 -10 46 0
3164 10 -46 0
-3165 3164 58 0
-3165 -3164 -58 0
3165 -3164 58 0
3165 3164 -58 0
-3166 3165 62 0
-3166 -3165 -62 0
3166 -3165 62 0
3166 3165 -62 0
-3167 3166 63 0
-3167 -3166 -63 0
3167 -3166 63 0
3167 3166 -63 0
-3168 3167 64 0
-3168 -3167 -64 0
3168 -3167 64 0
3168 3167 -64 0
-3169 3168 66 0
-3169 -3168 -66 0
3169 -3168 66 0
3169 3168 -66 0
-3170 3169 67 0
-3170 -3169 -67 0
3170 -3169 67 0
3170 3169 -67 0
-3171 3170 70 0
-3171 -3170 -70 0
3171 -3170 70 0
3171 3170 -70 0
-3172 3171 71 0
-3172 -3171 -71 0
3172 -3171 71 0
3172 3171 -71 0
-3173 3172 73 0
-3173 -3172 -73 0
3173 -3172 73 0
3173 3172 -73 0
-3174 3173 74 0
-3174 -3173 -74 0
3174 -3173 74 0
3174 3173 -74 0
-3175 3174 76 0
-3175 -3174 -76 0
3175 -3174 76 0
3175 3174 -76 0
-3176 3175 81 0
-3176 -3175 -81 0
3176 -3175 81 0
3176 3175 -81 0
-3177 3176 83 0
-3177 -3176 -83 0
3177 -3176 83 0
3177 3176 -83 0
-3178 3177 84 0
-3178 -3177 -84 0
3178 -3177 84 0
3178 3177 -84 0
-3179 3178 85 0
-3179 -3178 -85 0
3179 -3178 85 0
3179 3178 -85 0
-3180 3179 86 0
-3180 -3179 -86 0
3180 -3179 86 0
3180 3179 -86 0
-3181 3180 91 0
-3181 -3180 -91 0
3181 -3180 91 0
3181 3180 -91 0
-3182 3181 95 0
-3182 -3181 -95 0
3182 -3181 95 0
3182 3181 -95 0
-3183 3182 97 0
-3183 -3182 -97 0
3183 -3182 97 0
3183 3182 -97 0
-3184 3183 98 0
-3184 -3183 -98 0
3184 -3183 98 0
3184 3183 -98 0
-3185 3184 99 0
-3185 -3184 -99 0
3185 -3184 99 0
3185 3184 -99 0
-3186 3185 101 0
-3186 -3185 -101 0
3186 -3185 101 0
3186 3185 -101 0
-3187 3186 102 0
-3187 -3186 -102 0
3187 -3186 102 0
3187 3186 -102 0
-3188 3187 106 0
-3188 -3187 -106 0
3188 -3187 106 0
3188 3187 -106 0
-3188 0
-3189 11 47 0
-3189 -11 -47 0
3189 -11 47 0
3189 11 -47 0
-3190 3189 59 0
-3190 -3189 -59 0
3190 -3189 59 0
3190 3189 -59 0
-3191 3190 62 0
-3191 -3190 -62 0
3191 -3190 62 0
3191 3190 -62 0
-3192 3191 66 0
-3192 -3191 -66 0
3192 -3191 66 0
3192 3191 -66 0
-3193 3192 67 0
-3193 -3192 -67 0
3193 -3192 67 0
3193 3192 -67 0
-3194 3193 69 0
-3194 -3193 -69 0
3194 -3193 69 0
3194 3193 -69 0
-3195 3194 70 0
-3195 -3194 -70 0
3195 -3194 70 0
3195 3194 -70 0
-3196 3195 74 0
-3196 -3195 -74 0
3196 -3195 74 0
3196 3195 -74 0
-3197 3196 75 0
-3197 -3196 -75 0
3197 -3196 75 0
3197 3196 -75 0
-3198 3197 77 0
-3198 -3197 -77 0
3198 -3197 77 0
3198 3197 -77 0
-3199 3198 80 0
-3199 -3198 -80 0
3199 -3198 80 0
3199 3198 -80 0
-3200 3199 81 0
-3200 -3199 -81 0
3200 -3199 81 0
3200 3199 -81 0
-3201 3200 83 0
-3201 -3200 -83 0
3201 -3200 83 0
3201 3200 -83 0
-3202 3201 85 0
-3202 -3201 -85 0
3202 -3201 85 0
3202 3201 -85 0
-3203 3202 88 0
-3203 -3202 -88 0
3203 -3202 88 0
3203 3202 -88 0
-3204 3203 89 0
-3204 -3203 -89 0
3204 -3203 89 0
3204 3203 -89 0
-3205 3204 90 0
-3205 -3204 -90 0
3205 -3204 90 0
3205 3204 -90 0
-3206 3205 92 0
-3206 -3205 -92 0
3206 -3205 92 0
3206 3205 -92 0
-3207 3206 96 0
-3207 -3206 -96 0
3207 -3206 96 0
3207 3206 -96 0
-3208 3207 101 0
-3208 -3207 -101 0
3208 -3207 101 0
3208 3207 -101 0
-3209 3208 103 0
-3209 -3208 -103 0
3209 -3208 103 0
3209 3208 -103 0
-3210 3209 104 0
-3210 -3209 -104 0
3210 -3209 104 0
3210 3209 -104 0
-3211 3210 105 0
-3211 -3210 -105 0
3211 -3210 105 0
3211 3210 -105 0
-3212 3211 106 0
-3212 -3211 -106 0
3212 -3211 106 0
3212 3211 -106 0
-3213 3212 108 0
-3213 -3212 -108 0
3213 -3212 108 0
3213 3212 -108 0
-3213 0
-3214 12 48 0
-3214 -12 -48 0
3214 -12 48 0
3214 12 -48 0
-3215 3214 60 0
-3215 -3214 -60 0
3215 -3214 60 0
3215 3214 -60 0
-3216 3215 62 0
-3216 -3215 -62 0
3216 -3215 62 0
3216 3215 -62 0
-3217 3216 64 0
-3217 -3216 -64 0
3217 -3216 64 0
3217 3216 -64 0
-3218 3217 65 0
-3218 -3217 -65 0
3218 -3217 65 0
3218 3217 -65 0
-3219 3218 66 0
-3219 -3218 -66 0
3219 -3218 66 0
3219 3218 -66 0
-3220 3219 67 0
-3220 -3219 -67 0
3220 -3219 67 0
3220 3219 -67 0
-3221 3220 69 0
-3221 -3220 -69 0
3221 -3220 69 0
3221 3220 -69 0
-3222 3221 72 0
-3222 -3221 -72 0
3222 -3221 72 0
3222 3221 -72 0
-3223 3222 75 0
-3223 -3222 -75 0
3223 -3222 75 0
3223 3222 -75 0
-3224 3223 76 0
-3224 -3223 -76 0
3224 -3223 76 0
3224 3223 -76 0
-3225 3224 78 0
-3225 -3224 -78 0
3225 -3224 78 0
3225 3224 -78 0
-3226 3225 79 0
-3226 -3225 -79 0
3226 -3225 79 0
3226 3225 -79 0
-3227 3226 80 0
-3227 -3226 -80 0
3227 -3226 80 0
3227 3226 -80 0
-3228 3227 83 0
-3228 -3227 -83 0
3228 -3227 83 0
3228 3227 -83 0
-3229 3228 87 0
-3229 -3228 -87 0
3229 -3228 87 0
3229 3228 -87 0
-3230 3229 88 0
-3230 -3229 -88 0
3230 -3229 88 0
3230 3229 -88 0
-3231 3230 91 0
-3231 -3230 -91 0
3231 -3230 91 0
3231 3230 -91 0
-3232 3231 93 0
-3232 -3231 -93 0
3232 -3231 93 0
3232 3231 -93 0
-3233 3232 97 0
-3233 -3232 -97 0
3233 -3232 97 0
3233 3232 -97 0
-3234 3233 98 0
-3234 -3233 -98 0
3234 -3233 98 0
3234 3233 -98 0
-3235 3234 99 0
-3235 -3234 -99 0
3235 -3234 99 0
3235 3234 -99 0
-3236 3235 100 0
-3236 -3235 -100 0
3236 -3235 100 0
3236 3235 -100 0
-3237 3236 101 0
-3237 -3236 -101 0
3237 -3236 101 0
3237 3236 -101 0
-3238 3237 108 0
-3238 -3237 -108 0
3238 -3237 108 0
3238 3237 -108 0
-3238 0
-3239 13 52 0
-3239 -13 -52 0
3239 -13 52 0
3239 13 -52 0
-3240 3239 59 0
-3240 -3239 -59 0
3240 -3239 59 0
3240 3239 -59 0
-3241 3240 62 0
-3241 -3240 -62 0
3241 -3240 62 0
3241 3240 -62 0
-3242 3241 76 0
-3242 -3241 -76 0
3242 -3241 76 0
3242 3241 -76 0
-3243 3242 82 0
-3243 -3242 -82 0
3243 -3242 82 0
3243 3242 -82 0
-3244 3243 85 0
-3244 -3243 -85 0
3244 -3243 85 0
3244 3243 -85 0
-3245 3244 107 0
-3245 -3244 -107 0
3245 -3244 107 0
3245 3244 -107 0
-3245 0
-3246 14 53 0
-3246 -14 -53 0
3246 -14 53 0
3246 14 -53 0
-3247 3246 60 0
-3247 -3246 -60 0
3247 -3246 60 0
3247 3246 -60 0
-3248 3247 63 0
-3248 -3247 -63 0
3248 -3247 63 0
3248 3247 -63 0
-3249 3248 77 0
-3249 -3248 -77 0
3249 -3248 77 0
3249 3248 -77 0
-3250 3249 83 0
-3250 -3249 -83 0
3250 -3249 83 0
3250 3249 -83 0
-3251 3250 86 0
-3251 -3250 -86 0
3251 -3250 86 0
3251 3250 -86 0
-3252 3251 108 0
-3252 -3251 -108 0
3252 -3251 108 0
3252 3251 -108 0
-3252 0
-3253 15 54 0
-3253 -15 -54 0
3253 -15 54 0
3253 15 -54 0
-3254 3253 58 0
-3254 -3253 -58 0
3254 -3253 58 0
3254 3253 -58 0
-3255 3254 62 0
-3255 -3254 -62 0
3255 -3254 62 0
3255 3254 -62 0
-3256 3255 63 0
-3256 -3255 -63 0
3256 -3255 63 0
3256 3255 -63 0
-3257 3256 64 0
-3257 -3256 -64 0
3257 -3256 64 0
3257 3256 -64 0
-3258 3257 65 0
-3258 -3257 -65 0
3258 -3257 65 0
3258 3257 -65 0
-3259 3258 66 0
-3259 -3258 -66 0
3259 -3258 66 0
3259 3258 -66 0
-3260 3259 67 0
-3260 -3259 -67 0
3260 -3259 67 0
3260 3259 -67 0
-3261 3260 70 0
-3261 -3260 -70 0
3261 -3260 70 0
3261 3260 -70 0
-3262 3261 73 0
-3262 -3261 -73 0
3262 -3261 73 0
3262 3261 -73 0
-3263 3262 76 0
-3263 -3262 -76 0
3263 -3262 76 0
3263 3262 -76 0
-3264 3263 78 0
-3264 -3263 -78 0
3264 -3263 78 0
3264 3263 -78 0
-3265 3264 80 0
-3265 -3264 -80 0
3265 -3264 80 0
3265 3264 -80 0
-3266 3265 81 0
-3266 -3265 -81 0
3266 -3265 81 0
3266 3265 -81 0
-3267 3266 83 0
-3267 -3266 -83 0
3267 -3266 83 0
3267 3266 -83 0
-3268 3267 85 0
-3268 -3267 -85 0
3268 -3267 85 0
3268 3267 -85 0
-3269 3268 87 0
-3269 -3268 -87 0
3269 -3268 87 0
3269 3268 -87 0
-3270 3269 88 0
-3270 -3269 -88 0
3270 -3269 88 0
3270 3269 -88 0
-3271 3270 91 0
-3271 -3270 -91 0
3271 -3270 91 0
3271 3270 -91 0
-3272 3271 94 0
-3272 -3271 -94 0
3272 -3271 94 0
3272 3271 -94 0
-3273 3272 98 0
-3273 -3272 -98 0
3273 -3272 98 0
3273 3272 -98 0
-3274 3273 99 0
-3274 -3273 -99 0
3274 -3273 99 0
3274 3273 -99 0
-3275 3274 101 0
-3275 -3274 -101 0
3275 -3274 101 0
3275 3274 -101 0
-3276 3275 102 0
-3276 -3275 -102 0
3276 -3275 102 0
3276 3275 -102 0
-3277 3276 106 0
-3277 -3276 -106 0
3277 -3276 106 0
3277 3276 -106 0
-3277 0
-3278 16 52 0
-3278 -16 -52 0
3278 -16 52 0
3278 16 -52 0
-3279 3278 58 0
-3279 -3278 -58 0
3279 -3278 58 0
3279 3278 -58 0
-3280 3279 64 0
-3280 -3279 -64 0
3280 -3279 64 0
3280 3279 -64 0
-3281 3280 68 0
-3281 -3280 -68 0
3281 -3280 68 0
3281 3280 -68 0
-3282 3281 69 0
-3282 -3281 -69 0
3282 -3281 69 0
3282 3281 -69 0
-3283 3282 70 0
-3283 -3282 -70 0
3283 -3282 70 0
3283 3282 -70 0
-3284 3283 72 0
-3284 -3283 -72 0
3284 -3283 72 0
3284 3283 -72 0
-3285 3284 73 0
-3285 -3284 -73 0
3285 -3284 73 0
3285 3284 -73 0
-3286 3285 76 0
-3286 -3285 -76 0
3286 -3285 76 0
3286 3285 -76 0
-3287 3286 77 0
-3287 -3286 -77 0
3287 -3286 77 0
3287 3286 -77 0
-3288 3287 79 0
-3288 -3287 -79 0
3288 -3287 79 0
3288 3287 -79 0
-3289 3288 80 0
-3289 -3288 -80 0
3289 -3288 80 0
3289 3288 -80 0
-3290 3289 82 0
-3290 -3289 -82 0
3290 -3289 82 0
3290 3289 -82 0
-3291 3290 87 0
-3291 -3290 -87 0
3291 -3290 87 0
3291 3290 -87 0
-3292 3291 89 0
-3292 -3291 -89 0
3292 -3291 89 0
3292 3291 -89 0
-3293 3292 90 0
-3293 -3292 -90 0
3293 -3292 90 0
3293 3292 -90 0
-3294 3293 91 0
-3294 -3293 -91 0
3294 -3293 91 0
3294 3293 -91 0
-3295 3294 92 0
-3295 -3294 -92 0
3295 -3294 92 0
3295 3294 -92 0
-3296 3295 97 0
-3296 -3295 -97 0
3296 -3295 97 0
3296 3295 -97 0
-3297 3296 101 0
-3297 -3296 -101 0
3297 -3296 101 0
3297 3296 -101 0
-3298 3297 103 0
-3298 -3297 -103 0
3298 -3297 103 0
3298 3297 -103 0
-3299 3298 104 0
-3299 -3298 -104 0
3299 -3298 104 0
3299 3298 -104 0
-3300 3299 105 0
-3300 -3299 -105 0
3300 -3299 105 0
3300 3299 -105 0
-3301 3300 107 0
-3301 -3300 -107 0
3301 -3300 107 0
3301 3300 -107 0
-3302 3301 108 0
-3302 -3301 -108 0
3302 -3301 108 0
3302 3301 -108 0
-3302 0
-3303 17 53 0
-3303 -17 -53 0
3303 -17 53 0
3303 17 -53 0
-3304 3303 59 0
-3304 -3303 -59 0
3304 -3303 59 0
3304 3303 -59 0
-3305 3304 65 0
-3305 -3304 -65 0
3305 -3304 65 0
3305 3304 -65 0
-3306 3305 67 0
-3306 -3305 -67 0
3306 -3305 67 0
3306 3305 -67 0
-3307 3306 69 0
-3307 -3306 -69 0
3307 -3306 69 0
3307 3306 -69 0
-3308 3307 70 0
-3308 -3307 -70 0
3308 -3307 70 0
3308 3307 -70 0
-3309 3308 71 0
-3309 -3308 -71 0
3309 -3308 71 0
3309 3308 -71 0
-3310 3309 74 0
-3310 -3309 -74 0
3310 -3309 74 0
3310 3309 -74 0
-3311 3310 77 0
-3311 -3310 -77 0
3311 -3310 77 0
3311 3310 -77 0
-3312 3311 78 0
-3312 -3311 -78 0
3312 -3311 78 0
3312 3311 -78 0
-3313 3312 80 0
-3313 -3312 -80 0
3313 -3312 80 0
3313 3312 -80 0
-3314 3313 81 0
-3314 -3313 -81 0
3314 -3313 81 0
3314 3313 -81 0
-3315 3314 83 0
-3315 -3314 -83 0
3315 -3314 83 0
3315 3314 -83 0
-3316 3315 85 0
-3316 -3315 -85 0
3316 -3315 85 0
3316 3315 -85 0
-3317 3316 88 0
-3317 -3316 -88 0
3317 -3316 88 0
3317 3316 -88 0
-3318 3317 90 0
-3318 -3317 -90 0
3318 -3317 90 0
3318 3317 -90 0
-3319 3318 92 0
-3319 -3318 -92 0
3319 -3318 92 0
3319 3318 -92 0
-3320 3319 93 0
-3320 -3319 -93 0
3320 -3319 93 0
3320 3319 -93 0
-3321 3320 98 0
-3321 -3320 -98 0
3321 -3320 98 0
3321 3320 -98 0
-3322 3321 102 0
-3322 -3321 -102 0
3322 -3321 102 0
3322 3321 -102 0
-3323 3322 103 0
-3323 -3322 -103 0
3323 -3322 103 0
3323 3322 -103 0
-3324 3323 104 0
-3324 -3323 -104 0
3324 -3323 104 0
3324 3323 -104 0
-3325 3324 105 0
-3325 -3324 -105 0
3325 -3324 105 0
3325 3324 -105 0
-3326 3325 106 0
-3326 -3325 -106 0
3326 -3325 106 0
3326 3325 -106 0
-3327 3326 108 0
-3327 -3326 -108 0
3327 -3326 108 0
3327 3326 -108 0
-3327 0
-3328 18 54 0
-3328 -18 -54 0
3328 -18 54 0
3328 18 -54 0
-3329 3328 60 0
-3329 -3328 -60 0
3329 -3328 60 0
3329 3328 -60 0
-3330 3329 66 0
-3330 -3329 -66 0
3330 -3329 66 0
3330 3329 -66 0
-3331 3330 68 0
-3331 -3330 -68 0
3331 -3330 68 0
3331 3330 -68 0
-3332 3331 70 0
-3332 -3331 -70 0
3332 -3331 70 0
3332 3331 -70 0
-3333 3332 71 0
-3333 -3332 -71 0
3333 -3332 71 0
3333 3332 -71 0
-3334 3333 72 0
-3334 -3333 -72 0
3334 -3333 72 0
3334 3333 -72 0
-3335 3334 73 0
-3335 -3334 -73 0
3335 -3334 73 0
3335 3334 -73 0
-3336 3335 75 0
-3336 -3335 -75 0
3336 -3335 75 0
3336 3335 -75 0
-3337 3336 78 0
-3337 -3336 -78 0
3337 -3336 78 0
3337 3336 -78 0
-3338 3337 81 0
-3338 -3337 -81 0
3338 -3337 81 0
3338 3337 -81 0
-3339 3338 82 0
-3339 -3338 -82 0
3339 -3338 82 0
3339 3338 -82 0
-3340 3339 84 0
-3340 -3339 -84 0
3340 -3339 84 0
3340 3339 -84 0
-3341 3340 85 0
-3341 -3340 -85 0
3341 -3340 85 0
3341 3340 -85 0
-3342 3341 86 0
-3342 -3341 -86 0
3342 -3341 86 0
3342 3341 -86 0
-3343 3342 89 0
-3343 -3342 -89 0
3343 -3342 89 0
3343 3342 -89 0
-3344 3343 93 0
-3344 -3343 -93 0
3344 -3343 93 0
3344 3343 -93 0
-3345 3344 94 0
-3345 -3344 -94 0
3345 -3344 94 0
3345 3344 -94 0
-3346 3345 97 0
-3346 -3345 -97 0
3346 -3345 97 0
3346 3345 -97 0
-3347 3346 99 0
-3347 -3346 -99 0
3347 -3346 99 0
3347 3346 -99 0
-3348 3347 103 0
-3348 -3347 -103 0
3348 -3347 103 0
3348 3347 -103 0
-3349 3348 104 0
-3349 -3348 -104 0
3349 -3348 104 0
3349 3348 -104 0
-3350 3349 105 0
-3350 -3349 -105 0
3350 -3349 105 0
3350 3349 -105 0
-3351 3350 106 0
-3351 -3350 -106 0
3351 -3350 106 0
3351 3350 -106 0
-3352 3351 107 0
-3352 -3351 -107 0
3352 -3351 107 0
3352 3351 -107 0
-3352 0
-3353 19 48 0
-3353 -19 -48 0
3353 -19 48 0
3353 19 -48 0
-3354 3353 53 0
-3354 -3353 -53 0
3354 -3353 53 0
3354 3353 -53 0
-3355 3354 59 0
-3355 -3354 -59 0
3355 -3354 59 0
3355 3354 -59 0
-3356 3355 65 0
-3356 -3355 -65 0
3356 -3355 65 0
3356 3355 -65 0
-3357 3356 67 0
-3357 -3356 -67 0
3357 -3356 67 0
3357 3356 -67 0
-3358 3357 69 0
-3358 -3357 -69 0
3358 -3357 69 0
3358 3357 -69 0
-3359 3358 70 0
-3359 -3358 -70 0
3359 -3358 70 0
3359 3358 -70 0
-3360 3359 71 0
-3360 -3359 -71 0
3360 -3359 71 0
3360 3359 -71 0
-3361 3360 77 0
-3361 -3360 -77 0
3361 -3360 77 0
3361 3360 -77 0
-3362 3361 78 0
-3362 -3361 -78 0
3362 -3361 78 0
3362 3361 -78 0
-3363 3362 81 0
-3363 -3362 -81 0
3363 -3362 81 0
3363 3362 -81 0
-3364 3363 83 0
-3364 -3363 -83 0
3364 -3363 83 0
3364 3363 -83 0
-3365 3364 85 0
-3365 -3364 -85 0
3365 -3364 85 0
3365 3364 -85 0
-3366 3365 88 0
-3366 -3365 -88 0
3366 -3365 88 0
3366 3365 -88 0
-3367 3366 89 0
-3367 -3366 -89 0
3367 -3366 89 0
3367 3366 -89 0
-3368 3367 90 0
-3368 -3367 -90 0
3368 -3367 90 0
3368 3367 -90 0
-3369 3368 92 0
-3369 -3368 -92 0
3369 -3368 92 0
3369 3368 -92 0
-3370 3369 93 0
-3370 -3369 -93 0
3370 -3369 93 0
3370 3369 -93 0
-3371 3370 98 0
-3371 -3370 -98 0
3371 -3370 98 0
3371 3370 -98 0
-3372 3371 102 0
-3372 -3371 -102 0
3372 -3371 102 0
3372 3371 -102 0
-3373 3372 103 0
-3373 -3372 -103 0
3373 -3372 103 0
3373 3372 -103 0
-3374 3373 104 0
-3374 -3373 -104 0
3374 -3373 104 0
3374 3373 -104 0
-3375 3374 105 0
-3375 -3374 -105 0
3375 -3374 105 0
3375 3374 -105 0
-3376 3375 106 0
-3376 -3375 -106 0
3376 -3375 106 0
3376 3375 -106 0
-3377 3376 108 0
-3377 -3376 -108 0
3377 -3376 108 0
3377 3376 -108 0
-3377 0
-3378 20 46 0
-3378 -20 -46 0
3378 -20 46 0
3378 20 -46 0
-3379 3378 54 0
-3379 -3378 -54 0
3379 -3378 54 0
3379 3378 -54 0
-3380 3379 58 0
-3380 -3379 -58 0
3380 -3379 58 0
3380 3379 -58 0
-3381 3380 59 0
-3381 -3380 -59 0
3381 -3380 59 0
3381 3380 -59 0
-3382 3381 60 0
-3382 -3381 -60 0
3382 -3381 60 0
3382 3381 -60 0
-3383 3382 62 0
-3383 -3382 -62 0
3383 -3382 62 0
3383 3382 -62 0
-3384 3383 63 0
-3384 -3383 -63 0
3384 -3383 63 0
3384 3383 -63 0
-3385 3384 64 0
-3385 -3384 -64 0
3385 -3384 64 0
3385 3384 -64 0
-3386 3385 68 0
-3386 -3385 -68 0
3386 -3385 68 0
3386 3385 -68 0
-3387 3386 72 0
-3387 -3386 -72 0
3387 -3386 72 0
3387 3386 -72 0
-3388 3387 73 0
-3388 -3387 -73 0
3388 -3387 73 0
3388 3387 -73 0
-3389 3388 74 0
-3389 -3388 -74 0
3389 -3388 74 0
3389 3388 -74 0
-3390 3389 76 0
-3390 -3389 -76 0
3390 -3389 76 0
3390 3389 -76 0
-3391 3390 78 0
-3391 -3390 -78 0
3391 -3390 78 0
3391 3390 -78 0
-3392 3391 81 0
-3392 -3391 -81 0
3392 -3391 81 0
3392 3391 -81 0
-3393 3392 83 0
-3393 -3392 -83 0
3393 -3392 83 0
3393 3392 -83 0
-3394 3393 89 0
-3394 -3393 -89 0
3394 -3393 89 0
3394 3393 -89 0
-3395 3394 90 0
-3395 -3394 -90 0
3395 -3394 90 0
3395 3394 -90 0
-3396 3395 91 0
-3396 -3395 -91 0
3396 -3395 91 0
3396 3395 -91 0
-3397 3396 93 0
-3397 -3396 -93 0
3397 -3396 93 0
3397 3396 -93 0
-3398 3397 94 0
-3398 -3397 -94 0
3398 -3397 94 0
3398 3397 -94 0
-3399 3398 95 0
-3399 -3398 -95 0
3399 -3398 95 0
3399 3398 -95 0
-3400 3399 101 0
-3400 -3399 -101 0
3400 -3399 101 0
3400 3399 -101 0
-3401 3400 102 0
-3401 -3400 -102 0
3401 -3400 102 0
3401 3400 -102 0
-3402 3401 103 0
-3402 -3401 -103 0
3402 -3401 103 0
3402 3401 -103 0
-3403 3402 105 0
-3403 -3402 -105 0
3403 -3402 105 0
3403 3402 -105 0
-3404 3403 107 0
-3404 -3403 -107 0
3404 -3403 107 0
3404 3403 -107 0
-3404 0
-3405 21 47 0
-3405 -21 -47 0
3405 -21 47 0
3405 21 -47 0
-3406 3405 52 0
-3406 -3405 -52 0
3406 -3405 52 0
3406 3405 -52 0
-3407 3406 60 0
-3407 -3406 -60 0
3407 -3406 60 0
3407 3406 -60 0
-3408 3407 66 0
-3408 -3407 -66 0
3408 -3407 66 0
3408 3407 -66 0
-3409 3408 67 0
-3409 -3408 -67 0
3409 -3408 67 0
3409 3408 -67 0
-3410 3409 68 0
-3410 -3409 -68 0
3410 -3409 68 0
3410 3409 -68 0
-3411 3410 69 0
-3411 -3410 -69 0
3411 -3410 69 0
3411 3410 -69 0
-3412 3411 70 0
-3412 -3411 -70 0
3412 -3411 70 0
3412 3411 -70 0
-3413 3412 75 0
-3413 -3412 -75 0
3413 -3412 75 0
3413 3412 -75 0
-3414 3413 77 0
-3414 -3413 -77 0
3414 -3413 77 0
3414 3413 -77 0
-3415 3414 80 0
-3415 -3414 -80 0
3415 -3414 80 0
3415 3414 -80 0
-3416 3415 81 0
-3416 -3415 -81 0
3416 -3415 81 0
3416 3415 -81 0
-3417 3416 85 0
-3417 -3416 -85 0
3417 -3416 85 0
3417 3416 -85 0
-3418 3417 88 0
-3418 -3417 -88 0
3418 -3417 88 0
3418 3417 -88 0
-3419 3418 89 0
-3419 -3418 -89 0
3419 -3418 89 0
3419 3418 -89 0
-3420 3419 90 0
-3420 -3419 -90 0
3420 -3419 90 0
3420 3419 -90 0
-3421 3420 92 0
-3421 -3420 -92 0
3421 -3420 92 0
3421 3420 -92 0
-3422 3421 96 0
-3422 -3421 -96 0
3422 -3421 96 0
3422 3421 -96 0
-3423 3422 99 0
-3423 -3422 -99 0
3423 -3422 99 0
3423 3422 -99 0
-3424 3423 101 0
-3424 -3423 -101 0
3424 -3423 101 0
3424 3423 -101 0
-3425 3424 103 0
-3425 -3424 -103 0
3425 -3424 103 0
3425 3424 -103 0
-3426 3425 104 0
-3426 -3425 -104 0
3426 -3425 104 0
3426 3425 -104 0
-3427 3426 106 0
-3427 -3426 -106 0
3427 -3426 106 0
3427 3426 -106 0
-3428 3427 107 0
-3428 -3427 -107 0
3428 -3427 107 0
3428 3427 -107 0
-3429 3428 108 0
-3429 -3428 -108 0
3429 -3428 108 0
3429 3428 -108 0
-3429 0
-3430 22 48 0
-3430 -22 -48 0
3430 -22 48 0
3430 22 -48 0
-3431 3430 53 0
-3431 -3430 -53 0
3431 -3430 53 0
3431 3430 -53 0
-3432 3431 58 0
-3432 -3431 -58 0
3432 -3431 58 0
3432 3431 -58 0
-3433 3432 64 0
-3433 -3432 -64 0
3433 -3432 64 0
3433 3432 -64 0
-3434 3433 70 0
-3434 -3433 -70 0
3434 -3433 70 0
3434 3433 -70 0
-3435 3434 72 0
-3435 -3434 -72 0
3435 -3434 72 0
3435 3434 -72 0
-3436 3435 73 0
-3436 -3435 -73 0
3436 -3435 73 0
3436 3435 -73 0
-3437 3436 78 0
-3437 -3436 -78 0
3437 -3436 78 0
3437 3436 -78 0
-3438 3437 79 0
-3438 -3437 -79 0
3438 -3437 79 0
3438 3437 -79 0
-3439 3438 81 0
-3439 -3438 -81 0
3439 -3438 81 0
3439 3438 -81 0
-3440 3439 85 0
-3440 -3439 -85 0
3440 -3439 85 0
3440 3439 -85 0
-3441 3440 87 0
-3441 -3440 -87 0
3441 -3440 87 0
3441 3440 -87 0
-3442 3441 93 0
-3442 -3441 -93 0
3442 -3441 93 0
3442 3441 -93 0
-3443 3442 94 0
-3443 -3442 -94 0
3443 -3442 94 0
3443 3442 -94 0
-3444 3443 97 0
-3444 -3443 -97 0
3444 -3443 97 0
3444 3443 -97 0
-3445 3444 102 0
-3445 -3444 -102 0
3445 -3444 102 0
3445 3444 -102 0
-3446 3445 103 0
-3446 -3445 -103 0
3446 -3445 103 0
3446 3445 -103 0
-3446 0
-3447 23 46 0
-3447 -23 -46 0
3447 -23 46 0
3447 23 -46 0
-3448 3447 54 0
-3448 -3447 -54 0
3448 -3447 54 0
3448 3447 -54 0
-3449 3448 58 0
-3449 -3448 -58 0
3449 -3448 58 0
3449 3448 -58 0
-3450 3449 62 0
-3450 -3449 -62 0
3450 -3449 62 0
3450 3449 -62 0
-3451 3450 63 0
-3451 -3450 -63 0
3451 -3450 63 0
3451 3450 -63 0
-3452 3451 64 0
-3452 -3451 -64 0
3452 -3451 64 0
3452 3451 -64 0
-3453 3452 65 0
-3453 -3452 -65 0
3453 -3452 65 0
3453 3452 -65 0
-3454 3453 66 0
-3454 -3453 -66 0
3454 -3453 66 0
3454 3453 -66 0
-3455 3454 67 0
-3455 -3454 -67 0
3455 -3454 67 0
3455 3454 -67 0
-3456 3455 70 0
-3456 -3455 -70 0
3456 -3455 70 0
3456 3455 -70 0
-3457 3456 73 0
-3457 -3456 -73 0
3457 -3456 73 0
3457 3456 -73 0
-3458 3457 76 0
-3458 -3457 -76 0
3458 -3457 76 0
3458 3457 -76 0
-3459 3458 80 0
-3459 -3458 -80 0
3459 -3458 80 0
3459 3458 -80 0
-3460 3459 81 0
-3460 -3459 -81 0
3460 -3459 81 0
3460 3459 -81 0
-3461 3460 83 0
-3461 -3460 -83 0
3461 -3460 83 0
3461 3460 -83 0
-3462 3461 84 0
-3462 -3461 -84 0
3462 -3461 84 0
3462 3461 -84 0
-3463 3462 85 0
-3463 -3462 -85 0
3463 -3462 85 0
3463 3462 -85 0
-3464 3463 88 0
-3464 -3463 -88 0
3464 -3463 88 0
3464 3463 -88 0
-3465 3464 91 0
-3465 -3464 -91 0
3465 -3464 91 0
3465 3464 -91 0
-3466 3465 94 0
-3466 -3465 -94 0
3466 -3465 94 0
3466 3465 -94 0
-3467 3466 98 0
-3467 -3466 -98 0
3467 -3466 98 0
3467 3466 -98 0
-3468 3467 99 0
-3468 -3467 -99 0
3468 -3467 99 0
3468 3467 -99 0
-3469 3468 101 0
-3469 -3468 -101 0
3469 -3468 101 0
3469 3468 -101 0
-3470 3469 102 0
-3470 -3469 -102 0
3470 -3469 102 0
3470 3469 -102 0
-3471 3470 106 0
-3471 -3470 -106 0
3471 -3470 106 0
3471 3470 -106 0
-3471 0
-3472 24 47 0
-3472 -24 -47 0
3472 -24 47 0
3472 24 -47 0
-3473 3472 52 0
-3473 -3472 -52 0
3473 -3472 52 0
3473 3472 -52 0
-3474 3473 58 0
-3474 -3473 -58 0
3474 -3473 58 0
3474 3473 -58 0
-3475 3474 64 0
-3475 -3474 -64 0
3475 -3474 64 0
3475 3474 -64 0
-3476 3475 68 0
-3476 -3475 -68 0
3476 -3475 68 0
3476 3475 -68 0
-3477 3476 69 0
-3477 -3476 -69 0
3477 -3476 69 0
3477 3476 -69 0
-3478 3477 70 0
-3478 -3477 -70 0
3478 -3477 70 0
3478 3477 -70 0
-3479 3478 72 0
-3479 -3478 -72 0
3479 -3478 72 0
3479 3478 -72 0
-3480 3479 76 0
-3480 -3479 -76 0
3480 -3479 76 0
3480 3479 -76 0
-3481 3480 77 0
-3481 -3480 -77 0
3481 -3480 77 0
3481 3480 -77 0
-3482 3481 80 0
-3482 -3481 -80 0
3482 -3481 80 0
3482 3481 -80 0
-3483 3482 82 0
-3483 -3482 -82 0
3483 -3482 82 0
3483 3482 -82 0
-3484 3483 87 0
-3484 -3483 -87 0
3484 -3483 87 0
3484 3483 -87 0
-3485 3484 88 0
-3485 -3484 -88 0
3485 -3484 88 0
3485 3484 -88 0
-3486 3485 89 0
-3486 -3485 -89 0
3486 -3485 89 0
3486 3485 -89 0
-3487 3486 90 0
-3487 -3486 -90 0
3487 -3486 90 0
3487 3486 -90 0
-3488 3487 91 0
-3488 -3487 -91 0
3488 -3487 91 0
3488 3487 -91 0
-3489 3488 92 0
-3489 -3488 -92 0
3489 -3488 92 0
3489 3488 -92 0
-3490 3489 97 0
-3490 -3489 -97 0
3490 -3489 97 0
3490 3489 -97 0
-3491 3490 101 0
-3491 -3490 -101 0
3491 -3490 101 0
3491 3490 -101 0
-3492 3491 103 0
-3492 -3491 -103 0
3492 -3491 103 0
3492 3491 -103 0
-3493 3492 104 0
-3493 -3492 -104 0
3493 -3492 104 0
3493 3492 -104 0
-3494 3493 105 0
-3494 -3493 -105 0
3494 -3493 105 0
3494 3493 -105 0
-3495 3494 107 0
-3495 -3494 -107 0
3495 -3494 107 0
3495 3494 -107 0
-3496 3495 108 0
-3496 -3495 -108 0
3496 -3495 108 0
3496 3495 -108 0
-3496 0
-3497 25 46 0
-3497 -25 -46 0
3497 -25 46 0
3497 25 -46 0
-3498 3497 58 0
-3498 -3497 -58 0
3498 -3497 58 0
3498 3497 -58 0
-3499 3498 62 0
-3499 -3498 -62 0
3499 -3498 62 0
3499 3498 -62 0
-3500 3499 63 0
-3500 -3499 -63 0
3500 -3499 63 0
3500 3499 -63 0
-3501 3500 64 0
-3501 -3500 -64 0
3501 -3500 64 0
3501 3500 -64 0
-3502 3501 65 0
-3502 -3501 -65 0
3502 -3501 65 0
3502 3501 -65 0
-3503 3502 66 0
-3503 -3502 -66 0
3503 -3502 66 0
3503 3502 -66 0
-3504 3503 67 0
-3504 -3503 -67 0
3504 -3503 67 0
3504 3503 -67 0
-3505 3504 70 0
-3505 -3504 -70 0
3505 -3504 70 0
3505 3504 -70 0
-3506 3505 73 0
-3506 -3505 -73 0
3506 -3505 73 0
3506 3505 -73 0
-3507 3506 76 0
-3507 -3506 -76 0
3507 -3506 76 0
3507 3506 -76 0
-3508 3507 81 0
-3508 -3507 -81 0
3508 -3507 81 0
3508 3507 -81 0
-3509 3508 83 0
-3509 -3508 -83 0
3509 -3508 83 0
3509 3508 -83 0
-3510 3509 84 0
-3510 -3509 -84 0
3510 -3509 84 0
3510 3509 -84 0
-3511 3510 85 0
-3511 -3510 -85 0
3511 -3510 85 0
3511 3510 -85 0
-3512 3511 86 0
-3512 -3511 -86 0
3512 -3511 86 0
3512 3511 -86 0
-3513 3512 88 0
-3513 -3512 -88 0
3513 -3512 88 0
3513 3512 -88 0
-3514 3513 91 0
-3514 -3513 -91 0
3514 -3513 91 0
3514 3513 -91 0
-3515 3514 94 0
-3515 -3514 -94 0
3515 -3514 94 0
3515 3514 -94 0
-3516 3515 95 0
-3516 -3515 -95 0
3516 -3515 95 0
3516 3515 -95 0
-3517 3516 98 0
-3517 -3516 -98 0
3517 -3516 98 0
3517 3516 -98 0
-3518 3517 99 0
-3518 -3517 -99 0
3518 -3517 99 0
3518 3517 -99 0
-3519 3518 101 0
-3519 -3518 -101 0
3519 -3518 101 0
3519 3518 -101 0
-3520 3519 102 0
-3520 -3519 -102 0
3520 -3519 102 0
3520 3519 -102 0
-3521 3520 106 0
-3521 -3520 -106 0
3521 -3520 106 0
3521 3520 -106 0
-3521 0
-3522 26 47 0
-3522 -26 -47 0
3522 -26 47 0
3522 26 -47 0
-3523 3522 59 0
-3523 -3522 -59 0
3523 -3522 59 0
3523 3522 -59 0
-3524 3523 62 0
-3524 -3523 -62 0
3524 -3523 62 0
3524 3523 -62 0
-3525 3524 67 0
-3525 -3524 -67 0
3525 -3524 67 0
3525 3524 -67 0
-3526 3525 69 0
-3526 -3525 -69 0
3526 -3525 69 0
3526 3525 -69 0
-3527 3526 70 0
-3527 -3526 -70 0
3527 -3526 70 0
3527 3526 -70 0
-3528 3527 72 0
-3528 -3527 -72 0
3528 -3527 72 0
3528 3527 -72 0
-3529 3528 74 0
-3529 -3528 -74 0
3529 -3528 74 0
3529 3528 -74 0
-3530 3529 77 0
-3530 -3529 -77 0
3530 -3529 77 0
3530 3529 -77 0
-3531 3530 80 0
-3531 -3530 -80 0
3531 -3530 80 0
3531 3530 -80 0
-3532 3531 81 0
-3532 -3531 -81 0
3532 -3531 81 0
3532 3531 -81 0
-3533 3532 83 0
-3533 -3532 -83 0
3533 -3532 83 0
3533 3532 -83 0
-3534 3533 85 0
-3534 -3533 -85 0
3534 -3533 85 0
3534 3533 -85 0
-3535 3534 88 0
-3535 -3534 -88 0
3535 -3534 88 0
3535 3534 -88 0
-3536 3535 90 0
-3536 -3535 -90 0
3536 -3535 90 0
3536 3535 -90 0
-3537 3536 92 0
-3537 -3536 -92 0
3537 -3536 92 0
3537 3536 -92 0
-3538 3537 95 0
-3538 -3537 -95 0
3538 -3537 95 0
3538 3537 -95 0
-3539 3538 96 0
-3539 -3538 -96 0
3539 -3538 96 0
3539 3538 -96 0
-3540 3539 98 0
-3540 -3539 -98 0
3540 -3539 98 0
3540 3539 -98 0
-3541 3540 101 0
-3541 -3540 -101 0
3541 -3540 101 0
3541 3540 -101 0
-3542 3541 103 0
-3542 -3541 -103 0
3542 -3541 103 0
3542 3541 -103 0
-3543 3542 104 0
-3543 -3542 -104 0
3543 -3542 104 0
3543 3542 -104 0
-3544 3543 105 0
-3544 -3543 -105 0
3544 -3543 105 0
3544 3543 -105 0
-3545 3544 106 0
-3545 -3544 -106 0
3545 -3544 106 0
3545 3544 -106 0
-3546 3545 108 0
-3546 -3545 -108 0
3546 -3545 108 0
3546 3545 -108 0
-3546 0
-3547 27 48 0
-3547 -27 -48 0
3547 -27 48 0
3547 27 -48 0
-3548 3547 60 0
-3548 -3547 -60 0
3548 -3547 60 0
3548 3547 -60 0
-3549 3548 63 0
-3549 -3548 -63 0
3549 -3548 63 0
3549 3548 -63 0
-3550 3549 67 0
-3550 -3549 -67 0
3550 -3549 67 0
3550 3549 -67 0
-3551 3550 68 0
-3551 -3550 -68 0
3551 -3550 68 0
3551 3550 -68 0
-3552 3551 70 0
-3552 -3551 -70 0
3552 -3551 70 0
3552 3551 -70 0
-3553 3552 71 0
-3553 -3552 -71 0
3553 -3552 71 0
3553 3552 -71 0
-3554 3553 75 0
-3554 -3553 -75 0
3554 -3553 75 0
3554 3553 -75 0
-3555 3554 78 0
-3555 -3554 -78 0
3555 -3554 78 0
3555 3554 -78 0
-3556 3555 81 0
-3556 -3555 -81 0
3556 -3555 81 0
3556 3555 -81 0
-3557 3556 82 0
-3557 -3556 -82 0
3557 -3556 82 0
3557 3556 -82 0
-3558 3557 84 0
-3558 -3557 -84 0
3558 -3557 84 0
3558 3557 -84 0
-3559 3558 85 0
-3559 -3558 -85 0
3559 -3558 85 0
3559 3558 -85 0
-3560 3559 86 0
-3560 -3559 -86 0
3560 -3559 86 0
3560 3559 -86 0
-3561 3560 89 0
-3561 -3560 -89 0
3561 -3560 89 0
3561 3560 -89 0
-3562 3561 91 0
-3562 -3561 -91 0
3562 -3561 91 0
3562 3561 -91 0
-3563 3562 93 0
-3563 -3562 -93 0
3563 -3562 93 0
3563 3562 -93 0
-3564 3563 96 0
-3564 -3563 -96 0
3564 -3563 96 0
3564 3563 -96 0
-3565 3564 99 0
-3565 -3564 -99 0
3565 -3564 99 0
3565 3564 -99 0
-3566 3565 102 0
-3566 -3565 -102 0
3566 -3565 102 0
3566 3565 -102 0
-3567 3566 103 0
-3567 -3566 -103 0
3567 -3566 103 0
3567 3566 -103 0
-3568 3567 104 0
-3568 -3567 -104 0
3568 -3567 104 0
3568 3567 -104 0
-3569 3568 105 0
-3569 -3568 -105 0
3569 -3568 105 0
3569 3568 -105 0
-3570 3569 106 0
-3570 -3569 -106 0
3570 -3569 106 0
3570 3569 -106 0
-3571 3570 107 0
-3571 -3570 -107 0
3571 -3570 107 0
3571 3570 -107 0
-3571 0
-3572 28 46 0
-3572 -28 -46 0
3572 -28 46 0
3572 28 -46 0
-3573 3572 59 0
-3573 -3572 -59 0
3573 -3572 59 0
3573 3572 -59 0
-3574 3573 65 0
-3574 -3573 -65 0
3574 -3573 65 0
3574 3573 -65 0
-3575 3574 67 0
-3575 -3574 -67 0
3575 -3574 67 0
3575 3574 -67 0
-3576 3575 68 0
-3576 -3575 -68 0
3576 -3575 68 0
3576 3575 -68 0
-3577 3576 69 0
-3577 -3576 -69 0
3577 -3576 69 0
3577 3576 -69 0
-3578 3577 72 0
-3578 -3577 -72 0
3578 -3577 72 0
3578 3577 -72 0
-3579 3578 74 0
-3579 -3578 -74 0
3579 -3578 74 0
3579 3578 -74 0
-3580 3579 76 0
-3580 -3579 -76 0
3580 -3579 76 0
3580 3579 -76 0
-3581 3580 79 0
-3581 -3580 -79 0
3581 -3580 79 0
3581 3580 -79 0
-3582 3581 80 0
-3582 -3581 -80 0
3582 -3581 80 0
3582 3581 -80 0
-3583 3582 83 0
-3583 -3582 -83 0
3583 -3582 83 0
3583 3582 -83 0
-3584 3583 87 0
-3584 -3583 -87 0
3584 -3583 87 0
3584 3583 -87 0
-3585 3584 88 0
-3585 -3584 -88 0
3585 -3584 88 0
3585 3584 -88 0
-3586 3585 90 0
-3586 -3585 -90 0
3586 -3585 90 0
3586 3585 -90 0
-3587 3586 91 0
-3587 -3586 -91 0
3587 -3586 91 0
3587 3586 -91 0
-3588 3587 92 0
-3588 -3587 -92 0
3588 -3587 92 0
3588 3587 -92 0
-3589 3588 95 0
-3589 -3588 -95 0
3589 -3588 95 0
3589 3588 -95 0
-3590 3589 98 0
-3590 -3589 -98 0
3590 -3589 98 0
3590 3589 -98 0
-3591 3590 100 0
-3591 -3590 -100 0
3591 -3590 100 0
3591 3590 -100 0
-3592 3591 103 0
-3592 -3591 -103 0
3592 -3591 103 0
3592 3591 -103 0
-3593 3592 105 0
-3593 -3592 -105 0
3593 -3592 105 0
3593 3592 -105 0
-3594 3593 106 0
-3594 -3593 -106 0
3594 -3593 106 0
3594 3593 -106 0
-3595 3594 107 0
-3595 -3594 -107 0
3595 -3594 107 0
3595 3594 -107 0
-3596 3595 108 0
-3596 -3595 -108 0
3596 -3595 108 0
3596 3595 -108 0
-3596 0
-3597 29 47 0
-3597 -29 -47 0
3597 -29 47 0
3597 29 -47 0
-3598 3597 60 0
-3598 -3597 -60 0
3598 -3597 60 0
3598 3597 -60 0
-3599 3598 66 0
-3599 -3598 -66 0
3599 -3598 66 0
3599 3598 -66 0
-3600 3599 67 0
-3600 -3599 -67 0
3600 -3599 67 0
3600 3599 -67 0
-3601 3600 68 0
-3601 -3600 -68 0
3601 -3600 68 0
3601 3600 -68 0
-3602 3601 69 0
-3602 -3601 -69 0
3602 -3601 69 0
3602 3601 -69 0
-3603 3602 70 0
-3603 -3602 -70 0
3603 -3602 70 0
3603 3602 -70 0
-3604 3603 75 0
-3604 -3603 -75 0
3604 -3603 75 0
3604 3603 -75 0
-3605 3604 77 0
-3605 -3604 -77 0
3605 -3604 77 0
3605 3604 -77 0
-3606 3605 80 0
-3606 -3605 -80 0
3606 -3605 80 0
3606 3605 -80 0
-3607 3606 81 0
-3607 -3606 -81 0
3607 -3606 81 0
3607 3606 -81 0
-3608 3607 84 0
-3608 -3607 -84 0
3608 -3607 84 0
3608 3607 -84 0
-3609 3608 85 0
-3609 -3608 -85 0
3609 -3608 85 0
3609 3608 -85 0
-3610 3609 88 0
-3610 -3609 -88 0
3610 -3609 88 0
3610 3609 -88 0
-3611 3610 89 0
-3611 -3610 -89 0
3611 -3610 89 0
3611 3610 -89 0
-3612 3611 92 0
-3612 -3611 -92 0
3612 -3611 92 0
3612 3611 -92 0
-3613 3612 93 0
-3613 -3612 -93 0
3613 -3612 93 0
3613 3612 -93 0
-3614 3613 96 0
-3614 -3613 -96 0
3614 -3613 96 0
3614 3613 -96 0
-3615 3614 99 0
-3615 -3614 -99 0
3615 -3614 99 0
3615 3614 -99 0
-3616 3615 101 0
-3616 -3615 -101 0
3616 -3615 101 0
3616 3615 -101 0
-3617 3616 103 0
-3617 -3616 -103 0
3617 -3616 103 0
3617 3616 -103 0
-3618 3617 104 0
-3618 -3617 -104 0
3618 -3617 104 0
3618 3617 -104 0
-3619 3618 106 0
-3619 -3618 -106 0
3619 -3618 106 0
3619 3618 -106 0
-3620 3619 107 0
-3620 -3619 -107 0
3620 -3619 107 0
3620 3619 -107 0
-3621 3620 108 0
-3621 -3620 -108 0
3621 -3620 108 0
3621 3620 -108 0
-3621 0
-3622 30 48 0
-3622 -30 -48 0
3622 -30 48 0
3622 30 -48 0
-3623 3622 58 0
-3623 -3622 -58 0
3623 -3622 58 0
3623 3622 -58 0
-3624 3623 64 0
-3624 -3623 -64 0
3624 -3623 64 0
3624 3623 -64 0
-3625 3624 70 0
-3625 -3624 -70 0
3625 -3624 70 0
3625 3624 -70 0
-3626 3625 72 0
-3626 -3625 -72 0
3626 -3625 72 0
3626 3625 -72 0
-3627 3626 73 0
-3627 -3626 -73 0
3627 -3626 73 0
3627 3626 -73 0
-3628 3627 78 0
-3628 -3627 -78 0
3628 -3627 78 0
3628 3627 -78 0
-3629 3628 81 0
-3629 -3628 -81 0
3629 -3628 81 0
3629 3628 -81 0
-3630 3629 87 0
-3630 -3629 -87 0
3630 -3629 87 0
3630 3629 -87 0
-3631 3630 93 0
-3631 -3630 -93 0
3631 -3630 93 0
3631 3630 -93 0
-3632 3631 97 0
-3632 -3631 -97 0
3632 -3631 97 0
3632 3631 -97 0
-3633 3632 102 0
-3633 -3632 -102 0
3633 -3632 102 0
3633 3632 -102 0
-3634 3633 103 0
-3634 -3633 -103 0
3634 -3633 103 0
3634 3633 -103 0
-3634 0
-3635 31 52 0
-3635 -31 -52 0
3635 -31 52 0
3635 31 -52 0
-3636 3635 58 0
-3636 -3635 -58 0
3636 -3635 58 0
3636 3635 -58 0
-3637 3636 64 0
-3637 -3636 -64 0
3637 -3636 64 0
3637 3636 -64 0
-3638 3637 68 0
-3638 -3637 -68 0
3638 -3637 68 0
3638 3637 -68 0
-3639 3638 69 0
-3639 -3638 -69 0
3639 -3638 69 0
3639 3638 -69 0
-3640 3639 70 0
-3640 -3639 -70 0
3640 -3639 70 0
3640 3639 -70 0
-3641 3640 71 0
-3641 -3640 -71 0
3641 -3640 71 0
3641 3640 -71 0
-3642 3641 72 0
-3642 -3641 -72 0
3642 -3641 72 0
3642 3641 -72 0
-3643 3642 73 0
-3643 -3642 -73 0
3643 -3642 73 0
3643 3642 -73 0
-3644 3643 76 0
-3644 -3643 -76 0
3644 -3643 76 0
3644 3643 -76 0
-3645 3644 79 0
-3645 -3644 -79 0
3645 -3644 79 0
3645 3644 -79 0
-3646 3645 82 0
-3646 -3645 -82 0
3646 -3645 82 0
3646 3645 -82 0
-3647 3646 87 0
-3647 -3646 -87 0
3647 -3646 87 0
3647 3646 -87 0
-3648 3647 89 0
-3648 -3647 -89 0
3648 -3647 89 0
3648 3647 -89 0
-3649 3648 90 0
-3649 -3648 -90 0
3649 -3648 90 0
3649 3648 -90 0
-3650 3649 91 0
-3650 -3649 -91 0
3650 -3649 91 0
3650 3649 -91 0
-3651 3650 92 0
-3651 -3650 -92 0
3651 -3650 92 0
3651 3650 -92 0
-3652 3651 94 0
-3652 -3651 -94 0
3652 -3651 94 0
3652 3651 -94 0
-3653 3652 97 0
-3653 -3652 -97 0
3653 -3652 97 0
3653 3652 -97 0
-3654 3653 100 0
-3654 -3653 -100 0
3654 -3653 100 0
3654 3653 -100 0
-3655 3654 101 0
-3655 -3654 -101 0
3655 -3654 101 0
3655 3654 -101 0
-3656 3655 104 0
-3656 -3655 -104 0
3656 -3655 104 0
3656 3655 -104 0
-3657 3656 105 0
-3657 -3656 -105 0
3657 -3656 105 0
3657 3656 -105 0
-3658 3657 107 0
-3658 -3657 -107 0
3658 -3657 107 0
3658 3657 -107 0
-3659 3658 108 0
-3659 -3658 -108 0
3659 -3658 108 0
3659 3658 -108 0
-3659 0
-3660 32 53 0
-3660 -32 -53 0
3660 -32 53 0
3660 32 -53 0
-3661 3660 59 0
-3661 -3660 -59 0
3661 -3660 59 0
3661 3660 -59 0
-3662 3661 65 0
-3662 -3661 -65 0
3662 -3661 65 0
3662 3661 -65 0
-3663 3662 67 0
-3663 -3662 -67 0
3663 -3662 67 0
3663 3662 -67 0
-3664 3663 69 0
-3664 -3663 -69 0
3664 -3663 69 0
3664 3663 -69 0
-3665 3664 70 0
-3665 -3664 -70 0
3665 -3664 70 0
3665 3664 -70 0
-3666 3665 71 0
-3666 -3665 -71 0
3666 -3665 71 0
3666 3665 -71 0
-3667 3666 72 0
-3667 -3666 -72 0
3667 -3666 72 0
3667 3666 -72 0
-3668 3667 74 0
-3668 -3667 -74 0
3668 -3667 74 0
3668 3667 -74 0
-3669 3668 77 0
-3669 -3668 -77 0
3669 -3668 77 0
3669 3668 -77 0
-3670 3669 80 0
-3670 -3669 -80 0
3670 -3669 80 0
3670 3669 -80 0
-3671 3670 83 0
-3671 -3670 -83 0
3671 -3670 83 0
3671 3670 -83 0
-3672 3671 85 0
-3672 -3671 -85 0
3672 -3671 85 0
3672 3671 -85 0
-3673 3672 88 0
-3673 -3672 -88 0
3673 -3672 88 0
3673 3672 -88 0
-3674 3673 90 0
-3674 -3673 -90 0
3674 -3673 90 0
3674 3673 -90 0
-3675 3674 92 0
-3675 -3674 -92 0
3675 -3674 92 0
3675 3674 -92 0
-3676 3675 93 0
-3676 -3675 -93 0
3676 -3675 93 0
3676 3675 -93 0
-3677 3676 95 0
-3677 -3676 -95 0
3677 -3676 95 0
3677 3676 -95 0
-3678 3677 98 0
-3678 -3677 -98 0
3678 -3677 98 0
3678 3677 -98 0
-3679 3678 101 0
-3679 -3678 -101 0
3679 -3678 101 0
3679 3678 -101 0
-3680 3679 102 0
-3680 -3679 -102 0
3680 -3679 102 0
3680 3679 -102 0
-3681 3680 103 0
-3681 -3680 -103 0
3681 -3680 103 0
3681 3680 -103 0
-3682 3681 105 0
-3682 -3681 -105 0
3682 -3681 105 0
3682 3681 -105 0
-3683 3682 106 0
-3683 -3682 -106 0
3683 -3682 106 0
3683 3682 -106 0
-3684 3683 108 0
-3684 -3683 -108 0
3684 -3683 108 0
3684 3683 -108 0
-3684 0
-3685 33 54 0
-3685 -33 -54 0
3685 -33 54 0
3685 33 -54 0
-3686 3685 60 0
-3686 -3685 -60 0
3686 -3685 60 0
3686 3685 -60 0
-3687 3686 66 0
-3687 -3686 -66 0
3687 -3686 66 0
3687 3686 -66 0
-3688 3687 67 0
-3688 -3687 -67 0
3688 -3687 67 0
3688 3687 -67 0
-3689 3688 68 0
-3689 -3688 -68 0
3689 -3688 68 0
3689 3688 -68 0
-3690 3689 70 0
-3690 -3689 -70 0
3690 -3689 70 0
3690 3689 -70 0
-3691 3690 71 0
-3691 -3690 -71 0
3691 -3690 71 0
3691 3690 -71 0
-3692 3691 72 0
-3692 -3691 -72 0
3692 -3691 72 0
3692 3691 -72 0
-3693 3692 75 0
-3693 -3692 -75 0
3693 -3692 75 0
3693 3692 -75 0
-3694 3693 78 0
-3694 -3693 -78 0
3694 -3693 78 0
3694 3693 -78 0
-3695 3694 81 0
-3695 -3694 -81 0
3695 -3694 81 0
3695 3694 -81 0
-3696 3695 84 0
-3696 -3695 -84 0
3696 -3695 84 0
3696 3695 -84 0
-3697 3696 85 0
-3697 -3696 -85 0
3697 -3696 85 0
3697 3696 -85 0
-3698 3697 86 0
-3698 -3697 -86 0
3698 -3697 86 0
3698 3697 -86 0
-3699 3698 89 0
-3699 -3698 -89 0
3699 -3698 89 0
3699 3698 -89 0
-3700 3699 93 0
-3700 -3699 -93 0
3700 -3699 93 0
3700 3699 -93 0
-3701 3700 94 0
-3701 -3700 -94 0
3701 -3700 94 0
3701 3700 -94 0
-3702 3701 96 0
-3702 -3701 -96 0
3702 -3701 96 0
3702 3701 -96 0
-3703 3702 97 0
-3703 -3702 -97 0
3703 -3702 97 0
3703 3702 -97 0
-3704 3703 99 0
-3704 -3703 -99 0
3704 -3703 99 0
3704 3703 -99 0
-3705 3704 102 0
-3705 -3704 -102 0
3705 -3704 102 0
3705 3704 -102 0
-3706 3705 103 0
-3706 -3705 -103 0
3706 -3705 103 0
3706 3705 -103 0
-3707 3706 104 0
-3707 -3706 -104 0
3707 -3706 104 0
3707 3706 -104 0
-3708 3707 106 0
-3708 -3707 -106 0
3708 -3707 106 0
3708 3707 -106 0
-3709 3708 107 0
-3709 -3708 -107 0
3709 -3708 107 0
3709 3708 -107 0
-3709 0
-3710 34 52 0
-3710 -34 -52 0
3710 -34 52 0
3710 34 -52 0
-3711 3710 59 0
-3711 -3710 -59 0
3711 -3710 59 0
3711 3710 -59 0
-3712 3711 62 0
-3712 -3711 -62 0
3712 -3711 62 0
3712 3711 -62 0
-3713 3712 68 0
-3713 -3712 -68 0
3713 -3712 68 0
3713 3712 -68 0
-3714 3713 74 0
-3714 -3713 -74 0
3714 -3713 74 0
3714 3713 -74 0
-3715 3714 76 0
-3715 -3714 -76 0
3715 -3714 76 0
3715 3714 -76 0
-3716 3715 82 0
-3716 -3715 -82 0
3716 -3715 82 0
3716 3715 -82 0
-3717 3716 83 0
-3717 -3716 -83 0
3717 -3716 83 0
3717 3716 -83 0
-3718 3717 85 0
-3718 -3717 -85 0
3718 -3717 85 0
3718 3717 -85 0
-3719 3718 91 0
-3719 -3718 -91 0
3719 -3718 91 0
3719 3718 -91 0
-3720 3719 97 0
-3720 -3719 -97 0
3720 -3719 97 0
3720 3719 -97 0
-3721 3720 106 0
-3721 -3720 -106 0
3721 -3720 106 0
3721 3720 -106 0
-3722 3721 107 0
-3722 -3721 -107 0
3722 -3721 107 0
3722 3721 -107 0
-3722 0
-3723 35 53 0
-3723 -35 -53 0
3723 -35 53 0
3723 35 -53 0
-3724 3723 60 0
-3724 -3723 -60 0
3724 -3723 60 0
3724 3723 -60 0
-3725 3724 63 0
-3725 -3724 -63 0
3725 -3724 63 0
3725 3724 -63 0
-3726 3725 69 0
-3726 -3725 -69 0
3726 -3725 69 0
3726 3725 -69 0
-3727 3726 75 0
-3727 -3726 -75 0
3727 -3726 75 0
3727 3726 -75 0
-3728 3727 77 0
-3728 -3727 -77 0
3728 -3727 77 0
3728 3727 -77 0
-3729 3728 83 0
-3729 -3728 -83 0
3729 -3728 83 0
3729 3728 -83 0
-3730 3729 84 0
-3730 -3729 -84 0
3730 -3729 84 0
3730 3729 -84 0
-3731 3730 86 0
-3731 -3730 -86 0
3731 -3730 86 0
3731 3730 -86 0
-3732 3731 92 0
-3732 -3731 -92 0
3732 -3731 92 0
3732 3731 -92 0
-3733 3732 98 0
-3733 -3732 -98 0
3733 -3732 98 0
3733 3732 -98 0
-3734 3733 107 0
-3734 -3733 -107 0
3734 -3733 107 0
3734 3733 -107 0
-3735 3734 108 0
-3735 -3734 -108 0
3735 -3734 108 0
3735 3734 -108 0
-3735 0
-3736 36 54 0
-3736 -36 -54 0
3736 -36 54 0
3736 36 -54 0
-3737 3736 58 0
-3737 -3736 -58 0
3737 -3736 58 0
3737 3736 -58 0
-3738 3737 62 0
-3738 -3737 -62 0
3738 -3737 62 0
3738 3737 -62 0
-3739 3738 63 0
-3739 -3738 -63 0
3739 -3738 63 0
3739 3738 -63 0
-3740 3739 64 0
-3740 -3739 -64 0
3740 -3739 64 0
3740 3739 -64 0
-3741 3740 65 0
-3741 -3740 -65 0
3741 -3740 65 0
3741 3740 -65 0
-3742 3741 66 0
-3742 -3741 -66 0
3742 -3741 66 0
3742 3741 -66 0
-3743 3742 67 0
-3743 -3742 -67 0
3743 -3742 67 0
3743 3742 -67 0
-3744 3743 73 0
-3744 -3743 -73 0
3744 -3743 73 0
3744 3743 -73 0
-3745 3744 78 0
-3745 -3744 -78 0
3745 -3744 78 0
3745 3744 -78 0
-3746 3745 79 0
-3746 -3745 -79 0
3746 -3745 79 0
3746 3745 -79 0
-3747 3746 80 0
-3747 -3746 -80 0
3747 -3746 80 0
3747 3746 -80 0
-3748 3747 81 0
-3748 -3747 -81 0
3748 -3747 81 0
3748 3747 -81 0
-3749 3748 83 0
-3749 -3748 -83 0
3749 -3748 83 0
3749 3748 -83 0
-3750 3749 85 0
-3750 -3749 -85 0
3750 -3749 85 0
3750 3749 -85 0
-3751 3750 87 0
-3751 -3750 -87 0
3751 -3750 87 0
3751 3750 -87 0
-3752 3751 88 0
-3752 -3751 -88 0
3752 -3751 88 0
3752 3751 -88 0
-3753 3752 91 0
-3753 -3752 -91 0
3753 -3752 91 0
3753 3752 -91 0
-3754 3753 93 0
-3754 -3753 -93 0
3754 -3753 93 0
3754 3753 -93 0
-3755 3754 94 0
-3755 -3754 -94 0
3755 -3754 94 0
3755 3754 -94 0
-3756 3755 98 0
-3756 -3755 -98 0
3756 -3755 98 0
3756 3755 -98 0
-3757 3756 101 0
-3757 -3756 -101 0
3757 -3756 101 0
3757 3756 -101 0
-3758 3757 102 0
-3758 -3757 -102 0
3758 -3757 102 0
3758 3757 -102 0
-3759 3758 106 0
-3759 -3758 -106 0
3759 -3758 106 0
3759 3758 -106 0
-3760 3759 108 0
-3760 -3759 -108 0
3760 -3759 108 0
3760 3759 -108 0
-3760 0
-3761 37 48 0
-3761 -37 -48 0
3761 -37 48 0
3761 37 -48 0
-3762 3761 53 0
-3762 -3761 -53 0
3762 -3761 53 0
3762 3761 -53 0
-3763 3762 62 0
-3763 -3762 -62 0
3763 -3762 62 0
3763 3762 -62 0
-3764 3763 63 0
-3764 -3763 -63 0
3764 -3763 63 0
3764 3763 -63 0
-3765 3764 64 0
-3765 -3764 -64 0
3765 -3764 64 0
3765 3764 -64 0
-3766 3765 65 0
-3766 -3765 -65 0
3766 -3765 65 0
3766 3765 -65 0
-3767 3766 66 0
-3767 -3766 -66 0
3767 -3766 66 0
3767 3766 -66 0
-3768 3767 67 0
-3768 -3767 -67 0
3768 -3767 67 0
3768 3767 -67 0
-3769 3768 72 0
-3769 -3768 -72 0
3769 -3768 72 0
3769 3768 -72 0
-3770 3769 76 0
-3770 -3769 -76 0
3770 -3769 76 0
3770 3769 -76 0
-3771 3770 77 0
-3771 -3770 -77 0
3771 -3770 77 0
3771 3770 -77 0
-3772 3771 78 0
-3772 -3771 -78 0
3772 -3771 78 0
3772 3771 -78 0
-3773 3772 79 0
-3773 -3772 -79 0
3773 -3772 79 0
3773 3772 -79 0
-3774 3773 80 0
-3774 -3773 -80 0
3774 -3773 80 0
3774 3773 -80 0
-3775 3774 84 0
-3775 -3774 -84 0
3775 -3774 84 0
3775 3774 -84 0
-3776 3775 86 0
-3776 -3775 -86 0
3776 -3775 86 0
3776 3775 -86 0
-3777 3776 87 0
-3777 -3776 -87 0
3777 -3776 87 0
3777 3776 -87 0
-3778 3777 88 0
-3778 -3777 -88 0
3778 -3777 88 0
3778 3777 -88 0
-3779 3778 91 0
-3779 -3778 -91 0
3779 -3778 91 0
3779 3778 -91 0
-3780 3779 93 0
-3780 -3779 -93 0
3780 -3779 93 0
3780 3779 -93 0
-3781 3780 97 0
-3781 -3780 -97 0
3781 -3780 97 0
3781 3780 -97 0
-3782 3781 98 0
-3782 -3781 -98 0
3782 -3781 98 0
3782 3781 -98 0
-3783 3782 99 0
-3783 -3782 -99 0
3783 -3782 99 0
3783 3782 -99 0
-3784 3783 100 0
-3784 -3783 -100 0
3784 -3783 100 0
3784 3783 -100 0
-3785 3784 101 0
-3785 -3784 -101 0
3785 -3784 101 0
3785 3784 -101 0
-3785 0
-3786 38 46 0
-3786 -38 -46 0
3786 -38 46 0
3786 38 -46 0
-3787 3786 54 0
-3787 -3786 -54 0
3787 -3786 54 0
3787 3786 -54 0
-3788 3787 58 0
-3788 -3787 -58 0
3788 -3787 58 0
3788 3787 -58 0
-3789 3788 59 0
-3789 -3788 -59 0
3789 -3788 59 0
3789 3788 -59 0
-3790 3789 63 0
-3790 -3789 -63 0
3790 -3789 63 0
3790 3789 -63 0
-3791 3790 64 0
-3791 -3790 -64 0
3791 -3790 64 0
3791 3790 -64 0
-3792 3791 66 0
-3792 -3791 -66 0
3792 -3791 66 0
3792 3791 -66 0
-3793 3792 69 0
-3793 -3792 -69 0
3793 -3792 69 0
3793 3792 -69 0
-3794 3793 72 0
-3794 -3793 -72 0
3794 -3793 72 0
3794 3793 -72 0
-3795 3794 73 0
-3795 -3794 -73 0
3795 -3794 73 0
3795 3794 -73 0
-3796 3795 74 0
-3796 -3795 -74 0
3796 -3795 74 0
3796 3795 -74 0
-3797 3796 76 0
-3797 -3796 -76 0
3797 -3796 76 0
3797 3796 -76 0
-3798 3797 77 0
-3798 -3797 -77 0
3798 -3797 77 0
3798 3797 -77 0
-3799 3798 78 0
-3799 -3798 -78 0
3799 -3798 78 0
3799 3798 -78 0
-3800 3799 81 0
-3800 -3799 -81 0
3800 -3799 81 0
3800 3799 -81 0
-3801 3800 90 0
-3801 -3800 -90 0
3801 -3800 90 0
3801 3800 -90 0
-3802 3801 91 0
-3802 -3801 -91 0
3802 -3801 91 0
3802 3801 -91 0
-3803 3802 92 0
-3803 -3802 -92 0
3803 -3802 92 0
3803 3802 -92 0
-3804 3803 94 0
-3804 -3803 -94 0
3804 -3803 94 0
3804 3803 -94 0
-3805 3804 95 0
-3805 -3804 -95 0
3805 -3804 95 0
3805 3804 -95 0
-3806 3805 99 0
-3806 -3805 -99 0
3806 -3805 99 0
3806 3805 -99 0
-3807 3806 101 0
-3807 -3806 -101 0
3807 -3806 101 0
3807 3806 -101 0
-3808 3807 102 0
-3808 -3807 -102 0
3808 -3807 102 0
3808 3807 -102 0
-3809 3808 103 0
-3809 -3808 -103 0
3809 -3808 103 0
3809 3808 -103 0
-3810 3809 105 0
-3810 -3809 -105 0
3810 -3809 105 0
3810 3809 -105 0
-3811 3810 107 0
-3811 -3810 -107 0
3811 -3810 107 0
3811 3810 -107 0
-3812 3811 108 0
-3812 -3811 -108 0
3812 -3811 108 0
3812 3811 -108 0
-3812 0
-3813 39 47 0
-3813 -39 -47 0
3813 -39 47 0
3813 39 -47 0
-3814 3813 52 0
-3814 -3813 -52 0
3814 -3813 52 0
3814 3813 -52 0
-3815 3814 58 0
-3815 -3814 -58 0
3815 -3814 58 0
3815 3814 -58 0
-3816 3815 60 0
-3816 -3815 -60 0
3816 -3815 60 0
3816 3815 -60 0
-3817 3816 63 0
-3817 -3816 -63 0
3817 -3816 63 0
3817 3816 -63 0
-3818 3817 64 0
-3818 -3817 -64 0
3818 -3817 64 0
3818 3817 -64 0
-3819 3818 66 0
-3819 -3818 -66 0
3819 -3818 66 0
3819 3818 -66 0
-3820 3819 67 0
-3820 -3819 -67 0
3820 -3819 67 0
3820 3819 -67 0
-3821 3820 69 0
-3821 -3820 -69 0
3821 -3820 69 0
3821 3820 -69 0
-3822 3821 71 0
-3822 -3821 -71 0
3822 -3821 71 0
3822 3821 -71 0
-3823 3822 72 0
-3823 -3822 -72 0
3823 -3822 72 0
3823 3822 -72 0
-3824 3823 73 0
-3824 -3823 -73 0
3824 -3823 73 0
3824 3823 -73 0
-3825 3824 75 0
-3825 -3824 -75 0
3825 -3824 75 0
3825 3824 -75 0
-3826 3825 76 0
-3826 -3825 -76 0
3826 -3825 76 0
3826 3825 -76 0
-3827 3826 77 0
-3827 -3826 -77 0
3827 -3826 77 0
3827 3826 -77 0
-3828 3827 78 0
-3828 -3827 -78 0
3828 -3827 78 0
3828 3827 -78 0
-3829 3828 79 0
-3829 -3828 -79 0
3829 -3828 79 0
3829 3828 -79 0
-3830 3829 80 0
-3830 -3829 -80 0
3830 -3829 80 0
3830 3829 -80 0
-3831 3830 81 0
-3831 -3830 -81 0
3831 -3830 81 0
3831 3830 -81 0
-3832 3831 82 0
-3832 -3831 -82 0
3832 -3831 82 0
3832 3831 -82 0
-3833 3832 84 0
-3833 -3832 -84 0
3833 -3832 84 0
3833 3832 -84 0
-3834 3833 85 0
-3834 -3833 -85 0
3834 -3833 85 0
3834 3833 -85 0
-3835 3834 86 0
-3835 -3834 -86 0
3835 -3834 86 0
3835 3834 -86 0
-3836 3835 87 0
-3836 -3835 -87 0
3836 -3835 87 0
3836 3835 -87 0
-3837 3836 88 0
-3837 -3836 -88 0
3837 -3836 88 0
3837 3836 -88 0
-3838 3837 90 0
-3838 -3837 -90 0
3838 -3837 90 0
3838 3837 -90 0
-3839 3838 91 0
-3839 -3838 -91 0
3839 -3838 91 0
3839 3838 -91 0
-3840 3839 92 0
-3840 -3839 -92 0
3840 -3839 92 0
3840 3839 -92 0
-3841 3840 93 0
-3841 -3840 -93 0
3841 -3840 93 0
3841 3840 -93 0
-3842 3841 96 0
-3842 -3841 -96 0
3842 -3841 96 0
3842 3841 -96 0
-3843 3842 97 0
-3843 -3842 -97 0
3843 -3842 97 0
3843 3842 -97 0
-3844 3843 99 0
-3844 -3843 -99 0
3844 -3843 99 0
3844 3843 -99 0
-3845 3844 101 0
-3845 -3844 -101 0
3845 -3844 101 0
3845 3844 -101 0
-3846 3845 105 0
-3846 -3845 -105 0
3846 -3845 105 0
3846 3845 -105 0
-3847 3846 106 0
-3847 -3846 -106 0
3847 -3846 106 0
3847 3846 -106 0
-3847 0
-3848 40 48 0
-3848 -40 -48 0
3848 -40 48 0
3848 40 -48 0
-3849 3848 53 0
-3849 -3848 -53 0
3849 -3848 53 0
3849 3848 -53 0
-3850 3849 58 0
-3850 -3849 -58 0
3850 -3849 58 0
3850 3849 -58 0
-3851 3850 59 0
-3851 -3850 -59 0
3851 -3850 59 0
3851 3850 -59 0
-3852 3851 65 0
-3852 -3851 -65 0
3852 -3851 65 0
3852 3851 -65 0
-3853 3852 67 0
-3853 -3852 -67 0
3853 -3852 67 0
3853 3852 -67 0
-3854 3853 69 0
-3854 -3853 -69 0
3854 -3853 69 0
3854 3853 -69 0
-3855 3854 70 0
-3855 -3854 -70 0
3855 -3854 70 0
3855 3854 -70 0
-3856 3855 71 0
-3856 -3855 -71 0
3856 -3855 71 0
3856 3855 -71 0
-3857 3856 74 0
-3857 -3856 -74 0
3857 -3856 74 0
3857 3856 -74 0
-3858 3857 77 0
-3858 -3857 -77 0
3858 -3857 77 0
3858 3857 -77 0
-3859 3858 78 0
-3859 -3858 -78 0
3859 -3858 78 0
3859 3858 -78 0
-3860 3859 80 0
-3860 -3859 -80 0
3860 -3859 80 0
3860 3859 -80 0
-3861 3860 81 0
-3861 -3860 -81 0
3861 -3860 81 0
3861 3860 -81 0
-3862 3861 83 0
-3862 -3861 -83 0
3862 -3861 83 0
3862 3861 -83 0
-3863 3862 85 0
-3863 -3862 -85 0
3863 -3862 85 0
3863 3862 -85 0
-3864 3863 88 0
-3864 -3863 -88 0
3864 -3863 88 0
3864 3863 -88 0
-3865 3864 90 0
-3865 -3864 -90 0
3865 -3864 90 0
3865 3864 -90 0
-3866 3865 92 0
-3866 -3865 -92 0
3866 -3865 92 0
3866 3865 -92 0
-3867 3866 93 0
-3867 -3866 -93 0
3867 -3866 93 0
3867 3866 -93 0
-3868 3867 97 0
-3868 -3867 -97 0
3868 -3867 97 0
3868 3867 -97 0
-3869 3868 98 0
-3869 -3868 -98 0
3869 -3868 98 0
3869 3868 -98 0
-3870 3869 102 0
-3870 -3869 -102 0
3870 -3869 102 0
3870 3869 -102 0
-3871 3870 104 0
-3871 -3870 -104 0
3871 -3870 104 0
3871 3870 -104 0
-3872 3871 105 0
-3872 -3871 -105 0
3872 -3871 105 0
3872 3871 -105 0
-3873 3872 106 0
-3873 -3872 -106 0
3873 -3872 106 0
3873 3872 -106 0
-3874 3873 108 0
-3874 -3873 -108 0
3874 -3873 108 0
3874 3873 -108 0
-3874 0
-3875 41 46 0
-3875 -41 -46 0
3875 -41 46 0
3875 41 -46 0
-3876 3875 54 0
-3876 -3875 -54 0
3876 -3875 54 0
3876 3875 -54 0
-3877 3876 58 0
-3877 -3876 -58 0
3877 -3876 58 0
3877 3876 -58 0
-3878 3877 60 0
-3878 -3877 -60 0
3878 -3877 60 0
3878 3877 -60 0
-3879 3878 62 0
-3879 -3878 -62 0
3879 -3878 62 0
3879 3878 -62 0
-3880 3879 63 0
-3880 -3879 -63 0
3880 -3879 63 0
3880 3879 -63 0
-3881 3880 64 0
-3881 -3880 -64 0
3881 -3880 64 0
3881 3880 -64 0
-3882 3881 68 0
-3882 -3881 -68 0
3882 -3881 68 0
3882 3881 -68 0
-3883 3882 72 0
-3883 -3882 -72 0
3883 -3882 72 0
3883 3882 -72 0
-3884 3883 73 0
-3884 -3883 -73 0
3884 -3883 73 0
3884 3883 -73 0
-3885 3884 74 0
-3885 -3884 -74 0
3885 -3884 74 0
3885 3884 -74 0
-3886 3885 75 0
-3886 -3885 -75 0
3886 -3885 75 0
3886 3885 -75 0
-3887 3886 76 0
-3887 -3886 -76 0
3887 -3886 76 0
3887 3886 -76 0
-3888 3887 78 0
-3888 -3887 -78 0
3888 -3887 78 0
3888 3887 -78 0
-3889 3888 83 0
-3889 -3888 -83 0
3889 -3888 83 0
3889 3888 -83 0
-3890 3889 89 0
-3890 -3889 -89 0
3890 -3889 89 0
3890 3889 -89 0
-3891 3890 91 0
-3891 -3890 -91 0
3891 -3890 91 0
3891 3890 -91 0
-3892 3891 93 0
-3892 -3891 -93 0
3892 -3891 93 0
3892 3891 -93 0
-3893 3892 94 0
-3893 -3892 -94 0
3893 -3892 94 0
3893 3892 -94 0
-3894 3893 95 0
-3894 -3893 -95 0
3894 -3893 95 0
3894 3893 -95 0
-3895 3894 98 0
-3895 -3894 -98 0
3895 -3894 98 0
3895 3894 -98 0
-3896 3895 101 0
-3896 -3895 -101 0
3896 -3895 101 0
3896 3895 -101 0
-3897 3896 102 0
-3897 -3896 -102 0
3897 -3896 102 0
3897 3896 -102 0
-3898 3897 103 0
-3898 -3897 -103 0
3898 -3897 103 0
3898 3897 -103 0
-3899 3898 104 0
-3899 -3898 -104 0
3899 -3898 104 0
3899 3898 -104 0
-3900 3899 105 0
-3900 -3899 -105 0
3900 -3899 105 0
3900 3899 -105 0
-3901 3900 107 0
-3901 -3900 -107 0
3901 -3900 107 0
3901 3900 -107 0
-3901 0
-3902 42 47 0
-3902 -42 -47 0
3902 -42 47 0
3902 42 -47 0
-3903 3902 52 0
-3903 -3902 -52 0
3903 -3902 52 0
3903 3902 -52 0
-3904 3903 66 0
-3904 -3903 -66 0
3904 -3903 66 0
3904 3903 -66 0
-3905 3904 67 0
-3905 -3904 -67 0
3905 -3904 67 0
3905 3904 -67 0
-3906 3905 68 0
-3906 -3905 -68 0
3906 -3905 68 0
3906 3905 -68 0
-3907 3906 69 0
-3907 -3906 -69 0
3907 -3906 69 0
3907 3906 -69 0
-3908 3907 70 0
-3908 -3907 -70 0
3908 -3907 70 0
3908 3907 -70 0
-3909 3908 75 0
-3909 -3908 -75 0
3909 -3908 75 0
3909 3908 -75 0
-3910 3909 76 0
-3910 -3909 -76 0
3910 -3909 76 0
3910 3909 -76 0
-3911 3910 77 0
-3911 -3910 -77 0
3911 -3910 77 0
3911 3910 -77 0
-3912 3911 80 0
-3912 -3911 -80 0
3912 -3911 80 0
3912 3911 -80 0
-3913 3912 81 0
-3913 -3912 -81 0
3913 -3912 81 0
3913 3912 -81 0
-3914 3913 82 0
-3914 -3913 -82 0
3914 -3913 82 0
3914 3913 -82 0
-3915 3914 88 0
-3915 -3914 -88 0
3915 -3914 88 0
3915 3914 -88 0
-3916 3915 89 0
-3916 -3915 -89 0
3916 -3915 89 0
3916 3915 -89 0
-3917 3916 90 0
-3917 -3916 -90 0
3917 -3916 90 0
3917 3916 -90 0
-3918 3917 92 0
-3918 -3917 -92 0
3918 -3917 92 0
3918 3917 -92 0
-3919 3918 96 0
-3919 -3918 -96 0
3919 -3918 96 0
3919 3918 -96 0
-3920 3919 101 0
-3920 -3919 -101 0
3920 -3919 101 0
3920 3919 -101 0
-3921 3920 103 0
-3921 -3920 -103 0
3921 -3920 103 0
3921 3920 -103 0
-3922 3921 104 0
-3922 -3921 -104 0
3922 -3921 104 0
3922 3921 -104 0
-3923 3922 105 0
-3923 -3922 -105 0
3923 -3922 105 0
3923 3922 -105 0
-3924 3923 106 0
-3924 -3923 -106 0
3924 -3923 106 0
3924 3923 -106 0
-3925 3924 107 0
-3925 -3924 -107 0
3925 -3924 107 0
3925 3924 -107 0
-3926 3925 108 0
-3926 -3925 -108 0
3926 -3925 108 0
3926 3925 -108 0
-3926 0
-3927 43 46 0
-3927 -43 -46 0
3927 -43 46 0
3927 43 -46 0
-3928 3927 58 0
-3928 -3927 -58 0
3928 -3927 58 0
3928 3927 -58 0
-3929 3928 59 0
-3929 -3928 -59 0
3929 -3928 59 0
3929 3928 -59 0
-3930 3929 62 0
-3930 -3929 -62 0
3930 -3929 62 0
3930 3929 -62 0
-3931 3930 63 0
-3931 -3930 -63 0
3931 -3930 63 0
3931 3930 -63 0
-3932 3931 64 0
-3932 -3931 -64 0
3932 -3931 64 0
3932 3931 -64 0
-3933 3932 66 0
-3933 -3932 -66 0
3933 -3932 66 0
3933 3932 -66 0
-3934 3933 70 0
-3934 -3933 -70 0
3934 -3933 70 0
3934 3933 -70 0
-3935 3934 71 0
-3935 -3934 -71 0
3935 -3934 71 0
3935 3934 -71 0
-3936 3935 74 0
-3936 -3935 -74 0
3936 -3935 74 0
3936 3935 -74 0
-3937 3936 76 0
-3937 -3936 -76 0
3937 -3936 76 0
3937 3936 -76 0
-3938 3937 81 0
-3938 -3937 -81 0
3938 -3937 81 0
3938 3937 -81 0
-3939 3938 82 0
-3939 -3938 -82 0
3939 -3938 82 0
3939 3938 -82 0
-3940 3939 83 0
-3940 -3939 -83 0
3940 -3939 83 0
3940 3939 -83 0
-3941 3940 84 0
-3941 -3940 -84 0
3941 -3940 84 0
3941 3940 -84 0
-3942 3941 85 0
-3942 -3941 -85 0
3942 -3941 85 0
3942 3941 -85 0
-3943 3942 86 0
-3943 -3942 -86 0
3943 -3942 86 0
3943 3942 -86 0
-3944 3943 91 0
-3944 -3943 -91 0
3944 -3943 91 0
3944 3943 -91 0
-3945 3944 95 0
-3945 -3944 -95 0
3945 -3944 95 0
3945 3944 -95 0
-3946 3945 97 0
-3946 -3945 -97 0
3946 -3945 97 0
3946 3945 -97 0
-3947 3946 99 0
-3947 -3946 -99 0
3947 -3946 99 0
3947 3946 -99 0
-3948 3947 101 0
-3948 -3947 -101 0
3948 -3947 101 0
3948 3947 -101 0
-3949 3948 102 0
-3949 -3948 -102 0
3949 -3948 102 0
3949 3948 -102 0
-3950 3949 104 0
-3950 -3949 -104 0
3950 -3949 104 0
3950 3949 -104 0
-3951 3950 106 0
-3951 -3950 -106 0
3951 -3950 106 0
3951 3950 -106 0
-3951 0
-3952 44 47 0
-3952 -44 -47 0
3952 -44 47 0
3952 44 -47 0
-3953 3952 59 0
-3953 -3952 -59 0
3953 -3952 59 0
3953 3952 -59 0
-3954 3953 60 0
-3954 -3953 -60 0
3954 -3953 60 0
3954 3953 -60 0
-3955 3954 62 0
-3955 -3954 -62 0
3955 -3954 62 0
3955 3954 -62 0
-3956 3955 66 0
-3956 -3955 -66 0
3956 -3955 66 0
3956 3955 -66 0
-3957 3956 67 0
-3957 -3956 -67 0
3957 -3956 67 0
3957 3956 -67 0
-3958 3957 68 0
-3958 -3957 -68 0
3958 -3957 68 0
3958 3957 -68 0
-3959 3958 69 0
-3959 -3958 -69 0
3959 -3958 69 0
3959 3958 -69 0
-3960 3959 70 0
-3960 -3959 -70 0
3960 -3959 70 0
3960 3959 -70 0
-3961 3960 75 0
-3961 -3960 -75 0
3961 -3960 75 0
3961 3960 -75 0
-3962 3961 77 0
-3962 -3961 -77 0
3962 -3961 77 0
3962 3961 -77 0
-3963 3962 80 0
-3963 -3962 -80 0
3963 -3962 80 0
3963 3962 -80 0
-3964 3963 81 0
-3964 -3963 -81 0
3964 -3963 81 0
3964 3963 -81 0
-3965 3964 85 0
-3965 -3964 -85 0
3965 -3964 85 0
3965 3964 -85 0
-3966 3965 88 0
-3966 -3965 -88 0
3966 -3965 88 0
3966 3965 -88 0
-3967 3966 89 0
-3967 -3966 -89 0
3967 -3966 89 0
3967 3966 -89 0
-3968 3967 90 0
-3968 -3967 -90 0
3968 -3967 90 0
3968 3967 -90 0
-3969 3968 92 0
-3969 -3968 -92 0
3969 -3968 92 0
3969 3968 -92 0
-3970 3969 96 0
-3970 -3969 -96 0
3970 -3969 96 0
3970 3969 -96 0
-3971 3970 99 0
-3971 -3970 -99 0
3971 -3970 99 0
3971 3970 -99 0
-3972 3971 101 0
-3972 -3971 -101 0
3972 -3971 101 0
3972 3971 -101 0
-3973 3972 103 0
-3973 -3972 -103 0
3973 -3972 103 0
3973 3972 -103 0
-3974 3973 104 0
-3974 -3973 -104 0
3974 -3973 104 0
3974 3973 -104 0
-3975 3974 106 0
-3975 -3974 -106 0
3975 -3974 106 0
3975 3974 -106 0
-3976 3975 108 0
-3976 -3975 -108 0
3976 -3975 108 0
3976 3975 -108 0
-3976 0
-3977 45 48 0
-3977 -45 -48 0
3977 -45 48 0
3977 45 -48 0
-3978 3977 58 0
-3978 -3977 -58 0
3978 -3977 58 0
3978 3977 -58 0
-3979 3978 60 0
-3979 -3978 -60 0
3979 -3978 60 0
3979 3978 -60 0
-3980 3979 63 0
-3980 -3979 -63 0
3980 -3979 63 0
3980 3979 -63 0
-3981 3980 64 0
-3981 -3980 -64 0
3981 -3980 64 0
3981 3980 -64 0
-3982 3981 70 0
-3982 -3981 -70 0
3982 -3981 70 0
3982 3981 -70 0
-3983 3982 72 0
-3983 -3982 -72 0
3983 -3982 72 0
3983 3982 -72 0
-3984 3983 73 0
-3984 -3983 -73 0
3984 -3983 73 0
3984 3983 -73 0
-3985 3984 78 0
-3985 -3984 -78 0
3985 -3984 78 0
3985 3984 -78 0
-3986 3985 79 0
-3986 -3985 -79 0
3986 -3985 79 0
3986 3985 -79 0
-3987 3986 81 0
-3987 -3986 -81 0
3987 -3986 81 0
3987 3986 -81 0
-3988 3987 85 0
-3988 -3987 -85 0
3988 -3987 85 0
3988 3987 -85 0
-3989 3988 87 0
-3989 -3988 -87 0
3989 -3988 87 0
3989 3988 -87 0
-3990 3989 93 0
-3990 -3989 -93 0
3990 -3989 93 0
3990 3989 -93 0
-3991 3990 94 0
-3991 -3990 -94 0
3991 -3990 94 0
3991 3990 -94 0
-3992 3991 97 0
-3992 -3991 -97 0
3992 -3991 97 0
3992 3991 -97 0
-3993 3992 102 0
-3993 -3992 -102 0
3993 -3992 102 0
3993 3992 -102 0
-3994 3993 103 0
-3994 -3993 -103 0
3994 -3993 103 0
3994 3993 -103 0
-3995 3994 108 0
-3995 -3994 -108 0
3995 -3994 108 0
3995 3994 -108 0
-3995 0
-3996 49 52 0
-3996 -49 -52 0
3996 -49 52 0
3996 49 -52 0
-3997 3996 58 0
-3997 -3996 -58 0
3997 -3996 58 0
3997 3996 -58 0
-3998 3997 59 0
-3998 -3997 -59 0
3998 -3997 59 0
3998 3997 -59 0
-3999 3998 62 0
-3999 -3998 -62 0
3999 -3998 62 0
3999 3998 -62 0
-4000 3999 64 0
-4000 -3999 -64 0
4000 -3999 64 0
4000 3999 -64 0
-4001 4000 67 0
-4001 -4000 -67 0
4001 -4000 67 0
4001 4000 -67 0
-4002 4001 68 0
-4002 -4001 -68 0
4002 -4001 68 0
4002 4001 -68 0
-4003 4002 74 0
-4003 -4002 -74 0
4003 -4002 74 0
4003 4002 -74 0
-4004 4003 76 0
-4004 -4003 -76 0
4004 -4003 76 0
4004 4003 -76 0
-4005 4004 82 0
-4005 -4004 -82 0
4005 -4004 82 0
4005 4004 -82 0
-4006 4005 83 0
-4006 -4005 -83 0
4006 -4005 83 0
4006 4005 -83 0
-4007 4006 85 0
-4007 -4006 -85 0
4007 -4006 85 0
4007 4006 -85 0
-4008 4007 89 0
-4008 -4007 -89 0
4008 -4007 89 0
4008 4007 -89 0
-4009 4008 91 0
-4009 -4008 -91 0
4009 -4008 91 0
4009 4008 -91 0
-4010 4009 95 0
-4010 -4009 -95 0
4010 -4009 95 0
4010 4009 -95 0
-4011 4010 97 0
-4011 -4010 -97 0
4011 -4010 97 0
4011 4010 -97 0
-4012 4011 98 0
-4012 -4011 -98 0
4012 -4011 98 0
4012 4011 -98 0
-4013 4012 106 0
-4013 -4012 -106 0
4013 -4012 106 0
4013 4012 -106 0
-4014 4013 107 0
-4014 -4013 -107 0
4014 -4013 107 0
4014 4013 -107 0
-4014 0
-4015 50 53 0
-4015 -50 -53 0
4015 -50 53 0
4015 50 -53 0
-4016 4015 59 0
-4016 -4015 -59 0
4016 -4015 59 0
4016 4015 -59 0
-4017 4016 60 0
-4017 -4016 -60 0
4017 -4016 60 0
4017 4016 -60 0
-4018 4017 63 0
-4018 -4017 -63 0
4018 -4017 63 0
4018 4017 -63 0
-4019 4018 65 0
-4019 -4018 -65 0
4019 -4018 65 0
4019 4018 -65 0
-4020 4019 68 0
-4020 -4019 -68 0
4020 -4019 68 0
4020 4019 -68 0
-4021 4020 69 0
-4021 -4020 -69 0
4021 -4020 69 0
4021 4020 -69 0
-4022 4021 75 0
-4022 -4021 -75 0
4022 -4021 75 0
4022 4021 -75 0
-4023 4022 77 0
-4023 -4022 -77 0
4023 -4022 77 0
4023 4022 -77 0
-4024 4023 83 0
-4024 -4023 -83 0
4024 -4023 83 0
4024 4023 -83 0
-4025 4024 84 0
-4025 -4024 -84 0
4025 -4024 84 0
4025 4024 -84 0
-4026 4025 86 0
-4026 -4025 -86 0
4026 -4025 86 0
4026 4025 -86 0
-4027 4026 90 0
-4027 -4026 -90 0
4027 -4026 90 0
4027 4026 -90 0
-4028 4027 92 0
-4028 -4027 -92 0
4028 -4027 92 0
4028 4027 -92 0
-4029 4028 96 0
-4029 -4028 -96 0
4029 -4028 96 0
4029 4028 -96 0
-4030 4029 98 0
-4030 -4029 -98 0
4030 -4029 98 0
4030 4029 -98 0
-4031 4030 99 0
-4031 -4030 -99 0
4031 -4030 99 0
4031 4030 -99 0
-4032 4031 107 0
-4032 -4031 -107 0
4032 -4031 107 0
4032 4031 -107 0
-4033 4032 108 0
-4033 -4032 -108 0
4033 -4032 108 0
4033 4032 -108 0
-4033 0
-4034 51 54 0
-4034 -51 -54 0
4034 -51 54 0
4034 51 -54 0
-4035 4034 58 0
-4035 -4034 -58 0
4035 -4034 58 0
4035 4034 -58 0
-4036 4035 60 0
-4036 -4035 -60 0
4036 -4035 60 0
4036 4035 -60 0
-4037 4036 62 0
-4037 -4036 -62 0
4037 -4036 62 0
4037 4036 -62 0
-4038 4037 63 0
-4038 -4037 -63 0
4038 -4037 63 0
4038 4037 -63 0
-4039 4038 64 0
-4039 -4038 -64 0
4039 -4038 64 0
4039 4038 -64 0
-4040 4039 65 0
-4040 -4039 -65 0
4040 -4039 65 0
4040 4039 -65 0
-4041 4040 67 0
-4041 -4040 -67 0
4041 -4040 67 0
4041 4040 -67 0
-4042 4041 69 0
-4042 -4041 -69 0
4042 -4041 69 0
4042 4041 -69 0
-4043 4042 73 0
-4043 -4042 -73 0
4043 -4042 73 0
4043 4042 -73 0
-4044 4043 78 0
-4044 -4043 -78 0
4044 -4043 78 0
4044 4043 -78 0
-4045 4044 79 0
-4045 -4044 -79 0
4045 -4044 79 0
4045 4044 -79 0
-4046 4045 80 0
-4046 -4045 -80 0
4046 -4045 80 0
4046 4045 -80 0
-4047 4046 81 0
-4047 -4046 -81 0
4047 -4046 81 0
4047 4046 -81 0
-4048 4047 83 0
-4048 -4047 -83 0
4048 -4047 83 0
4048 4047 -83 0
-4049 4048 87 0
-4049 -4048 -87 0
4049 -4048 87 0
4049 4048 -87 0
-4050 4049 88 0
-4050 -4049 -88 0
4050 -4049 88 0
4050 4049 -88 0
-4051 4050 93 0
-4051 -4050 -93 0
4051 -4050 93 0
4051 4050 -93 0
-4052 4051 94 0
-4052 -4051 -94 0
4052 -4051 94 0
4052 4051 -94 0
-4053 4052 98 0
-4053 -4052 -98 0
4053 -4052 98 0
4053 4052 -98 0
-4054 4053 100 0
-4054 -4053 -100 0
4054 -4053 100 0
4054 4053 -100 0
-4055 4054 101 0
-4055 -4054 -101 0
4055 -4054 101 0
4055 4054 -101 0
-4056 4055 102 0
-4056 -4055 -102 0
4056 -4055 102 0
4056 4055 -102 0
-4057 4056 106 0
-4057 -4056 -106 0
4057 -4056 106 0
4057 4056 -106 0
-4058 4057 108 0
-4058 -4057 -108 0
4058 -4057 108 0
4058 4057 -108 0
-4058 0
-4059 55 58 0
-4059 -55 -58 0
4059 -55 58 0
4059 55 -58 0
-4060 4059 62 0
-4060 -4059 -62 0
4060 -4059 62 0
4060 4059 -62 0
-4061 4060 63 0
-4061 -4060 -63 0
4061 -4060 63 0
4061 4060 -63 0
-4062 4061 65 0
-4062 -4061 -65 0
4062 -4061 65 0
4062 4061 -65 0
-4063 4062 66 0
-4063 -4062 -66 0
4063 -4062 66 0
4063 4062 -66 0
-4064 4063 67 0
-4064 -4063 -67 0
4064 -4063 67 0
4064 4063 -67 0
-4065 4064 70 0
-4065 -4064 -70 0
4065 -4064 70 0
4065 4064 -70 0
-4066 4065 73 0
-4066 -4065 -73 0
4066 -4065 73 0
4066 4065 -73 0
-4067 4066 76 0
-4067 -4066 -76 0
4067 -4066 76 0
4067 4066 -76 0
-4068 4067 80 0
-4068 -4067 -80 0
4068 -4067 80 0
4068 4067 -80 0
-4069 4068 81 0
-4069 -4068 -81 0
4069 -4068 81 0
4069 4068 -81 0
-4070 4069 83 0
-4070 -4069 -83 0
4070 -4069 83 0
4070 4069 -83 0
-4071 4070 84 0
-4071 -4070 -84 0
4071 -4070 84 0
4071 4070 -84 0
-4072 4071 85 0
-4072 -4071 -85 0
4072 -4071 85 0
4072 4071 -85 0
-4073 4072 88 0
-4073 -4072 -88 0
4073 -4072 88 0
4073 4072 -88 0
-4074 4073 91 0
-4074 -4073 -91 0
4074 -4073 91 0
4074 4073 -91 0
-4075 4074 94 0
-4075 -4074 -94 0
4075 -4074 94 0
4075 4074 -94 0
-4076 4075 98 0
-4076 -4075 -98 0
4076 -4075 98 0
4076 4075 -98 0
-4077 4076 99 0
-4077 -4076 -99 0
4077 -4076 99 0
4077 4076 -99 0
-4078 4077 101 0
-4078 -4077 -101 0
4078 -4077 101 0
4078 4077 -101 0
-4079 4078 102 0
-4079 -4078 -102 0
4079 -4078 102 0
4079 4078 -102 0
-4080 4079 103 0
-4080 -4079 -103 0
4080 -4079 103 0
4080 4079 -103 0
-4081 4080 106 0
-4081 -4080 -106 0
4081 -4080 106 0
4081 4080 -106 0
-4081 0
-4082 56 59 0
-4082 -56 -59 0
4082 -56 59 0
4082 56 -59 0
-4083 4082 62 0
-4083 -4082 -62 0
4083 -4082 62 0
4083 4082 -62 0
-4084 4083 65 0
-4084 -4083 -65 0
4084 -4083 65 0
4084 4083 -65 0
-4085 4084 67 0
-4085 -4084 -67 0
4085 -4084 67 0
4085 4084 -67 0
-4086 4085 69 0
-4086 -4085 -69 0
4086 -4085 69 0
4086 4085 -69 0
-4087 4086 70 0
-4087 -4086 -70 0
4087 -4086 70 0
4087 4086 -70 0
-4088 4087 72 0
-4088 -4087 -72 0
4088 -4087 72 0
4088 4087 -72 0
-4089 4088 74 0
-4089 -4088 -74 0
4089 -4088 74 0
4089 4088 -74 0
-4090 4089 77 0
-4090 -4089 -77 0
4090 -4089 77 0
4090 4089 -77 0
-4091 4090 80 0
-4091 -4090 -80 0
4091 -4090 80 0
4091 4090 -80 0
-4092 4091 83 0
-4092 -4091 -83 0
4092 -4091 83 0
4092 4091 -83 0
-4093 4092 85 0
-4093 -4092 -85 0
4093 -4092 85 0
4093 4092 -85 0
-4094 4093 87 0
-4094 -4093 -87 0
4094 -4093 87 0
4094 4093 -87 0
-4095 4094 88 0
-4095 -4094 -88 0
4095 -4094 88 0
4095 4094 -88 0
-4096 4095 90 0
-4096 -4095 -90 0
4096 -4095 90 0
4096 4095 -90 0
-4097 4096 92 0
-4097 -4096 -92 0
4097 -4096 92 0
4097 4096 -92 0
-4098 4097 95 0
-4098 -4097 -95 0
4098 -4097 95 0
4098 4097 -95 0
-4099 4098 98 0
-4099 -4098 -98 0
4099 -4098 98 0
4099 4098 -98 0
-4100 4099 101 0
-4100 -4099 -101 0
4100 -4099 101 0
4100 4099 -101 0
-4101 4100 103 0
-4101 -4100 -103 0
4101 -4100 103 0
4101 4100 -103 0
-4102 4101 105 0
-4102 -4101 -105 0
4102 -4101 105 0
4102 4101 -105 0
-4103 4102 106 0
-4103 -4102 -106 0
4103 -4102 106 0
4103 4102 -106 0
-4104 4103 108 0
-4104 -4103 -108 0
4104 -4103 108 0
4104 4103 -108 0
-4104 0
-4105 57 60 0
-4105 -57 -60 0
4105 -57 60 0
4105 57 -60 0
-4106 4105 63 0
-4106 -4105 -63 0
4106 -4105 63 0
4106 4105 -63 0
-4107 4106 66 0
-4107 -4106 -66 0
4107 -4106 66 0
4107 4106 -66 0
-4108 4107 67 0
-4108 -4107 -67 0
4108 -4107 67 0
4108 4107 -67 0
-4109 4108 68 0
-4109 -4108 -68 0
4109 -4108 68 0
4109 4108 -68 0
-4110 4109 70 0
-4110 -4109 -70 0
4110 -4109 70 0
4110 4109 -70 0
-4111 4110 71 0
-4111 -4110 -71 0
4111 -4110 71 0
4111 4110 -71 0
-4112 4111 75 0
-4112 -4111 -75 0
4112 -4111 75 0
4112 4111 -75 0
-4113 4112 78 0
-4113 -4112 -78 0
4113 -4112 78 0
4113 4112 -78 0
-4114 4113 81 0
-4114 -4113 -81 0
4114 -4113 81 0
4114 4113 -81 0
-4115 4114 84 0
-4115 -4114 -84 0
4115 -4114 84 0
4115 4114 -84 0
-4116 4115 85 0
-4116 -4115 -85 0
4116 -4115 85 0
4116 4115 -85 0
-4117 4116 86 0
-4117 -4116 -86 0
4117 -4116 86 0
4117 4116 -86 0
-4118 4117 88 0
-4118 -4117 -88 0
4118 -4117 88 0
4118 4117 -88 0
-4119 4118 89 0
-4119 -4118 -89 0
4119 -4118 89 0
4119 4118 -89 0
-4120 4119 93 0
-4120 -4119 -93 0
4120 -4119 93 0
4120 4119 -93 0
-4121 4120 96 0
-4121 -4120 -96 0
4121 -4120 96 0
4121 4120 -96 0
-4122 4121 99 0
-4122 -4121 -99 0
4122 -4121 99 0
4122 4121 -99 0
-4123 4122 102 0
-4123 -4122 -102 0
4123 -4122 102 0
4123 4122 -102 0
-4124 4123 103 0
-4124 -4123 -103 0
4124 -4123 103 0
4124 4123 -103 0
-4125 4124 104 0
-4125 -4124 -104 0
4125 -4124 104 0
4125 4124 -104 0
-4126 4125 106 0
-4126 -4125 -106 0
4126 -4125 106 0
4126 4125 -106 0
-4127 4126 107 0
-4127 -4126 -107 0
4127 -4126 107 0
4127 4126 -107 0
-4127 0
-4128 61 62 0
-4128 -61 -62 0
4128 -61 62 0
4128 61 -62 0
-4129 4128 63 0
-4129 -4128 -63 0
4129 -4128 63 0
4129 4128 -63 0
-4130 4129 64 0
-4130 -4129 -64 0
4130 -4129 64 0
4130 4129 -64 0
-4131 4130 65 0
-4131 -4130 -65 0
4131 -4130 65 0
4131 4130 -65 0
-4132 4131 66 0
-4132 -4131 -66 0
4132 -4131 66 0
4132 4131 -66 0
-4133 4132 67 0
-4133 -4132 -67 0
4133 -4132 67 0
4133 4132 -67 0
-4134 4133 68 0
-4134 -4133 -68 0
4134 -4133 68 0
4134 4133 -68 0
-4135 4134 69 0
-4135 -4134 -69 0
4135 -4134 69 0
4135 4134 -69 0
-4136 4135 70 0
-4136 -4135 -70 0
4136 -4135 70 0
4136 4135 -70 0
-4137 4136 71 0
-4137 -4136 -71 0
4137 -4136 71 0
4137 4136 -71 0
-4138 4137 72 0
-4138 -4137 -72 0
4138 -4137 72 0
4138 4137 -72 0
-4139 4138 79 0
-4139 -4138 -79 0
4139 -4138 79 0
4139 4138 -79 0
-4140 4139 80 0
-4140 -4139 -80 0
4140 -4139 80 0
4140 4139 -80 0
-4141 4140 81 0
-4141 -4140 -81 0
4141 -4140 81 0
4141 4140 -81 0
-4142 4141 82 0
-4142 -4141 -82 0
4142 -4141 82 0
4142 4141 -82 0
-4143 4142 83 0
-4143 -4142 -83 0
4143 -4142 83 0
4143 4142 -83 0
-4144 4143 84 0
-4144 -4143 -84 0
4144 -4143 84 0
4144 4143 -84 0
-4145 4144 85 0
-4145 -4144 -85 0
4145 -4144 85 0
4145 4144 -85 0
-4146 4145 86 0
-4146 -4145 -86 0
4146 -4145 86 0
4146 4145 -86 0
-4147 4146 87 0
-4147 -4146 -87 0
4147 -4146 87 0
4147 4146 -87 0
-4148 4147 88 0
-4148 -4147 -88 0
4148 -4147 88 0
4148 4147 -88 0
-4149 4148 89 0
-4149 -4148 -89 0
4149 -4148 89 0
4149 4148 -89 0
-4150 4149 90 0
-4150 -4149 -90 0
4150 -4149 90 0
4150 4149 -90 0
-4151 4150 97 0
-4151 -4150 -97 0
4151 -4150 97 0
4151 4150 -97 0
-4152 4151 98 0
-4152 -4151 -98 0
4152 -4151 98 0
4152 4151 -98 0
-4153 4152 99 0
-4153 -4152 -99 0
4153 -4152 99 0
4153 4152 -99 0
-4154 4153 100 0
-4154 -4153 -100 0
4154 -4153 100 0
4154 4153 -100 0
-4155 4154 101 0
-4155 -4154 -101 0
4155 -4154 101 0
4155 4154 -101 0
-4156 4155 102 0
-4156 -4155 -102 0
4156 -4155 102 0
4156 4155 -102 0
-4157 4156 103 0
-4157 -4156 -103 0
4157 -4156 103 0
4157 4156 -103 0
-4158 4157 104 0
-4158 -4157 -104 0
4158 -4157 104 0
4158 4157 -104 0
-4159 4158 105 0
-4159 -4158 -105 0
4159 -4158 105 0
4159 4158 -105 0
-4160 4159 106 0
-4160 -4159 -106 0
4160 -4159 106 0
4160 4159 -106 0
-4161 4160 107 0
-4161 -4160 -107 0
4161 -4160 107 0
4161 4160 -107 0
-4162 4161 108 0
-4162 -4161 -108 0
4162 -4161 108 0
4162 4161 -108 0
-4162 0
-4164 109 111 0
-4164 -109 -111 0
4164 -109 111 0
4164 109 -111 0
-4165 4164 112 0
-4165 -4164 -112 0
4165 -4164 112 0
4165 4164 -112 0
-4166 4165 114 0
-4166 -4165 -114 0
4166 -4165 114 0
4166 4165 -114 0
-4167 4166 115 0
-4167 -4166 -115 0
4167 -4166 115 0
4167 4166 -115 0
-4168 4167 116 0
-4168 -4167 -116 0
4168 -4167 116 0
4168 4167 -116 0
-4169 4168 118 0
-4169 -4168 -118 0
4169 -4168 118 0
4169 4168 -118 0
-4170 4169 119 0
-4170 -4169 -119 0
4170 -4169 119 0
4170 4169 -119 0
-4171 4170 122 0
-4171 -4170 -122 0
4171 -4170 122 0
4171 4170 -122 0
-4172 4171 123 0
-4172 -4171 -123 0
4172 -4171 123 0
4172 4171 -123 0
-4173 4172 125 0
-4173 -4172 -125 0
4173 -4172 125 0
4173 4172 -125 0
-4174 4173 126 0
-4174 -4173 -126 0
4174 -4173 126 0
4174 4173 -126 0
-4175 4174 127 0
-4175 -4174 -127 0
4175 -4174 127 0
4175 4174 -127 0
-4176 4175 128 0
-4176 -4175 -128 0
4176 -4175 128 0
4176 4175 -128 0
-4177 4176 130 0
-4177 -4176 -130 0
4177 -4176 130 0
4177 4176 -130 0
-4178 4177 131 0
-4178 -4177 -131 0
4178 -4177 131 0
4178 4177 -131 0
-4179 4178 134 0
-4179 -4178 -134 0
4179 -4178 134 0
4179 4178 -134 0
-4180 4179 135 0
-4180 -4179 -135 0
4180 -4179 135 0
4180 4179 -135 0
-4181 4180 137 0
-4181 -4180 -137 0
4181 -4180 137 0
4181 4180 -137 0
-4182 4181 138 0
-4182 -4181 -138 0
4182 -4181 138 0
4182 4181 -138 0
-4183 4182 139 0
-4183 -4182 -139 0
4183 -4182 139 0
4183 4182 -139 0
-4184 4183 141 0
-4184 -4183 -141 0
4184 -4183 141 0
4184 4183 -141 0
-4185 4184 142 0
-4185 -4184 -142 0
4185 -4184 142 0
4185 4184 -142 0
-4186 4185 144 0
-4186 -4185 -144 0
4186 -4185 144 0
4186 4185 -144 0
-4187 4186 163 0
-4187 -4186 -163 0
4187 -4186 163 0
4187 4186 -163 0
-4188 4187 164 0
-4188 -4187 -164 0
4188 -4187 164 0
4188 4187 -164 0
-4189 4188 166 0
-4189 -4188 -166 0
4189 -4188 166 0
4189 4188 -166 0
-4190 4189 167 0
-4190 -4189 -167 0
4190 -4189 167 0
4190 4189 -167 0
-4191 4190 170 0
-4191 -4190 -170 0
4191 -4190 170 0
4191 4190 -170 0
-4192 4191 171 0
-4192 -4191 -171 0
4192 -4191 171 0
4192 4191 -171 0
-4193 4192 173 0
-4193 -4192 -173 0
4193 -4192 173 0
4193 4192 -173 0
-4194 4193 174 0
-4194 -4193 -174 0
4194 -4193 174 0
4194 4193 -174 0
-4195 4194 175 0
-4195 -4194 -175 0
4195 -4194 175 0
4195 4194 -175 0
-4196 4195 177 0
-4196 -4195 -177 0
4196 -4195 177 0
4196 4195 -177 0
-4197 4196 178 0
-4197 -4196 -178 0
4197 -4196 178 0
4197 4196 -178 0
-4198 4197 180 0
-4198 -4197 -180 0
4198 -4197 180 0
4198 4197 -180 0
-4199 4198 182 0
-4199 -4198 -182 0
4199 -4198 182 0
4199 4198 -182 0
-4200 4199 183 0
-4200 -4199 -183 0
4200 -4199 183 0
4200 4199 -183 0
-4201 4200 185 0
-4201 -4200 -185 0
4201 -4200 185 0
4201 4200 -185 0
-4202 4201 186 0
-4202 -4201 -186 0
4202 -4201 186 0
4202 4201 -186 0
-4203 4202 187 0
-4203 -4202 -187 0
4203 -4202 187 0
4203 4202 -187 0
-4204 4203 189 0
-4204 -4203 -189 0
4204 -4203 189 0
4204 4203 -189 0
-4205 4204 190 0
-4205 -4204 -190 0
4205 -4204 190 0
4205 4204 -190 0
-4206 4205 192 0
-4206 -4205 -192 0
4206 -4205 192 0
4206 4205 -192 0
-4207 4206 193 0
-4207 -4206 -193 0
4207 -4206 193 0
4207 4206 -193 0
-4208 4207 194 0
-4208 -4207 -194 0
4208 -4207 194 0
4208 4207 -194 0
-4209 4208 196 0
-4209 -4208 -196 0
4209 -4208 196 0
4209 4208 -196 0
-4210 4209 197 0
-4210 -4209 -197 0
4210 -4209 197 0
4210 4209 -197 0
-4163 4210 0
4163 -4210 0
-4212 110 111 0
-4212 -110 -111 0
4212 -110 111 0
4212 110 -111 0
-4213 4212 113 0
-4213 -4212 -113 0
4213 -4212 113 0
4213 4212 -113 0
-4214 4213 114 0
-4214 -4213 -114 0
4214 -4213 114 0
4214 4213 -114 0
-4215 4214 115 0
-4215 -4214 -115 0
4215 -4214 115 0
4215 4214 -115 0
-4216 4215 117 0
-4216 -4215 -117 0
4216 -4215 117 0
4216 4215 -117 0
-4217 4216 118 0
-4217 -4216 -118 0
4217 -4216 118 0
4217 4216 -118 0
-4218 4217 120 0
-4218 -4217 -120 0
4218 -4217 120 0
4218 4217 -120 0
-4219 4218 121 0
-4219 -4218 -121 0
4219 -4218 121 0
4219 4218 -121 0
-4220 4219 122 0
-4220 -4219 -122 0
4220 -4219 122 0
4220 4219 -122 0
-4221 4220 124 0
-4221 -4220 -124 0
4221 -4220 124 0
4221 4220 -124 0
-4222 4221 125 0
-4222 -4221 -125 0
4222 -4221 125 0
4222 4221 -125 0
-4223 4222 127 0
-4223 -4222 -127 0
4223 -4222 127 0
4223 4222 -127 0
-4224 4223 129 0
-4224 -4223 -129 0
4224 -4223 129 0
4224 4223 -129 0
-4225 4224 130 0
-4225 -4224 -130 0
4225 -4224 130 0
4225 4224 -130 0
-4226 4225 132 0
-4226 -4225 -132 0
4226 -4225 132 0
4226 4225 -132 0
-4227 4226 133 0
-4227 -4226 -133 0
4227 -4226 133 0
4227 4226 -133 0
-4228 4227 134 0
-4228 -4227 -134 0
4228 -4227 134 0
4228 4227 -134 0
-4229 4228 136 0
-4229 -4228 -136 0
4229 -4228 136 0
4229 4228 -136 0
-4230 4229 137 0
-4230 -4229 -137 0
4230 -4229 137 0
4230 4229 -137 0
-4231 4230 140 0
-4231 -4230 -140 0
4231 -4230 140 0
4231 4230 -140 0
-4232 4231 141 0
-4232 -4231 -141 0
4232 -4231 141 0
4232 4231 -141 0
-4233 4232 143 0
-4233 -4232 -143 0
4233 -4232 143 0
4233 4232 -143 0
-4234 4233 144 0
-4234 -4233 -144 0
4234 -4233 144 0
4234 4233 -144 0
-4235 4234 163 0
-4235 -4234 -163 0
4235 -4234 163 0
4235 4234 -163 0
-4236 4235 165 0
-4236 -4235 -165 0
4236 -4235 165 0
4236 4235 -165 0
-4237 4236 166 0
-4237 -4236 -166 0
4237 -4236 166 0
4237 4236 -166 0
-4238 4237 168 0
-4238 -4237 -168 0
4238 -4237 168 0
4238 4237 -168 0
-4239 4238 169 0
-4239 -4238 -169 0
4239 -4238 169 0
4239 4238 -169 0
-4240 4239 170 0
-4240 -4239 -170 0
4240 -4239 170 0
4240 4239 -170 0
-4241 4240 172 0
-4241 -4240 -172 0
4241 -4240 172 0
4241 4240 -172 0
-4242 4241 173 0
-4242 -4241 -173 0
4242 -4241 173 0
4242 4241 -173 0
-4243 4242 176 0
-4243 -4242 -176 0
4243 -4242 176 0
4243 4242 -176 0
-4244 4243 177 0
-4244 -4243 -177 0
4244 -4243 177 0
4244 4243 -177 0
-4245 4244 179 0
-4245 -4244 -179 0
4245 -4244 179 0
4245 4244 -179 0
-4246 4245 180 0
-4246 -4245 -180 0
4246 -4245 180 0
4246 4245 -180 0
-4247 4246 181 0
-4247 -4246 -181 0
4247 -4246 181 0
4247 4246 -181 0
-4248 4247 182 0
-4248 -4247 -182 0
4248 -4247 182 0
4248 4247 -182 0
-4249 4248 184 0
-4249 -4248 -184 0
4249 -4248 184 0
4249 4248 -184 0
-4250 4249 185 0
-4250 -4249 -185 0
4250 -4249 185 0
4250 4249 -185 0
-4251 4250 188 0
-4251 -4250 -188 0
4251 -4250 188 0
4251 4250 -188 0
-4252 4251 189 0
-4252 -4251 -189 0
4252 -4251 189 0
4252 4251 -189 0
-4253 4252 191 0
-4253 -4252 -191 0
4253 -4252 191 0
4253 4252 -191 0
-4254 4253 192 0
-4254 -4253 -192 0
4254 -4253 192 0
4254 4253 -192 0
-4255 4254 193 0
-4255 -4254 -193 0
4255 -4254 193 0
4255 4254 -193 0
-4256 4255 195 0
-4256 -4255 -195 0
4256 -4255 195 0
4256 4255 -195 0
-4257 4256 196 0
-4257 -4256 -196 0
4257 -4256 196 0
4257 4256 -196 0
-4258 4257 198 0
-4258 -4257 -198 0
4258 -4257 198 0
4258 4257 -198 0
-4211 4258 0
4211 -4258 0
-4260 110 113 0
-4260 -110 -113 0
4260 -110 113 0
4260 110 -113 0
-4261 4260 127 0
-4261 -4260 -127 0
4261 -4260 127 0
4261 4260 -127 0
-4262 4261 130 0
-4262 -4261 -130 0
4262 -4261 130 0
4262 4261 -130 0
-4263 4262 147 0
-4263 -4262 -147 0
4263 -4262 147 0
4263 4262 -147 0
-4264 4263 150 0
-4264 -4263 -150 0
4264 -4263 150 0
4264 4263 -150 0
-4265 4264 165 0
-4265 -4264 -165 0
4265 -4264 165 0
4265 4264 -165 0
-4266 4265 168 0
-4266 -4265 -168 0
4266 -4265 168 0
4266 4265 -168 0
-4267 4266 182 0
-4267 -4266 -182 0
4267 -4266 182 0
4267 4266 -182 0
-4268 4267 185 0
-4268 -4267 -185 0
4268 -4267 185 0
4268 4267 -185 0
-4269 4268 199 0
-4269 -4268 -199 0
4269 -4268 199 0
4269 4268 -199 0
-4270 4269 202 0
-4270 -4269 -202 0
4270 -4269 202 0
4270 4269 -202 0
-4259 4270 0
4259 -4270 0
-4272 116 119 0
-4272 -116 -119 0
4272 -116 119 0
4272 116 -119 0
-4273 4272 133 0
-4273 -4272 -133 0
4273 -4272 133 0
4273 4272 -133 0
-4274 4273 136 0
-4274 -4273 -136 0
4274 -4273 136 0
4274 4273 -136 0
-4275 4274 153 0
-4275 -4274 -153 0
4275 -4274 153 0
4275 4274 -153 0
-4276 4275 156 0
-4276 -4275 -156 0
4276 -4275 156 0
4276 4275 -156 0
-4277 4276 171 0
-4277 -4276 -171 0
4277 -4276 171 0
4277 4276 -171 0
-4278 4277 174 0
-4278 -4277 -174 0
4278 -4277 174 0
4278 4277 -174 0
-4279 4278 188 0
-4279 -4278 -188 0
4279 -4278 188 0
4279 4278 -188 0
-4280 4279 191 0
-4280 -4279 -191 0
4280 -4279 191 0
4280 4279 -191 0
-4281 4280 205 0
-4281 -4280 -205 0
4281 -4280 205 0
4281 4280 -205 0
-4282 4281 208 0
-4282 -4281 -208 0
4282 -4281 208 0
4282 4281 -208 0
-4271 4282 0
4271 -4282 0
-4284 109 115 0
-4284 -109 -115 0
4284 -109 115 0
4284 109 -115 0
-4285 4284 116 0
-4285 -4284 -116 0
4285 -4284 116 0
4285 4284 -116 0
-4286 4285 117 0
-4286 -4285 -117 0
4286 -4285 117 0
4286 4285 -117 0
-4287 4286 118 0
-4287 -4286 -118 0
4287 -4286 118 0
4287 4286 -118 0
-4288 4287 120 0
-4288 -4287 -120 0
4288 -4287 120 0
4288 4287 -120 0
-4289 4288 121 0
-4289 -4288 -121 0
4289 -4288 121 0
4289 4288 -121 0
-4290 4289 123 0
-4290 -4289 -123 0
4290 -4289 123 0
4290 4289 -123 0
-4291 4290 124 0
-4291 -4290 -124 0
4291 -4290 124 0
4291 4290 -124 0
-4292 4291 127 0
-4292 -4291 -127 0
4292 -4291 127 0
4292 4291 -127 0
-4293 4292 128 0
-4293 -4292 -128 0
4293 -4292 128 0
4293 4292 -128 0
-4294 4293 129 0
-4294 -4293 -129 0
4294 -4293 129 0
4294 4293 -129 0
-4295 4294 131 0
-4295 -4294 -131 0
4295 -4294 131 0
4295 4294 -131 0
-4296 4295 132 0
-4296 -4295 -132 0
4296 -4295 132 0
4296 4295 -132 0
-4297 4296 133 0
-4297 -4296 -133 0
4297 -4296 133 0
4297 4296 -133 0
-4298 4297 134 0
-4298 -4297 -134 0
4298 -4297 134 0
4298 4297 -134 0
-4299 4298 135 0
-4299 -4298 -135 0
4299 -4298 135 0
4299 4298 -135 0
-4300 4299 136 0
-4300 -4299 -136 0
4300 -4299 136 0
4300 4299 -136 0
-4301 4300 138 0
-4301 -4300 -138 0
4301 -4300 138 0
4301 4300 -138 0
-4302 4301 139 0
-4302 -4301 -139 0
4302 -4301 139 0
4302 4301 -139 0
-4303 4302 141 0
-4303 -4302 -141 0
4303 -4302 141 0
4303 4302 -141 0
-4304 4303 142 0
-4304 -4303 -142 0
4304 -4303 142 0
4304 4303 -142 0
-4305 4304 147 0
-4305 -4304 -147 0
4305 -4304 147 0
4305 4304 -147 0
-4306 4305 148 0
-4306 -4305 -148 0
4306 -4305 148 0
4306 4305 -148 0
-4307 4306 150 0
-4307 -4306 -150 0
4307 -4306 150 0
4307 4306 -150 0
-4308 4307 151 0
-4308 -4307 -151 0
4308 -4307 151 0
4308 4307 -151 0
-4309 4308 152 0
-4309 -4308 -152 0
4309 -4308 152 0
4309 4308 -152 0
-4310 4309 153 0
-4310 -4309 -153 0
4310 -4309 153 0
4310 4309 -153 0
-4311 4310 154 0
-4311 -4310 -154 0
4311 -4310 154 0
4311 4310 -154 0
-4312 4311 156 0
-4312 -4311 -156 0
4312 -4311 156 0
4312 4311 -156 0
-4313 4312 157 0
-4313 -4312 -157 0
4313 -4312 157 0
4313 4312 -157 0
-4314 4313 159 0
-4314 -4313 -159 0
4314 -4313 159 0
4314 4313 -159 0
-4315 4314 160 0
-4315 -4314 -160 0
4315 -4314 160 0
4315 4314 -160 0
-4316 4315 163 0
-4316 -4315 -163 0
4316 -4315 163 0
4316 4315 -163 0
-4317 4316 166 0
-4317 -4316 -166 0
4317 -4316 166 0
4317 4316 -166 0
-4318 4317 167 0
-4318 -4317 -167 0
4318 -4317 167 0
4318 4317 -167 0
-4319 4318 171 0
-4319 -4318 -171 0
4319 -4318 171 0
4319 4318 -171 0
-4320 4319 175 0
-4320 -4319 -175 0
4320 -4319 175 0
4320 4319 -175 0
-4321 4320 183 0
-4321 -4320 -183 0
4321 -4320 183 0
4321 4320 -183 0
-4322 4321 185 0
-4322 -4321 -185 0
4322 -4321 185 0
4322 4321 -185 0
-4323 4322 186 0
-4323 -4322 -186 0
4323 -4322 186 0
4323 4322 -186 0
-4324 4323 189 0
-4324 -4323 -189 0
4324 -4323 189 0
4324 4323 -189 0
-4325 4324 193 0
-4325 -4324 -193 0
4325 -4324 193 0
4325 4324 -193 0
-4326 4325 200 0
-4326 -4325 -200 0
4326 -4325 200 0
4326 4325 -200 0
-4327 4326 207 0
-4327 -4326 -207 0
4327 -4326 207 0
4327 4326 -207 0
-4328 4327 211 0
-4328 -4327 -211 0
4328 -4327 211 0
4328 4327 -211 0
-4283 4328 0
4283 -4328 0
-4330 109 112 0
-4330 -109 -112 0
4330 -109 112 0
4330 109 -112 0
-4331 4330 113 0
-4331 -4330 -113 0
4331 -4330 113 0
4331 4330 -113 0
-4332 4331 116 0
-4332 -4331 -116 0
4332 -4331 116 0
4332 4331 -116 0
-4333 4332 117 0
-4333 -4332 -117 0
4333 -4332 117 0
4333 4332 -117 0
-4334 4333 119 0
-4334 -4333 -119 0
4334 -4333 119 0
4334 4333 -119 0
-4335 4334 121 0
-4335 -4334 -121 0
4335 -4334 121 0
4335 4334 -121 0
-4336 4335 129 0
-4336 -4335 -129 0
4336 -4335 129 0
4336 4335 -129 0
-4337 4336 131 0
-4337 -4336 -131 0
4337 -4336 131 0
4337 4336 -131 0
-4338 4337 132 0
-4338 -4337 -132 0
4338 -4337 132 0
4338 4337 -132 0
-4339 4338 133 0
-4339 -4338 -133 0
4339 -4338 133 0
4339 4338 -133 0
-4340 4339 135 0
-4340 -4339 -135 0
4340 -4339 135 0
4340 4339 -135 0
-4341 4340 136 0
-4341 -4340 -136 0
4341 -4340 136 0
4341 4340 -136 0
-4342 4341 139 0
-4342 -4341 -139 0
4342 -4341 139 0
4342 4341 -139 0
-4343 4342 146 0
-4343 -4342 -146 0
4343 -4342 146 0
4343 4342 -146 0
-4344 4343 156 0
-4344 -4343 -156 0
4344 -4343 156 0
4344 4343 -156 0
-4345 4344 157 0
-4345 -4344 -157 0
4345 -4344 157 0
4345 4344 -157 0
-4346 4345 164 0
-4346 -4345 -164 0
4346 -4345 164 0
4346 4345 -164 0
-4347 4346 167 0
-4347 -4346 -167 0
4347 -4346 167 0
4347 4346 -167 0
-4348 4347 168 0
-4348 -4347 -168 0
4348 -4347 168 0
4348 4347 -168 0
-4349 4348 171 0
-4349 -4348 -171 0
4349 -4348 171 0
4349 4348 -171 0
-4350 4349 172 0
-4350 -4349 -172 0
4350 -4349 172 0
4350 4349 -172 0
-4351 4350 174 0
-4351 -4350 -174 0
4351 -4350 174 0
4351 4350 -174 0
-4352 4351 176 0
-4352 -4351 -176 0
4352 -4351 176 0
4352 4351 -176 0
-4353 4352 181 0
-4353 -4352 -181 0
4353 -4352 181 0
4353 4352 -181 0
-4354 4353 184 0
-4354 -4353 -184 0
4354 -4353 184 0
4354 4353 -184 0
-4355 4354 186 0
-4355 -4354 -186 0
4355 -4354 186 0
4355 4354 -186 0
-4356 4355 188 0
-4356 -4355 -188 0
4356 -4355 188 0
4356 4355 -188 0
-4357 4356 190 0
-4357 -4356 -190 0
4357 -4356 190 0
4357 4356 -190 0
-4358 4357 191 0
-4358 -4357 -191 0
4358 -4357 191 0
4358 4357 -191 0
-4359 4358 194 0
-4359 -4358 -194 0
4359 -4358 194 0
4359 4358 -194 0
-4360 4359 201 0
-4360 -4359 -201 0
4360 -4359 201 0
4360 4359 -201 0
-4361 4360 205 0
-4361 -4360 -205 0
4361 -4360 205 0
4361 4360 -205 0
-4362 4361 212 0
-4362 -4361 -212 0
4362 -4361 212 0
4362 4361 -212 0
-4329 4362 0
4329 -4362 0
-4364 1 2 0
-4364 -1 -2 0
4364 -1 2 0
4364 1 -2 0
-4365 4364 4 0
-4365 -4364 -4 0
4365 -4364 4 0
4365 4364 -4 0
-4366 4365 5 0
-4366 -4365 -5 0
4366 -4365 5 0
4366 4365 -5 0
-4367 4366 109 0
-4367 -4366 -109 0
4367 -4366 109 0
4367 4366 -109 0
-4368 4367 110 0
-4368 -4367 -110 0
4368 -4367 110 0
4368 4367 -110 0
-4369 4368 113 0
-4369 -4368 -113 0
4369 -4368 113 0
4369 4368 -113 0
-4370 4369 114 0
-4370 -4369 -114 0
4370 -4369 114 0
4370 4369 -114 0
-4371 4370 115 0
-4371 -4370 -115 0
4371 -4370 115 0
4371 4370 -115 0
-4372 4371 116 0
-4372 -4371 -116 0
4372 -4371 116 0
4372 4371 -116 0
-4373 4372 117 0
-4373 -4372 -117 0
4373 -4372 117 0
4373 4372 -117 0
-4374 4373 119 0
-4374 -4373 -119 0
4374 -4373 119 0
4374 4373 -119 0
-4375 4374 124 0
-4375 -4374 -124 0
4375 -4374 124 0
4375 4374 -124 0
-4376 4375 126 0
-4376 -4375 -126 0
4376 -4375 126 0
4376 4375 -126 0
-4377 4376 127 0
-4377 -4376 -127 0
4377 -4376 127 0
4377 4376 -127 0
-4378 4377 129 0
-4378 -4377 -129 0
4378 -4377 129 0
4378 4377 -129 0
-4379 4378 133 0
-4379 -4378 -133 0
4379 -4378 133 0
4379 4378 -133 0
-4380 4379 135 0
-4380 -4379 -135 0
4380 -4379 135 0
4380 4379 -135 0
-4381 4380 137 0
-4381 -4380 -137 0
4381 -4380 137 0
4381 4380 -137 0
-4382 4381 138 0
-4382 -4381 -138 0
4382 -4381 138 0
4382 4381 -138 0
-4383 4382 139 0
-4383 -4382 -139 0
4383 -4382 139 0
4383 4382 -139 0
-4384 4383 140 0
-4384 -4383 -140 0
4384 -4383 140 0
4384 4383 -140 0
-4385 4384 141 0
-4385 -4384 -141 0
4385 -4384 141 0
4385 4384 -141 0
-4386 4385 142 0
-4386 -4385 -142 0
4386 -4385 142 0
4386 4385 -142 0
-4387 4386 145 0
-4387 -4386 -145 0
4387 -4386 145 0
4387 4386 -145 0
-4388 4387 146 0
-4388 -4387 -146 0
4388 -4387 146 0
4388 4387 -146 0
-4389 4388 149 0
-4389 -4388 -149 0
4389 -4388 149 0
4389 4388 -149 0
-4390 4389 150 0
-4390 -4389 -150 0
4390 -4389 150 0
4390 4389 -150 0
-4391 4390 152 0
-4391 -4390 -152 0
4391 -4390 152 0
4391 4390 -152 0
-4392 4391 155 0
-4392 -4391 -155 0
4392 -4391 155 0
4392 4391 -155 0
-4393 4392 158 0
-4393 -4392 -158 0
4393 -4392 158 0
4393 4392 -158 0
-4394 4393 160 0
-4394 -4393 -160 0
4394 -4393 160 0
4394 4393 -160 0
-4395 4394 163 0
-4395 -4394 -163 0
4395 -4394 163 0
4395 4394 -163 0
-4396 4395 164 0
-4396 -4395 -164 0
4396 -4395 164 0
4396 4395 -164 0
-4397 4396 167 0
-4397 -4396 -167 0
4397 -4396 167 0
4397 4396 -167 0
-4398 4397 168 0
-4398 -4397 -168 0
4398 -4397 168 0
4398 4397 -168 0
-4399 4398 171 0
-4399 -4398 -171 0
4399 -4398 171 0
4399 4398 -171 0
-4400 4399 172 0
-4400 -4399 -172 0
4400 -4399 172 0
4400 4399 -172 0
-4401 4400 175 0
-4401 -4400 -175 0
4401 -4400 175 0
4401 4400 -175 0
-4402 4401 176 0
-4402 -4401 -176 0
4402 -4401 176 0
4402 4401 -176 0
-4403 4402 179 0
-4403 -4402 -179 0
4403 -4402 179 0
4403 4402 -179 0
-4404 4403 180 0
-4404 -4403 -180 0
4404 -4403 180 0
4404 4403 -180 0
-4405 4404 182 0
-4405 -4404 -182 0
4405 -4404 182 0
4405 4404 -182 0
-4406 4405 183 0
-4406 -4405 -183 0
4406 -4405 183 0
4406 4405 -183 0
-4407 4406 184 0
-4407 -4406 -184 0
4407 -4406 184 0
4407 4406 -184 0
-4408 4407 185 0
-4408 -4407 -185 0
4408 -4407 185 0
4408 4407 -185 0
-4409 4408 187 0
-4409 -4408 -187 0
4409 -4408 187 0
4409 4408 -187 0
-4410 4409 190 0
-4410 -4409 -190 0
4410 -4409 190 0
4410 4409 -190 0
-4411 4410 194 0
-4411 -4410 -194 0
4411 -4410 194 0
4411 4410 -194 0
-4412 4411 196 0
-4412 -4411 -196 0
4412 -4411 196 0
4412 4411 -196 0
-4413 4412 199 0
-4413 -4412 -199 0
4413 -4412 199 0
4413 4412 -199 0
-4414 4413 201 0
-4414 -4413 -201 0
4414 -4413 201 0
4414 4413 -201 0
-4415 4414 206 0
-4415 -4414 -206 0
4415 -4414 206 0
4415 4414 -206 0
-4416 4415 207 0
-4416 -4415 -207 0
4416 -4415 207 0
4416 4415 -207 0
-4363 4416 0
4363 -4416 0
-4418 1 3 0
-4418 -1 -3 0
4418 -1 3 0
4418 1 -3 0
-4419 4418 4 0
-4419 -4418 -4 0
4419 -4418 4 0
4419 4418 -4 0
-4420 4419 6 0
-4420 -4419 -6 0
4420 -4419 6 0
4420 4419 -6 0
-4421 4420 113 0
-4421 -4420 -113 0
4421 -4420 113 0
4421 4420 -113 0
-4422 4421 114 0
-4422 -4421 -114 0
4422 -4421 114 0
4422 4421 -114 0
-4423 4422 115 0
-4423 -4422 -115 0
4423 -4422 115 0
4423 4422 -115 0
-4424 4423 116 0
-4424 -4423 -116 0
4424 -4423 116 0
4424 4423 -116 0
-4425 4424 118 0
-4425 -4424 -118 0
4425 -4424 118 0
4425 4424 -118 0
-4426 4425 120 0
-4426 -4425 -120 0
4426 -4425 120 0
4426 4425 -120 0
-4427 4426 123 0
-4427 -4426 -123 0
4427 -4426 123 0
4427 4426 -123 0
-4428 4427 125 0
-4428 -4427 -125 0
4428 -4427 125 0
4428 4427 -125 0
-4429 4428 128 0
-4429 -4428 -128 0
4429 -4428 128 0
4429 4428 -128 0
-4430 4429 129 0
-4430 -4429 -129 0
4430 -4429 129 0
4430 4429 -129 0
-4431 4430 134 0
-4431 -4430 -134 0
4431 -4430 134 0
4431 4430 -134 0
-4432 4431 136 0
-4432 -4431 -136 0
4432 -4431 136 0
4432 4431 -136 0
-4433 4432 137 0
-4433 -4432 -137 0
4433 -4432 137 0
4433 4432 -137 0
-4434 4433 138 0
-4434 -4433 -138 0
4434 -4433 138 0
4434 4433 -138 0
-4435 4434 139 0
-4435 -4434 -139 0
4435 -4434 139 0
4435 4434 -139 0
-4436 4435 140 0
-4436 -4435 -140 0
4436 -4435 140 0
4436 4435 -140 0
-4437 4436 141 0
-4437 -4436 -141 0
4437 -4436 141 0
4437 4436 -141 0
-4438 4437 144 0
-4438 -4437 -144 0
4438 -4437 144 0
4438 4437 -144 0
-4439 4438 145 0
-4439 -4438 -145 0
4439 -4438 145 0
4439 4438 -145 0
-4440 4439 146 0
-4440 -4439 -146 0
4440 -4439 146 0
4440 4439 -146 0
-4441 4440 148 0
-4441 -4440 -148 0
4441 -4440 148 0
4441 4440 -148 0
-4442 4441 150 0
-4442 -4441 -150 0
4442 -4441 150 0
4442 4441 -150 0
-4443 4442 151 0
-4443 -4442 -151 0
4443 -4442 151 0
4443 4442 -151 0
-4444 4443 154 0
-4444 -4443 -154 0
4444 -4443 154 0
4444 4443 -154 0
-4445 4444 157 0
-4445 -4444 -157 0
4445 -4444 157 0
4445 4444 -157 0
-4446 4445 159 0
-4446 -4445 -159 0
4446 -4445 159 0
4446 4445 -159 0
-4447 4446 163 0
-4447 -4446 -163 0
4447 -4446 163 0
4447 4446 -163 0
-4448 4447 164 0
-4448 -4447 -164 0
4448 -4447 164 0
4448 4447 -164 0
-4449 4448 166 0
-4449 -4448 -166 0
4449 -4448 166 0
4449 4448 -166 0
-4450 4449 168 0
-4450 -4449 -168 0
4450 -4449 168 0
4450 4449 -168 0
-4451 4450 170 0
-4451 -4450 -170 0
4451 -4450 170 0
4451 4450 -170 0
-4452 4451 171 0
-4452 -4451 -171 0
4452 -4451 171 0
4452 4451 -171 0
-4453 4452 175 0
-4453 -4452 -175 0
4453 -4452 175 0
4453 4452 -175 0
-4454 4453 178 0
-4454 -4453 -178 0
4454 -4453 178 0
4454 4453 -178 0
-4455 4454 179 0
-4455 -4454 -179 0
4455 -4454 179 0
4455 4454 -179 0
-4456 4455 180 0
-4456 -4455 -180 0
4456 -4455 180 0
4456 4455 -180 0
-4457 4456 182 0
-4457 -4456 -182 0
4457 -4456 182 0
4457 4456 -182 0
-4458 4457 183 0
-4458 -4457 -183 0
4458 -4457 183 0
4458 4457 -183 0
-4459 4458 189 0
-4459 -4458 -189 0
4459 -4458 189 0
4459 4458 -189 0
-4460 4459 192 0
-4460 -4459 -192 0
4460 -4459 192 0
4460 4459 -192 0
-4461 4460 193 0
-4461 -4460 -193 0
4461 -4460 193 0
4461 4460 -193 0
-4462 4461 195 0
-4462 -4461 -195 0
4462 -4461 195 0
4462 4461 -195 0
-4463 4462 200 0
-4463 -4462 -200 0
4463 -4462 200 0
4463 4462 -200 0
-4464 4463 201 0
-4464 -4463 -201 0
4464 -4463 201 0
4464 4463 -201 0
-4465 4464 205 0
-4465 -4464 -205 0
4465 -4464 205 0
4465 4464 -205 0
-4466 4465 206 0
-4466 -4465 -206 0
4466 -4465 206 0
4466 4465 -206 0
-4417 4466 0
4417 -4466 0
-4468 1 2 0
-4468 -1 -2 0
4468 -1 2 0
4468 1 -2 0
-4469 4468 3 0
-4469 -4468 -3 0
4469 -4468 3 0
4469 4468 -3 0
-4470 4469 7 0
-4470 -4469 -7 0
4470 -4469 7 0
4470 4469 -7 0
-4471 4470 8 0
-4471 -4470 -8 0
4471 -4470 8 0
4471 4470 -8 0
-4472 4471 9 0
-4472 -4471 -9 0
4472 -4471 9 0
4472 4471 -9 0
-4473 4472 110 0
-4473 -4472 -110 0
4473 -4472 110 0
4473 4472 -110 0
-4474 4473 111 0
-4474 -4473 -111 0
4474 -4473 111 0
4474 4473 -111 0
-4475 4474 113 0
-4475 -4474 -113 0
4475 -4474 113 0
4475 4474 -113 0
-4476 4475 114 0
-4476 -4475 -114 0
4476 -4475 114 0
4476 4475 -114 0
-4477 4476 116 0
-4477 -4476 -116 0
4477 -4476 116 0
4477 4476 -116 0
-4478 4477 120 0
-4478 -4477 -120 0
4478 -4477 120 0
4478 4477 -120 0
-4479 4478 121 0
-4479 -4478 -121 0
4479 -4478 121 0
4479 4478 -121 0
-4480 4479 122 0
-4480 -4479 -122 0
4480 -4479 122 0
4480 4479 -122 0
-4481 4480 123 0
-4481 -4480 -123 0
4481 -4480 123 0
4481 4480 -123 0
-4482 4481 124 0
-4482 -4481 -124 0
4482 -4481 124 0
4482 4481 -124 0
-4483 4482 126 0
-4483 -4482 -126 0
4483 -4482 126 0
4483 4482 -126 0
-4484 4483 127 0
-4484 -4483 -127 0
4484 -4483 127 0
4484 4483 -127 0
-4485 4484 131 0
-4485 -4484 -131 0
4485 -4484 131 0
4485 4484 -131 0
-4486 4485 133 0
-4486 -4485 -133 0
4486 -4485 133 0
4486 4485 -133 0
-4487 4486 135 0
-4487 -4486 -135 0
4487 -4486 135 0
4487 4486 -135 0
-4488 4487 136 0
-4488 -4487 -136 0
4488 -4487 136 0
4488 4487 -136 0
-4489 4488 137 0
-4489 -4488 -137 0
4489 -4488 137 0
4489 4488 -137 0
-4490 4489 138 0
-4490 -4489 -138 0
4490 -4489 138 0
4490 4489 -138 0
-4491 4490 139 0
-4491 -4490 -139 0
4491 -4490 139 0
4491 4490 -139 0
-4492 4491 140 0
-4492 -4491 -140 0
4492 -4491 140 0
4492 4491 -140 0
-4493 4492 141 0
-4493 -4492 -141 0
4493 -4492 141 0
4493 4492 -141 0
-4494 4493 142 0
-4494 -4493 -142 0
4494 -4493 142 0
4494 4493 -142 0
-4495 4494 143 0
-4495 -4494 -143 0
4495 -4494 143 0
4495 4494 -143 0
-4496 4495 146 0
-4496 -4495 -146 0
4496 -4495 146 0
4496 4495 -146 0
-4497 4496 148 0
-4497 -4496 -148 0
4497 -4496 148 0
4497 4496 -148 0
-4498 4497 149 0
-4498 -4497 -149 0
4498 -4497 149 0
4498 4497 -149 0
-4499 4498 157 0
-4499 -4498 -157 0
4499 -4498 157 0
4499 4498 -157 0
-4500 4499 158 0
-4500 -4499 -158 0
4500 -4499 158 0
4500 4499 -158 0
-4501 4500 159 0
-4501 -4500 -159 0
4501 -4500 159 0
4501 4500 -159 0
-4502 4501 163 0
-4502 -4501 -163 0
4502 -4501 163 0
4502 4501 -163 0
-4503 4502 165 0
-4503 -4502 -165 0
4503 -4502 165 0
4503 4502 -165 0
-4504 4503 166 0
-4504 -4503 -166 0
4504 -4503 166 0
4504 4503 -166 0
-4505 4504 168 0
-4505 -4504 -168 0
4505 -4504 168 0
4505 4504 -168 0
-4506 4505 171 0
-4506 -4505 -171 0
4506 -4505 171 0
4506 4505 -171 0
-4507 4506 173 0
-4507 -4506 -173 0
4507 -4506 173 0
4507 4506 -173 0
-4508 4507 174 0
-4508 -4507 -174 0
4508 -4507 174 0
4508 4507 -174 0
-4509 4508 175 0
-4509 -4508 -175 0
4509 -4508 175 0
4509 4508 -175 0
-4510 4509 176 0
-4510 -4509 -176 0
4510 -4509 176 0
4510 4509 -176 0
-4511 4510 177 0
-4511 -4510 -177 0
4511 -4510 177 0
4511 4510 -177 0
-4512 4511 178 0
-4512 -4511 -178 0
4512 -4511 178 0
4512 4511 -178 0
-4513 4512 179 0
-4513 -4512 -179 0
4513 -4512 179 0
4513 4512 -179 0
-4514 4513 183 0
-4514 -4513 -183 0
4514 -4513 183 0
4514 4513 -183 0
-4515 4514 184 0
-4515 -4514 -184 0
4515 -4514 184 0
4515 4514 -184 0
-4516 4515 186 0
-4516 -4515 -186 0
4516 -4515 186 0
4516 4515 -186 0
-4517 4516 188 0
-4517 -4516 -188 0
4517 -4516 188 0
4517 4516 -188 0
-4518 4517 190 0
-4518 -4517 -190 0
4518 -4517 190 0
4518 4517 -190 0
-4519 4518 193 0
-4519 -4518 -193 0
4519 -4518 193 0
4519 4518 -193 0
-4520 4519 194 0
-4520 -4519 -194 0
4520 -4519 194 0
4520 4519 -194 0
-4521 4520 195 0
-4521 -4520 -195 0
4521 -4520 195 0
4521 4520 -195 0
-4522 4521 196 0
-4522 -4521 -196 0
4522 -4521 196 0
4522 4521 -196 0
-4523 4522 199 0
-4523 -4522 -199 0
4523 -4522 199 0
4523 4522 -199 0
-4524 4523 201 0
-4524 -4523 -201 0
4524 -4523 201 0
4524 4523 -201 0
-4467 4524 0
4467 -4524 0
-4526 1 2 0
-4526 -1 -2 0
4526 -1 2 0
4526 1 -2 0
-4527 4526 3 0
-4527 -4526 -3 0
4527 -4526 3 0
4527 4526 -3 0
-4528 4527 13 0
-4528 -4527 -13 0
4528 -4527 13 0
4528 4527 -13 0
-4529 4528 14 0
-4529 -4528 -14 0
4529 -4528 14 0
4529 4528 -14 0
-4530 4529 15 0
-4530 -4529 -15 0
4530 -4529 15 0
4530 4529 -15 0
-4531 4530 109 0
-4531 -4530 -109 0
4531 -4530 109 0
4531 4530 -109 0
-4532 4531 110 0
-4532 -4531 -110 0
4532 -4531 110 0
4532 4531 -110 0
-4533 4532 114 0
-4533 -4532 -114 0
4533 -4532 114 0
4533 4532 -114 0
-4534 4533 117 0
-4534 -4533 -117 0
4534 -4533 117 0
4534 4533 -117 0
-4535 4534 119 0
-4535 -4534 -119 0
4535 -4534 119 0
4535 4534 -119 0
-4536 4535 121 0
-4536 -4535 -121 0
4536 -4535 121 0
4536 4535 -121 0
-4537 4536 123 0
-4537 -4536 -123 0
4537 -4536 123 0
4537 4536 -123 0
-4538 4537 124 0
-4538 -4537 -124 0
4538 -4537 124 0
4538 4537 -124 0
-4539 4538 127 0
-4539 -4538 -127 0
4539 -4538 127 0
4539 4538 -127 0
-4540 4539 128 0
-4540 -4539 -128 0
4540 -4539 128 0
4540 4539 -128 0
-4541 4540 129 0
-4541 -4540 -129 0
4541 -4540 129 0
4541 4540 -129 0
-4542 4541 131 0
-4542 -4541 -131 0
4542 -4541 131 0
4542 4541 -131 0
-4543 4542 132 0
-4543 -4542 -132 0
4543 -4542 132 0
4543 4542 -132 0
-4544 4543 135 0
-4544 -4543 -135 0
4544 -4543 135 0
4544 4543 -135 0
-4545 4544 136 0
-4545 -4544 -136 0
4545 -4544 136 0
4545 4544 -136 0
-4546 4545 138 0
-4546 -4545 -138 0
4546 -4545 138 0
4546 4545 -138 0
-4547 4546 140 0
-4547 -4546 -140 0
4547 -4546 140 0
4547 4546 -140 0
-4548 4547 144 0
-4548 -4547 -144 0
4548 -4547 144 0
4548 4547 -144 0
-4549 4548 145 0
-4549 -4548 -145 0
4549 -4548 145 0
4549 4548 -145 0
-4550 4549 150 0
-4550 -4549 -150 0
4550 -4549 150 0
4550 4549 -150 0
-4551 4550 152 0
-4551 -4550 -152 0
4551 -4550 152 0
4551 4550 -152 0
-4552 4551 154 0
-4552 -4551 -154 0
4552 -4551 154 0
4552 4551 -154 0
-4553 4552 155 0
-4553 -4552 -155 0
4553 -4552 155 0
4553 4552 -155 0
-4554 4553 157 0
-4554 -4553 -157 0
4554 -4553 157 0
4554 4553 -157 0
-4555 4554 158 0
-4555 -4554 -158 0
4555 -4554 158 0
4555 4554 -158 0
-4556 4555 159 0
-4556 -4555 -159 0
4556 -4555 159 0
4556 4555 -159 0
-4557 4556 163 0
-4557 -4556 -163 0
4557 -4556 163 0
4557 4556 -163 0
-4558 4557 166 0
-4558 -4557 -166 0
4558 -4557 166 0
4558 4557 -166 0
-4559 4558 169 0
-4559 -4558 -169 0
4559 -4558 169 0
4559 4558 -169 0
-4560 4559 172 0
-4560 -4559 -172 0
4560 -4559 172 0
4560 4559 -172 0
-4561 4560 173 0
-4561 -4560 -173 0
4561 -4560 173 0
4561 4560 -173 0
-4562 4561 175 0
-4562 -4561 -175 0
4562 -4561 175 0
4562 4561 -175 0
-4563 4562 176 0
-4563 -4562 -176 0
4563 -4562 176 0
4563 4562 -176 0
-4564 4563 178 0
-4564 -4563 -178 0
4564 -4563 178 0
4564 4563 -178 0
-4565 4564 180 0
-4565 -4564 -180 0
4565 -4564 180 0
4565 4564 -180 0
-4566 4565 181 0
-4566 -4565 -181 0
4566 -4565 181 0
4566 4565 -181 0
-4567 4566 186 0
-4567 -4566 -186 0
4567 -4566 186 0
4567 4566 -186 0
-4568 4567 188 0
-4568 -4567 -188 0
4568 -4567 188 0
4568 4567 -188 0
-4569 4568 189 0
-4569 -4568 -189 0
4569 -4568 189 0
4569 4568 -189 0
-4570 4569 192 0
-4570 -4569 -192 0
4570 -4569 192 0
4570 4569 -192 0
-4571 4570 193 0
-4571 -4570 -193 0
4571 -4570 193 0
4571 4570 -193 0
-4572 4571 195 0
-4572 -4571 -195 0
4572 -4571 195 0
4572 4571 -195 0
-4573 4572 199 0
-4573 -4572 -199 0
4573 -4572 199 0
4573 4572 -199 0
-4574 4573 200 0
-4574 -4573 -200 0
4574 -4573 200 0
4574 4573 -200 0
-4575 4574 205 0
-4575 -4574 -205 0
4575 -4574 205 0
4575 4574 -205 0
-4576 4575 207 0
-4576 -4575 -207 0
4576 -4575 207 0
4576 4575 -207 0
-4525 4576 0
4525 -4576 0
-4578 2 8 0
-4578 -2 -8 0
4578 -2 8 0
4578 2 -8 0
-4579 4578 19 0
-4579 -4578 -19 0
4579 -4578 19 0
4579 4578 -19 0
-4580 4579 25 0
-4580 -4579 -25 0
4580 -4579 25 0
4580 4579 -25 0
-4581 4580 109 0
-4581 -4580 -109 0
4581 -4580 109 0
4581 4580 -109 0
-4582 4581 112 0
-4582 -4581 -112 0
4582 -4581 112 0
4582 4581 -112 0
-4583 4582 113 0
-4583 -4582 -113 0
4583 -4582 113 0
4583 4582 -113 0
-4584 4583 116 0
-4584 -4583 -116 0
4584 -4583 116 0
4584 4583 -116 0
-4585 4584 118 0
-4585 -4584 -118 0
4585 -4584 118 0
4585 4584 -118 0
-4586 4585 119 0
-4586 -4585 -119 0
4586 -4585 119 0
4586 4585 -119 0
-4587 4586 120 0
-4587 -4586 -120 0
4587 -4586 120 0
4587 4586 -120 0
-4588 4587 123 0
-4588 -4587 -123 0
4588 -4587 123 0
4588 4587 -123 0
-4589 4588 126 0
-4589 -4588 -126 0
4589 -4588 126 0
4589 4588 -126 0
-4590 4589 129 0
-4590 -4589 -129 0
4590 -4589 129 0
4590 4589 -129 0
-4591 4590 131 0
-4591 -4590 -131 0
4591 -4590 131 0
4591 4590 -131 0
-4592 4591 133 0
-4592 -4591 -133 0
4592 -4591 133 0
4592 4591 -133 0
-4593 4592 134 0
-4593 -4592 -134 0
4593 -4592 134 0
4593 4592 -134 0
-4594 4593 137 0
-4594 -4593 -137 0
4594 -4593 137 0
4594 4593 -137 0
-4595 4594 139 0
-4595 -4594 -139 0
4595 -4594 139 0
4595 4594 -139 0
-4596 4595 143 0
-4596 -4595 -143 0
4596 -4595 143 0
4596 4595 -143 0
-4597 4596 146 0
-4597 -4596 -146 0
4597 -4596 146 0
4597 4596 -146 0
-4598 4597 149 0
-4598 -4597 -149 0
4598 -4597 149 0
4598 4597 -149 0
-4599 4598 150 0
-4599 -4598 -150 0
4599 -4598 150 0
4599 4598 -150 0
-4600 4599 151 0
-4600 -4599 -151 0
4600 -4599 151 0
4600 4599 -151 0
-4601 4600 154 0
-4601 -4600 -154 0
4601 -4600 154 0
4601 4600 -154 0
-4602 4601 156 0
-4602 -4601 -156 0
4602 -4601 156 0
4602 4601 -156 0
-4603 4602 158 0
-4603 -4602 -158 0
4603 -4602 158 0
4603 4602 -158 0
-4604 4603 160 0
-4604 -4603 -160 0
4604 -4603 160 0
4604 4603 -160 0
-4605 4604 164 0
-4605 -4604 -164 0
4605 -4604 164 0
4605 4604 -164 0
-4606 4605 168 0
-4606 -4605 -168 0
4606 -4605 168 0
4606 4605 -168 0
-4607 4606 169 0
-4607 -4606 -169 0
4607 -4606 169 0
4607 4606 -169 0
-4608 4607 171 0
-4608 -4607 -171 0
4608 -4607 171 0
4608 4607 -171 0
-4609 4608 173 0
-4609 -4608 -173 0
4609 -4608 173 0
4609 4608 -173 0
-4610 4609 175 0
-4610 -4609 -175 0
4610 -4609 175 0
4610 4609 -175 0
-4611 4610 176 0
-4611 -4610 -176 0
4611 -4610 176 0
4611 4610 -176 0
-4612 4611 178 0
-4612 -4611 -178 0
4612 -4611 178 0
4612 4611 -178 0
-4613 4612 183 0
-4613 -4612 -183 0
4613 -4612 183 0
4613 4612 -183 0
-4614 4613 184 0
-4614 -4613 -184 0
4614 -4613 184 0
4614 4613 -184 0
-4615 4614 186 0
-4615 -4614 -186 0
4615 -4614 186 0
4615 4614 -186 0
-4616 4615 188 0
-4616 -4615 -188 0
4616 -4615 188 0
4616 4615 -188 0
-4617 4616 189 0
-4617 -4616 -189 0
4617 -4616 189 0
4617 4616 -189 0
-4618 4617 191 0
-4618 -4617 -191 0
4618 -4617 191 0
4618 4617 -191 0
-4619 4618 194 0
-4619 -4618 -194 0
4619 -4618 194 0
4619 4618 -194 0
-4620 4619 199 0
-4620 -4619 -199 0
4620 -4619 199 0
4620 4619 -199 0
-4621 4620 200 0
-4621 -4620 -200 0
4621 -4620 200 0
4621 4620 -200 0
-4622 4621 201 0
-4622 -4621 -201 0
4622 -4621 201 0
4622 4621 -201 0
-4623 4622 205 0
-4623 -4622 -205 0
4623 -4622 205 0
4623 4622 -205 0
-4624 4623 206 0
-4624 -4623 -206 0
4624 -4623 206 0
4624 4623 -206 0
-4577 4624 0
4577 -4624 0
-4626 1 2 0
-4626 -1 -2 0
4626 -1 2 0
4626 1 -2 0
-4627 4626 7 0
-4627 -4626 -7 0
4627 -4626 7 0
4627 4626 -7 0
-4628 4627 8 0
-4628 -4627 -8 0
4628 -4627 8 0
4628 4627 -8 0
-4629 4628 20 0
-4629 -4628 -20 0
4629 -4628 20 0
4629 4628 -20 0
-4630 4629 26 0
-4630 -4629 -26 0
4630 -4629 26 0
4630 4629 -26 0
-4631 4630 109 0
-4631 -4630 -109 0
4631 -4630 109 0
4631 4630 -109 0
-4632 4631 111 0
-4632 -4631 -111 0
4632 -4631 111 0
4632 4631 -111 0
-4633 4632 112 0
-4633 -4632 -112 0
4633 -4632 112 0
4633 4632 -112 0
-4634 4633 117 0
-4634 -4633 -117 0
4634 -4633 117 0
4634 4633 -117 0
-4635 4634 118 0
-4635 -4634 -118 0
4635 -4634 118 0
4635 4634 -118 0
-4636 4635 121 0
-4636 -4635 -121 0
4636 -4635 121 0
4636 4635 -121 0
-4637 4636 123 0
-4637 -4636 -123 0
4637 -4636 123 0
4637 4636 -123 0
-4638 4637 124 0
-4638 -4637 -124 0
4638 -4637 124 0
4638 4637 -124 0
-4639 4638 125 0
-4639 -4638 -125 0
4639 -4638 125 0
4639 4638 -125 0
-4640 4639 126 0
-4640 -4639 -126 0
4640 -4639 126 0
4640 4639 -126 0
-4641 4640 127 0
-4641 -4640 -127 0
4641 -4640 127 0
4641 4640 -127 0
-4642 4641 128 0
-4642 -4641 -128 0
4642 -4641 128 0
4642 4641 -128 0
-4643 4642 130 0
-4643 -4642 -130 0
4643 -4642 130 0
4643 4642 -130 0
-4644 4643 132 0
-4644 -4643 -132 0
4644 -4643 132 0
4644 4643 -132 0
-4645 4644 140 0
-4645 -4644 -140 0
4645 -4644 140 0
4645 4644 -140 0
-4646 4645 141 0
-4646 -4645 -141 0
4646 -4645 141 0
4646 4645 -141 0
-4647 4646 144 0
-4647 -4646 -144 0
4647 -4646 144 0
4647 4646 -144 0
-4648 4647 154 0
-4648 -4647 -154 0
4648 -4647 154 0
4648 4647 -154 0
-4649 4648 160 0
-4649 -4648 -160 0
4649 -4648 160 0
4649 4648 -160 0
-4650 4649 165 0
-4650 -4649 -165 0
4650 -4649 165 0
4650 4649 -165 0
-4651 4650 166 0
-4651 -4650 -166 0
4651 -4650 166 0
4651 4650 -166 0
-4652 4651 170 0
-4652 -4651 -170 0
4652 -4651 170 0
4652 4651 -170 0
-4653 4652 171 0
-4653 -4652 -171 0
4653 -4652 171 0
4653 4652 -171 0
-4654 4653 172 0
-4654 -4653 -172 0
4654 -4653 172 0
4654 4653 -172 0
-4655 4654 173 0
-4655 -4654 -173 0
4655 -4654 173 0
4655 4654 -173 0
-4656 4655 175 0
-4656 -4655 -175 0
4656 -4655 175 0
4656 4655 -175 0
-4657 4656 178 0
-4657 -4656 -178 0
4657 -4656 178 0
4657 4656 -178 0
-4658 4657 181 0
-4658 -4657 -181 0
4658 -4657 181 0
4658 4657 -181 0
-4659 4658 182 0
-4659 -4658 -182 0
4659 -4658 182 0
4659 4658 -182 0
-4660 4659 183 0
-4660 -4659 -183 0
4660 -4659 183 0
4660 4659 -183 0
-4661 4660 186 0
-4661 -4660 -186 0
4661 -4660 186 0
4661 4660 -186 0
-4662 4661 188 0
-4662 -4661 -188 0
4662 -4661 188 0
4662 4661 -188 0
-4663 4662 189 0
-4663 -4662 -189 0
4663 -4662 189 0
4663 4662 -189 0
-4664 4663 192 0
-4664 -4663 -192 0
4664 -4663 192 0
4664 4663 -192 0
-4665 4664 193 0
-4665 -4664 -193 0
4665 -4664 193 0
4665 4664 -193 0
-4666 4665 194 0
-4666 -4665 -194 0
4666 -4665 194 0
4666 4665 -194 0
-4667 4666 196 0
-4667 -4666 -196 0
4667 -4666 196 0
4667 4666 -196 0
-4668 4667 200 0
-4668 -4667 -200 0
4668 -4667 200 0
4668 4667 -200 0
-4669 4668 206 0
-4669 -4668 -206 0
4669 -4668 206 0
4669 4668 -206 0
-4670 4669 207 0
-4670 -4669 -207 0
4670 -4669 207 0
4670 4669 -207 0
-4625 4670 0
4625 -4670 0
4163 4211 4259 4271 4283 4329 4363 4417 4467 4525 4577 4625 0
-217 0
-218 0
-219 0
-220 0
-221 0
-222 0
-223 0
-224 0
-225 0
-226 0
-227 0
-228 0
-229 0
-230 0
-231 0
-232 0
-233 0
-234 0
-235 0
-236 0
-237 0
-238 0
-239 0
-240 0
-241 0
-242 0
-243 0
-244 0
-245 0
-246 0
-247 0
-248 0
-249 0
-250 0
-251 0
-252 0
-253 0
-254 0
-255 0
-256 0
-257 0
-258 0
-259 0
-260 0
-261 0
-262 0
-263 0
-264 0
-265 0
-266 0
-267 0
-268 0
-269 0
-270 0
271 0
-217 4671 0
-4671 4672 0
-218 -4671 4673 0
-4673 4674 0
-219 -4673 4675 0
-4675 4676 0
-220 -4675 4677 0
-4677 4678 0
-221 -4677 4679 0
-4679 4680 0
-222 -4679 4681 0
-4681 4682 0
-223 -4681 4683 0
-4683 4684 0
-224 -4683 0
-218 4672 0
-4672 4685 0
-219 -4672 4674 0
-4674 4686 0
-220 -4674 4676 0
-4676 4687 0
-221 -4676 4678 0
-4678 4688 0
-222 -4678 4680 0
-4680 4689 0
-223 -4680 4682 0
-4682 4690 0
-224 -4682 4684 0
-4684 4691 0
-225 -4684 0
-219 4685 0
-4685 4692 0
-220 -4685 4686 0
-4686 4693 0
-221 -4686 4687 0
-4687 4694 0
-222 -4687 4688 0
-4688 4695 0
-223 -4688 4689 0
-4689 4696 0
-224 -4689 4690 0
-4690 4697 0
-225 -4690 4691 0
-4691 4698 0
-226 -4691 0
-220 4692 0
-4692 4699 0
-221 -4692 4693 0
-4693 4700 0
-222 -4693 4694 0
-4694 4701 0
-223 -4694 4695 0
-4695 4702 0
-224 -4695 4696 0
-4696 4703 0
-225 -4696 4697 0
-4697 4704 0
-226 -4697 4698 0
-4698 4705 0
-227 -4698 0
-221 4699 0
-4699 4706 0
-222 -4699 4700 0
-4700 4707 0
-223 -4700 4701 0
-4701 4708 0
-224 -4701 4702 0
-4702 4709 0
-225 -4702 4703 0
-4703 4710 0
-226 -4703 4704 0
-4704 4711 0
-227 -4704 4705 0
-4705 4712 0
-228 -4705 0
-222 4706 0
-4706 4713 0
-223 -4706 4707 0
-4707 4714 0
-224 -4707 4708 0
-4708 4715 0
-225 -4708 4709 0
-4709 4716 0
-226 -4709 4710 0
-4710 4717 0
-227 -4710 4711 0
-4711 4718 0
-228 -4711 4712 0
-4712 4719 0
-229 -4712 0
-223 4713 0
-4713 4720 0
-224 -4713 4714 0
-4714 4721 0
-225 -4714 4715 0
-4715 4722 0
-226 -4715 4716 0
-4716 4723 0
-227 -4716 4717 0
-4717 4724 0
-228 -4717 4718 0
-4718 4725 0
-229 -4718 4719 0
-4719 4726 0
-230 -4719 0
-224 4720 0
-4720 4727 0
-225 -4720 4721 0
-4721 4728 0
-226 -4721 4722 0
-4722 4729 0
-227 -4722 4723 0
-4723 4730 0
-228 -4723 4724 0
-4724 4731 0
-229 -4724 4725 0
-4725 4732 0
-230 -4725 4726 0
-4726 4733 0
-231 -4726 0
-225 4727 0
-4727 4734 0
-226 -4727 4728 0
-4728 4735 0
-227 -4728 4729 0
-4729 4736 0
-228 -4729 4730 0
-4730 4737 0
-229 -4730 4731 0
-4731 4738 0
-230 -4731 4732 0
-4732 4739 0
-231 -4732 4733 0
-4733 4740 0
-232 -4733 0
-226 4734 0
-4734 4741 0
-227 -4734 4735 0
-4735 4742 0
-228 -4735 4736 0
-4736 4743 0
-229 -4736 4737 0
-4737 4744 0
-230 -4737 4738 0
-4738 4745 0
-231 -4738 4739 0
-4739 4746 0
-232 -4739 4740 0
-4740 4747 0
-233 -4740 0
-227 4741 0
-4741 4748 0
-228 -4741 4742 0
-4742 4749 0
-229 -4742 4743 0
-4743 4750 0
-230 -4743 4744 0
-4744 4751 0
-231 -4744 4745 0
-4745 4752 0
-232 -4745 4746 0
-4746 4753 0
-233 -4746 4747 0
-4747 4754 0
-234 -4747 0
-228 4748 0
-4748 4755 0
-229 -4748 4749 0
-4749 4756 0
-230 -4749 4750 0
-4750 4757 0
-231 -4750 4751 0
-4751 4758 0
-232 -4751 4752 0
-4752 4759 0
-233 -4752 4753 0
-4753 4760 0
-234 -4753 4754 0
-4754 4761 0
-235 -4754 0
-229 4755 0
-4755 4762 0
-230 -4755 4756 0
-4756 4763 0
-231 -4756 4757 0
-4757 4764 0
-232 -4757 4758 0
-4758 4765 0
-233 -4758 4759 0
-4759 4766 0
-234 -4759 4760 0
-4760 4767 0
-235 -4760 4761 0
-4761 4768 0
-236 -4761 0
-230 4762 0
-4762 4769 0
-231 -4762 4763 0
-4763 4770 0
-232 -4763 4764 0
-4764 4771 0
-233 -4764 4765 0
-4765 4772 0
-234 -4765 4766 0
-4766 4773 0
-235 -4766 4767 0
-4767 4774 0
-236 -4767 4768 0
-4768 4775 0
-237 -4768 0
-231 4769 0
-4769 4776 0
-232 -4769 4770 0
-4770 4777 0
-233 -4770 4771 0
-4771 4778 0
-234 -4771 4772 0
-4772 4779 0
-235 -4772 4773 0
-4773 4780 0
-236 -4773 4774 0
-4774 4781 0
-237 -4774 4775 0
-4775 4782 0
-238 -4775 0
-232 4776 0
-4776 4783 0
-233 -4776 4777 0
-4777 4784 0
-234 -4777 4778 0
-4778 4785 0
-235 -4778 4779 0
-4779 4786 0
-236 -4779 4780 0
-4780 4787 0
-237 -4780 4781 0
-4781 4788 0
-238 -4781 4782 0
-4782 4789 0
-239 -4782 0
-233 4783 0
-4783 4790 0
-234 -4783 4784 0
-4784 4791 0
-235 -4784 4785 0
-4785 4792 0
-236 -4785 4786 0
-4786 4793 0
-237 -4786 4787 0
-4787 4794 0
-238 -4787 4788 0
-4788 4795 0
-239 -4788 4789 0
-4789 4796 0
-240 -4789 0
-234 4790 0
-4790 4797 0
-235 -4790 4791 0
-4791 4798 0
-236 -4791 4792 0
-4792 4799 0
-237 -4792 4793 0
-4793 4800 0
-238 -4793 4794 0
-4794 4801 0
-239 -4794 4795 0
-4795 4802 0
-240 -4795 4796 0
-4796 4803 0
-241 -4796 0
-235 4797 0
-4797 4804 0
-236 -4797 4798 0
-4798 4805 0
-237 -4798 4799 0
-4799 4806 0
-238 -4799 4800 0
-4800 4807 0
-239 -4800 4801 0
-4801 4808 0
-240 -4801 4802 0
-4802 4809 0
-241 -4802 4803 0
-4803 4810 0
-242 -4803 0
-236 4804 0
-4804 4811 0
-237 -4804 4805 0
-4805 4812 0
-238 -4805 4806 0
-4806 4813 0
-239 -4806 4807 0
-4807 4814 0
-240 -4807 4808 0
-4808 4815 0
-241 -4808 4809 0
-4809 4816 0
-242 -4809 4810 0
-4810 4817 0
-243 -4810 0
-237 4811 0
-4811 4818 0
-238 -4811 4812 0
-4812 4819 0
-239 -4812 4813 0
-4813 4820 0
-240 -4813 4814 0
-4814 4821 0
-241 -4814 4815 0
-4815 4822 0
-242 -4815 4816 0
-4816 4823 0
-243 -4816 4817 0
-4817 4824 0
-244 -4817 0
-238 4818 0
-4818 4825 0
-239 -4818 4819 0
-4819 4826 0
-240 -4819 4820 0
-4820 4827 0
-241 -4820 4821 0
-4821 4828 0
-242 -4821 4822 0
-4822 4829 0
-243 -4822 4823 0
-4823 4830 0
-244 -4823 4824 0
-4824 4831 0
-245 -4824 0
-239 4825 0
-4825 4832 0
-240 -4825 4826 0
-4826 4833 0
-241 -4826 4827 0
-4827 4834 0
-242 -4827 4828 0
-4828 4835 0
-243 -4828 4829 0
-4829 4836 0
-244 -4829 4830 0
-4830 4837 0
-245 -4830 4831 0
-4831 4838 0
-246 -4831 0
-240 4832 0
-4832 4839 0
-241 -4832 4833 0
-4833 4840 0
-242 -4833 4834 0
-4834 4841 0
-243 -4834 4835 0
-4835 4842 0
-244 -4835 4836 0
-4836 4843 0
-245 -4836 4837 0
-4837 4844 0
-246 -4837 4838 0
-4838 4845 0
-247 -4838 0
-241 4839 0
-4839 4846 0
-242 -4839 4840 0
-4840 4847 0
-243 -4840 4841 0
-4841 4848 0
-244 -4841 4842 0
-4842 4849 0
-245 -4842 4843 0
-4843 4850 0
-246 -4843 4844 0
-4844 4851 0
-247 -4844 4845 0
-4845 4852 0
-248 -4845 0
-242 4846 0
-4846 4853 0
-243 -4846 4847 0
-4847 4854 0
-244 -4847 4848 0
-4848 4855 0
-245 -4848 4849 0
-4849 4856 0
-246 -4849 4850 0
-4850 4857 0
-247 -4850 4851 0
-4851 4858 0
-248 -4851 4852 0
-4852 4859 0
-249 -4852 0
-243 4853 0
-4853 4860 0
-244 -4853 4854 0
-4854 4861 0
-245 -4854 4855 0
-4855 4862 0
-246 -4855 4856 0
-4856 4863 0
-247 -4856 4857 0
-4857 4864 0
-248 -4857 4858 0
-4858 4865 0
-249 -4858 4859 0
-4859 4866 0
-250 -4859 0
-244 4860 0
-4860 4867 0
-245 -4860 4861 0
-4861 4868 0
-246 -4861 4862 0
-4862 4869 0
-247 -4862 4863 0
-4863 4870 0
-248 -4863 4864 0
-4864 4871 0
-249 -4864 4865 0
-4865 4872 0
-250 -4865 4866 0
-4866 4873 0
-251 -4866 0
-245 4867 0
-4867 4874 0
-246 -4867 4868 0
-4868 4875 0
-247 -4868 4869 0
-4869 4876 0
-248 -4869 4870 0
-4870 4877 0
-249 -4870 4871 0
-4871 4878 0
-250 -4871 4872 0
-4872 4879 0
-251 -4872 4873 0
-4873 4880 0
-252 -4873 0
-246 4874 0
-4874 4881 0
-247 -4874 4875 0
-4875 4882 0
-248 -4875 4876 0
-4876 4883 0
-249 -4876 4877 0
-4877 4884 0
-250 -4877 4878 0
-4878 4885 0
-251 -4878 4879 0
-4879 4886 0
-252 -4879 4880 0
-4880 4887 0
-253 -4880 0
-247 4881 0
-4881 4888 0
-248 -4881 4882 0
-4882 4889 0
-249 -4882 4883 0
-4883 4890 0
-250 -4883 4884 0
-4884 4891 0
-251 -4884 4885 0
-4885 4892 0
-252 -4885 4886 0
-4886 4893 0
-253 -4886 4887 0
-4887 4894 0
-254 -4887 0
-248 4888 0
-4888 4895 0
-249 -4888 4889 0
-4889 4896 0
-250 -4889 4890 0
-4890 4897 0
-251 -4890 4891 0
-4891 4898 0
-252 -4891 4892 0
-4892 4899 0
-253 -4892 4893 0
-4893 4900 0
-254 -4893 4894 0
-4894 4901 0
-255 -4894 0
-249 4895 0
-4895 4902 0
-250 -4895 4896 0
-4896 4903 0
-251 -4896 4897 0
-4897 4904 0
-252 -4897 4898 0
-4898 4905 0
-253 -4898 4899 0
-4899 4906 0
-254 -4899 4900 0
-4900 4907 0
-255 -4900 4901 0
-4901 4908 0
-256 -4901 0
-250 4902 0
-4902 4909 0
-251 -4902 4903 0
-4903 4910 0
-252 -4903 4904 0
-4904 4911 0
-253 -4904 4905 0
-4905 4912 0
-254 -4905 4906 0
-4906 4913 0
-255 -4906 4907 0
-4907 4914 0
-256 -4907 4908 0
-4908 4915 0
-257 -4908 0
-251 4909 0
-4909 4916 0
-252 -4909 4910 0
-4910 4917 0
-253 -4910 4911 0
-4911 4918 0
-254 -4911 4912 0
-4912 4919 0
-255 -4912 4913 0
-4913 4920 0
-256 -4913 4914 0
-4914 4921 0
-257 -4914 4915 0
-4915 4922 0
-258 -4915 0
-252 4916 0
-4916 4923 0
-253 -4916 4917 0
-4917 4924 0
-254 -4917 4918 0
-4918 4925 0
-255 -4918 4919 0
-4919 4926 0
-256 -4919 4920 0
-4920 4927 0
-257 -4920 4921 0
-4921 4928 0
-258 -4921 4922 0
-4922 4929 0
-259 -4922 0
-253 4923 0
-4923 4930 0
-254 -4923 4924 0
-4924 4931 0
-255 -4924 4925 0
-4925 4932 0
-256 -4925 4926 0
-4926 4933 0
-257 -4926 4927 0
-4927 4934 0
-258 -4927 4928 0
-4928 4935 0
-259 -4928 4929 0
-4929 4936 0
-260 -4929 0
-254 4930 0
-4930 4937 0
-255 -4930 4931 0
-4931 4938 0
-256 -4931 4932 0
-4932 4939 0
-257 -4932 4933 0
-4933 4940 0
-258 -4933 4934 0
-4934 4941 0
-259 -4934 4935 0
-4935 4942 0
-260 -4935 4936 0
-4936 4943 0
-261 -4936 0
-255 4937 0
-4937 4944 0
-256 -4937 4938 0
-4938 4945 0
-257 -4938 4939 0
-4939 4946 0
-258 -4939 4940 0
-4940 4947 0
-259 -4940 4941 0
-4941 4948 0
-260 -4941 4942 0
-4942 4949 0
-261 -4942 4943 0
-4943 4950 0
-262 -4943 0
-256 4944 0
-4944 4951 0
-257 -4944 4945 0
-4945 4952 0
-258 -4945 4946 0
-4946 4953 0
-259 -4946 4947 0
-4947 4954 0
-260 -4947 4948 0
-4948 4955 0
-261 -4948 4949 0
-4949 4956 0
-262 -4949 4950 0
-4950 4957 0
-263 -4950 0
-257 4951 0
-4951 4958 0
-258 -4951 4952 0
-4952 4959 0
-259 -4952 4953 0
-4953 4960 0
-260 -4953 4954 0
-4954 4961 0
-261 -4954 4955 0
-4955 4962 0
-262 -4955 4956 0
-4956 4963 0
-263 -4956 4957 0
-4957 4964 0
-264 -4957 0
-258 4958 0
-4958 4965 0
-259 -4958 4959 0
-4959 4966 0
-260 -4959 4960 0
-4960 4967 0
-261 -4960 4961 0
-4961 4968 0
-262 -4961 4962 0
-4962 4969 0
-263 -4962 4963 0
-4963 4970 0
-264 -4963 4964 0
-4964 4971 0
-265 -4964 0
-259 4965 0
-4965 4972 0
-260 -4965 4966 0
-4966 4973 0
-261 -4966 4967 0
-4967 4974 0
-262 -4967 4968 0
-4968 4975 0
-263 -4968 4969 0
-4969 4976 0
-264 -4969 4970 0
-4970 4977 0
-265 -4970 4971 0
-4971 4978 0
-266 -4971 0
-260 4972 0
-4972 4979 0
-261 -4972 4973 0
-4973 4980 0
-262 -4973 4974 0
-4974 4981 0
-263 -4974 4975 0
-4975 4982 0
-264 -4975 4976 0
-4976 4983 0
-265 -4976 4977 0
-4977 4984 0
-266 -4977 4978 0
-4978 4985 0
-267 -4978 0
-261 4979 0
-4979 4986 0
-262 -4979 4980 0
-4980 4987 0
-263 -4980 4981 0
-4981 4988 0
-264 -4981 4982 0
-4982 4989 0
-265 -4982 4983 0
-4983 4990 0
-266 -4983 4984 0
-4984 4991 0
-267 -4984 4985 0
-4985 4992 0
-268 -4985 0
-262 4986 0
-4986 4993 0
-263 -4986 4987 0
-4987 4994 0
-264 -4987 4988 0
-4988 4995 0
-265 -4988 4989 0
-4989 4996 0
-266 -4989 4990 0
-4990 4997 0
-267 -4990 4991 0
-4991 4998 0
-268 -4991 4992 0
-4992 4999 0
-269 -4992 0
-263 4993 0
-4993 5000 0
-264 -4993 4994 0
-4994 5001 0
-265 -4994 4995 0
-4995 5002 0
-266 -4995 4996 0
-4996 5003 0
-267 -4996 4997 0
-4997 5004 0
-268 -4997 4998 0
-4998 5005 0
-269 -4998 4999 0
-4999 5006 0
-270 -4999 0
-264 5000 0
-5000 5007 0
-265 -5000 5001 0
-5001 5008 0
-266 -5001 5002 0
-5002 5009 0
-267 -5002 5003 0
-5003 5010 0
-268 -5003 5004 0
-5004 5011 0
-269 -5004 5005 0
-5005 5012 0
-270 -5005 5006 0
-5006 5013 0
-271 -5006 0
-265 5007 0
-5007 5014 0
-266 -5007 5008 0
-5008 5015 0
-267 -5008 5009 0
-5009 5016 0
-268 -5009 5010 0
-5010 5017 0
-269 -5010 5011 0
-5011 5018 0
-270 -5011 5012 0
-5012 5019 0
-271 -5012 5013 0
-5013 5020 0
-272 -5013 0
-266 5014 0
-5014 5021 0
-267 -5014 5015 0
-5015 5022 0
-268 -5015 5016 0
-5016 5023 0
-269 -5016 5017 0
-5017 5024 0
-270 -5017 5018 0
-5018 5025 0
-271 -5018 5019 0
-5019 5026 0
-272 -5019 5020 0
-5020 5027 0
-273 -5020 0
-267 5021 0
-5021 5028 0
-268 -5021 5022 0
-5022 5029 0
-269 -5022 5023 0
-5023 5030 0
-270 -5023 5024 0
-5024 5031 0
-271 -5024 5025 0
-5025 5032 0
-272 -5025 5026 0
-5026 5033 0
-273 -5026 5027 0
-5027 5034 0
-274 -5027 0
-268 5028 0
-5028 5035 0
-269 -5028 5029 0
-5029 5036 0
-270 -5029 5030 0
-5030 5037 0
-271 -5030 5031 0
-5031 5038 0
-272 -5031 5032 0
-5032 5039 0
-273 -5032 5033 0
-5033 5040 0
-274 -5033 5034 0
-5034 5041 0
-275 -5034 0
-269 5035 0
-5035 5042 0
-270 -5035 5036 0
-5036 5043 0
-271 -5036 5037 0
-5037 5044 0
-272 -5037 5038 0
-5038 5045 0
-273 -5038 5039 0
-5039 5046 0
-274 -5039 5040 0
-5040 5047 0
-275 -5040 5041 0
-5041 5048 0
-276 -5041 0
-270 5042 0
-5042 5049 0
-271 -5042 5043 0
-5043 5050 0
-272 -5043 5044 0
-5044 5051 0
-273 -5044 5045 0
-5045 5052 0
-274 -5045 5046 0
-5046 5053 0
-275 -5046 5047 0
-5047 5054 0
-276 -5047 5048 0
-5048 5055 0
-277 -5048 0
-271 5049 0
-5049 5056 0
-272 -5049 5050 0
-5050 5057 0
-273 -5050 5051 0
-5051 5058 0
-274 -5051 5052 0
-5052 5059 0
-275 -5052 5053 0
-5053 5060 0
-276 -5053 5054 0
-5054 5061 0
-277 -5054 5055 0
-5055 5062 0
-278 -5055 0
-272 5056 0
-5056 5063 0
-273 -5056 5057 0
-5057 5064 0
-274 -5057 5058 0
-5058 5065 0
-275 -5058 5059 0
-5059 5066 0
-276 -5059 5060 0
-5060 5067 0
-277 -5060 5061 0
-5061 5068 0
-278 -5061 5062 0
-5062 5069 0
-279 -5062 0
-273 5063 0
-5063 5070 0
-274 -5063 5064 0
-5064 5071 0
-275 -5064 5065 0
-5065 5072 0
-276 -5065 5066 0
-5066 5073 0
-277 -5066 5067 0
-5067 5074 0
-278 -5067 5068 0
-5068 5075 0
-279 -5068 5069 0
-5069 5076 0
-280 -5069 0
-274 5070 0
-5070 5077 0
-275 -5070 5071 0
-5071 5078 0
-276 -5071 5072 0
-5072 5079 0
-277 -5072 5073 0
-5073 5080 0
-278 -5073 5074 0
-5074 5081 0
-279 -5074 5075 0
-5075 5082 0
-280 -5075 5076 0
-5076 5083 0
-281 -5076 0
-275 5077 0
-5077 5084 0
-276 -5077 5078 0
-5078 5085 0
-277 -5078 5079 0
-5079 5086 0
-278 -5079 5080 0
-5080 5087 0
-279 -5080 5081 0
-5081 5088 0
-280 -5081 5082 0
-5082 5089 0
-281 -5082 5083 0
-5083 5090 0
-282 -5083 0
-276 5084 0
-5084 5091 0
-277 -5084 5085 0
-5085 5092 0
-278 -5085 5086 0
-5086 5093 0
-279 -5086 5087 0
-5087 5094 0
-280 -5087 5088 0
-5088 5095 0
-281 -5088 5089 0
-5089 5096 0
-282 -5089 5090 0
-5090 5097 0
-283 -5090 0
-277 5091 0
-5091 5098 0
-278 -5091 5092 0
-5092 5099 0
-279 -5092 5093 0
-5093 5100 0
-280 -5093 5094 0
-5094 5101 0
-281 -5094 5095 0
-5095 5102 0
-282 -5095 5096 0
-5096 5103 0
-283 -5096 5097 0
-5097 5104 0
-284 -5097 0
-278 5098 0
-5098 5105 0
-279 -5098 5099 0
-5099 5106 0
-280 -5099 5100 0
-5100 5107 0
-281 -5100 5101 0
-5101 5108 0
-282 -5101 5102 0
-5102 5109 0
-283 -5102 5103 0
-5103 5110 0
-284 -5103 5104 0
-5104 5111 0
-285 -5104 0
-279 5105 0
-5105 5112 0
-280 -5105 5106 0
-5106 5113 0
-281 -5106 5107 0
-5107 5114 0
-282 -5107 5108 0
-5108 5115 0
-283 -5108 5109 0
-5109 5116 0
-284 -5109 5110 0
-5110 5117 0
-285 -5110 5111 0
-5111 5118 0
-286 -5111 0
-280 5112 0
-5112 5119 0
-281 -5112 5113 0
-5113 5120 0
-282 -5113 5114 0
-5114 5121 0
-283 -5114 5115 0
-5115 5122 0
-284 -5115 5116 0
-5116 5123 0
-285 -5116 5117 0
-5117 5124 0
-286 -5117 5118 0
-5118 5125 0
-287 -5118 0
-281 5119 0
-5119 5126 0
-282 -5119 5120 0
-5120 5127 0
-283 -5120 5121 0
-5121 5128 0
-284 -5121 5122 0
-5122 5129 0
-285 -5122 5123 0
-5123 5130 0
-286 -5123 5124 0
-5124 5131 0
-287 -5124 5125 0
-5125 5132 0
-288 -5125 0
-282 5126 0
-5126 5133 0
-283 -5126 5127 0
-5127 5134 0
-284 -5127 5128 0
-5128 5135 0
-285 -5128 5129 0
-5129 5136 0
-286 -5129 5130 0
-5130 5137 0
-287 -5130 5131 0
-5131 5138 0
-288 -5131 5132 0
-5132 5139 0
-289 -5132 0
-283 5133 0
-5133 5140 0
-284 -5133 5134 0
-5134 5141 0
-285 -5134 5135 0
-5135 5142 0
-286 -5135 5136 0
-5136 5143 0
-287 -5136 5137 0
-5137 5144 0
-288 -5137 5138 0
-5138 5145 0
-289 -5138 5139 0
-5139 5146 0
-290 -5139 0
-284 5140 0
-5140 5147 0
-285 -5140 5141 0
-5141 5148 0
-286 -5141 5142 0
-5142 5149 0
-287 -5142 5143 0
-5143 5150 0
-288 -5143 5144 0
-5144 5151 0
-289 -5144 5145 0
-5145 5152 0
-290 -5145 5146 0
-5146 5153 0
-291 -5146 0
-285 5147 0
-5147 5154 0
-286 -5147 5148 0
-5148 5155 0
-287 -5148 5149 0
-5149 5156 0
-288 -5149 5150 0
-5150 5157 0
-289 -5150 5151 0
-5151 5158 0
-290 -5151 5152 0
-5152 5159 0
-291 -5152 5153 0
-5153 5160 0
-292 -5153 0
-286 5154 0
-5154 5161 0
-287 -5154 5155 0
-5155 5162 0
-288 -5155 5156 0
-5156 5163 0
-289 -5156 5157 0
-5157 5164 0
-290 -5157 5158 0
-5158 5165 0
-291 -5158 5159 0
-5159 5166 0
-292 -5159 5160 0
-5160 5167 0
-293 -5160 0
-287 5161 0
-5161 5168 0
-288 -5161 5162 0
-5162 5169 0
-289 -5162 5163 0
-5163 5170 0
-290 -5163 5164 0
-5164 5171 0
-291 -5164 5165 0
-5165 5172 0
-292 -5165 5166 0
-5166 5173 0
-293 -5166 5167 0
-5167 5174 0
-294 -5167 0
-288 5168 0
-5168 5175 0
-289 -5168 5169 0
-5169 5176 0
-290 -5169 5170 0
-5170 5177 0
-291 -5170 5171 0
-5171 5178 0
-292 -5171 5172 0
-5172 5179 0
-293 -5172 5173 0
-5173 5180 0
-294 -5173 5174 0
-5174 5181 0
-295 -5174 0
-289 5175 0
-5175 5182 0
-290 -5175 5176 0
-5176 5183 0
-291 -5176 5177 0
-5177 5184 0
-292 -5177 5178 0
-5178 5185 0
-293 -5178 5179 0
-5179 5186 0
-294 -5179 5180 0
-5180 5187 0
-295 -5180 5181 0
-5181 5188 0
-296 -5181 0
-290 5182 0
-5182 5189 0
-291 -5182 5183 0
-5183 5190 0
-292 -5183 5184 0
-5184 5191 0
-293 -5184 5185 0
-5185 5192 0
-294 -5185 5186 0
-5186 5193 0
-295 -5186 5187 0
-5187 5194 0
-296 -5187 5188 0
-5188 5195 0
-297 -5188 0
-291 5189 0
-5189 5196 0
-292 -5189 5190 0
-5190 5197 0
-293 -5190 5191 0
-5191 5198 0
-294 -5191 5192 0
-5192 5199 0
-295 -5192 5193 0
-5193 5200 0
-296 -5193 5194 0
-5194 5201 0
-297 -5194 5195 0
-5195 5202 0
-298 -5195 0
-292 5196 0
-5196 5203 0
-293 -5196 5197 0
-5197 5204 0
-294 -5197 5198 0
-5198 5205 0
-295 -5198 5199 0
-5199 5206 0
-296 -5199 5200 0
-5200 5207 0
-297 -5200 5201 0
-5201 5208 0
-298 -5201 5202 0
-5202 5209 0
-299 -5202 0
-293 5203 0
-5203 5210 0
-294 -5203 5204 0
-5204 5211 0
-295 -5204 5205 0
-5205 5212 0
-296 -5205 5206 0
-5206 5213 0
-297 -5206 5207 0
-5207 5214 0
-298 -5207 5208 0
-5208 5215 0
-299 -5208 5209 0
-5209 5216 0
-300 -5209 0
-294 5210 0
-5210 5217 0
-295 -5210 5211 0
-5211 5218 0
-296 -5211 5212 0
-5212 5219 0
-297 -5212 5213 0
-5213 5220 0
-298 -5213 5214 0
-5214 5221 0
-299 -5214 5215 0
-5215 5222 0
-300 -5215 5216 0
-5216 5223 0
-301 -5216 0
-295 5217 0
-5217 5224 0
-296 -5217 5218 0
-5218 5225 0
-297 -5218 5219 0
-5219 5226 0
-298 -5219 5220 0
-5220 5227 0
-299 -5220 5221 0
-5221 5228 0
-300 -5221 5222 0
-5222 5229 0
-301 -5222 5223 0
-5223 5230 0
-302 -5223 0
-296 5224 0
-5224 5231 0
-297 -5224 5225 0
-5225 5232 0
-298 -5225 5226 0
-5226 5233 0
-299 -5226 5227 0
-5227 5234 0
-300 -5227 5228 0
-5228 5235 0
-301 -5228 5229 0
-5229 5236 0
-302 -5229 5230 0
-5230 5237 0
-303 -5230 0
-297 5231 0
-5231 5238 0
-298 -5231 5232 0
-5232 5239 0
-299 -5232 5233 0
-5233 5240 0
-300 -5233 5234 0
-5234 5241 0
-301 -5234 5235 0
-5235 5242 0
-302 -5235 5236 0
-5236 5243 0
-303 -5236 5237 0
-5237 5244 0
-304 -5237 0
-298 5238 0
-5238 5245 0
-299 -5238 5239 0
-5239 5246 0
-300 -5239 5240 0
-5240 5247 0
-301 -5240 5241 0
-5241 5248 0
-302 -5241 5242 0
-5242 5249 0
-303 -5242 5243 0
-5243 5250 0
-304 -5243 5244 0
-5244 5251 0
-305 -5244 0
-299 5245 0
-5245 5252 0
-300 -5245 5246 0
-5246 5253 0
-301 -5246 5247 0
-5247 5254 0
-302 -5247 5248 0
-5248 5255 0
-303 -5248 5249 0
-5249 5256 0
-304 -5249 5250 0
-5250 5257 0
-305 -5250 5251 0
-5251 5258 0
-306 -5251 0
-300 5252 0
-5252 5259 0
-301 -5252 5253 0
-5253 5260 0
-302 -5253 5254 0
-5254 5261 0
-303 -5254 5255 0
-5255 5262 0
-304 -5255 5256 0
-5256 5263 0
-305 -5256 5257 0
-5257 5264 0
-306 -5257 5258 0
-5258 5265 0
-307 -5258 0
-301 5259 0
-5259 5266 0
-302 -5259 5260 0
-5260 5267 0
-303 -5260 5261 0
-5261 5268 0
-304 -5261 5262 0
-5262 5269 0
-305 -5262 5263 0
-5263 5270 0
-306 -5263 5264 0
-5264 5271 0
-307 -5264 5265 0
-5265 5272 0
-308 -5265 0
-302 5266 0
-5266 5273 0
-303 -5266 5267 0
-5267 5274 0
-304 -5267 5268 0
-5268 5275 0
-305 -5268 5269 0
-5269 5276 0
-306 -5269 5270 0
-5270 5277 0
-307 -5270 5271 0
-5271 5278 0
-308 -5271 5272 0
-5272 5279 0
-309 -5272 0
-303 5273 0
-5273 5280 0
-304 -5273 5274 0
-5274 5281 0
-305 -5274 5275 0
-5275 5282 0
-306 -5275 5276 0
-5276 5283 0
-307 -5276 5277 0
-5277 5284 0
-308 -5277 5278 0
-5278 5285 0
-309 -5278 5279 0
-5279 5286 0
-310 -5279 0
-304 5280 0
-5280 5287 0
-305 -5280 5281 0
-5281 5288 0
-306 -5281 5282 0
-5282 5289 0
-307 -5282 5283 0
-5283 5290 0
-308 -5283 5284 0
-5284 5291 0
-309 -5284 5285 0
-5285 5292 0
-310 -5285 5286 0
-5286 5293 0
-311 -5286 0
-305 5287 0
-5287 5294 0
-306 -5287 5288 0
-5288 5295 0
-307 -5288 5289 0
-5289 5296 0
-308 -5289 5290 0
-5290 5297 0
-309 -5290 5291 0
-5291 5298 0
-310 -5291 5292 0
-5292 5299 0
-311 -5292 5293 0
-5293 5300 0
-312 -5293 0
-306 5294 0
-5294 5301 0
-307 -5294 5295 0
-5295 5302 0
-308 -5295 5296 0
-5296 5303 0
-309 -5296 5297 0
-5297 5304 0
-310 -5297 5298 0
-5298 5305 0
-311 -5298 5299 0
-5299 5306 0
-312 -5299 5300 0
-5300 5307 0
-313 -5300 0
-307 5301 0
-5301 5308 0
-308 -5301 5302 0
-5302 5309 0
-309 -5302 5303 0
-5303 5310 0
-310 -5303 5304 0
-5304 5311 0
-311 -5304 5305 0
-5305 5312 0
-312 -5305 5306 0
-5306 5313 0
-313 -5306 5307 0
-5307 5314 0
-314 -5307 0
-308 5308 0
-5308 5315 0
-309 -5308 5309 0
-5309 5316 0
-310 -5309 5310 0
-5310 5317 0
-311 -5310 5311 0
-5311 5318 0
-312 -5311 5312 0
-5312 5319 0
-313 -5312 5313 0
-5313 5320 0
-314 -5313 5314 0
-5314 5321 0
-315 -5314 0
-309 5315 0
-5315 5322 0
-310 -5315 5316 0
-5316 5323 0
-311 -5316 5317 0
-5317 5324 0
-312 -5317 5318 0
-5318 5325 0
-313 -5318 5319 0
-5319 5326 0
-314 -5319 5320 0
-5320 5327 0
-315 -5320 5321 0
-5321 5328 0
-316 -5321 0
-310 5322 0
-5322 5329 0
-311 -5322 5323 0
-5323 5330 0
-312 -5323 5324 0
-5324 5331 0
-313 -5324 5325 0
-5325 5332 0
-314 -5325 5326 0
-5326 5333 0
-315 -5326 5327 0
-5327 5334 0
-316 -5327 5328 0
-5328 5335 0
-317 -5328 0
-311 5329 0
-5329 5336 0
-312 -5329 5330 0
-5330 5337 0
-313 -5330 5331 0
-5331 5338 0
-314 -5331 5332 0
-5332 5339 0
-315 -5332 5333 0
-5333 5340 0
-316 -5333 5334 0
-5334 5341 0
-317 -5334 5335 0
-5335 5342 0
-318 -5335 0
-312 5336 0
-5336 5343 0
-313 -5336 5337 0
-5337 5344 0
-314 -5337 5338 0
-5338 5345 0
-315 -5338 5339 0
-5339 5346 0
-316 -5339 5340 0
-5340 5347 0
-317 -5340 5341 0
-5341 5348 0
-318 -5341 5342 0
-5342 5349 0
-319 -5342 0
-313 5343 0
-5343 5350 0
-314 -5343 5344 0
-5344 5351 0
-315 -5344 5345 0
-5345 5352 0
-316 -5345 5346 0
-5346 5353 0
-317 -5346 5347 0
-5347 5354 0
-318 -5347 5348 0
-5348 5355 0
-319 -5348 5349 0
-5349 5356 0
-320 -5349 0
-314 5350 0
-5350 5357 0
-315 -5350 5351 0
-5351 5358 0
-316 -5351 5352 0
-5352 5359 0
-317 -5352 5353 0
-5353 5360 0
-318 -5353 5354 0
-5354 5361 0
-319 -5354 5355 0
-5355 5362 0
-320 -5355 5356 0
-5356 5363 0
-321 -5356 0
-315 5357 0
-5357 5364 0
-316 -5357 5358 0
-5358 5365 0
-317 -5358 5359 0
-5359 5366 0
-318 -5359 5360 0
-5360 5367 0
-319 -5360 5361 0
-5361 5368 0
-320 -5361 5362 0
-5362 5369 0
-321 -5362 5363 0
-5363 5370 0
-322 -5363 0
-316 5364 0
-5364 5371 0
-317 -5364 5365 0
-5365 5372 0
-318 -5365 5366 0
-5366 5373 0
-319 -5366 5367 0
-5367 5374 0
-320 -5367 5368 0
-5368 5375 0
-321 -5368 5369 0
-5369 5376 0
-322 -5369 5370 0
-5370 5377 0
-323 -5370 0
-317 5371 0
-318 -5371 5372 0
-319 -5372 5373 0
-320 -5373 5374 0
-321 -5374 5375 0
-322 -5375 5376 0
-323 -5376 5377 0
-324 -5377 0
